<?xml version="1.0"?>
<VTKFile type="UnstructuredGrid"  version="0.1"  >
<UnstructuredGrid>
<Piece  NumberOfPoints="10909" NumberOfCells="21162">
<Points>
<DataArray  type="Float64"  NumberOfComponents="3"  format="ascii">-0.09999216720722226 0.001251597859899349 0  -0.09999216720722226 -0.001251597859899324 0  -0.09992951222712528 -0.003754009329879275 0  -0.09980424152647172 -0.006254068541813297 0  -0.09961643359974248 -0.008750208961396265 0  -0.0993662061271743 -0.01124086650983409 0  -0.09905371590102154 -0.01372448054389361 0  -0.09867915872731027 -0.01619949483379979 0  -0.09824276930314649 -0.01866435853836769 0  -0.09774482106965511 -0.02111752717675784 0  -0.09718562604064213 -0.02355746359624618 0  -0.09656553460708706 -0.0259826389354021 0  -0.0958849353175884 -0.02839153358207142 0  -0.09514425463489948 -0.03078263812556374 0  -0.09434395666870733 -0.03315445430244742 0  -0.09348454288482222 -0.03550549593535961 0  -0.09256655179095953 -0.03783428986424361 0  -0.09159055859931162 -0.04013937686942917 0  -0.09055717486612039 -0.04241931258597781 0  -0.08946704810847689 -0.04467266840872038 0  -0.08832086139858776 -0.04689803238741953 0  -0.08711933293576302 -0.04909401011149607 0  -0.08586321559639315 -0.051259225583765 0  -0.08455329646219767 -0.05339232208263388 0  -0.08319039632704039 -0.05549196301222316 0  -0.0817753691826212 -0.05755683273987554 0  -0.08030910168336558 -0.05958563742052986 0  -0.07879251259084807 -0.06157710580744316 0  -0.07722655219809717 -0.06352999004875236 0  -0.07561220173414296 -0.0654430664693768 0  -0.07395047274917997 -0.0673151363377717 0  -0.07224240648073096 -0.06914502661705209 0  -0.0704890732012087 -0.07093159070001633 0  -0.06869157154728435 -0.07267370912760898 0  -0.06685102783148329 -0.07437029029037232 0  -0.06496859533643848 -0.07602027111244807 0  -0.06304545359224527 -0.07762261771769907 0  -0.06108280763736874 -0.07917632607753537 0  -0.05908188726356842 -0.080680422640037 0  -0.05704394624531189 -0.08213396493998064 0  -0.05497026155416092 -0.08353604218938757 0  -0.05286213255862293 -0.08488577584822193 0  -0.05072088020996789 -0.08618232017488325 0  -0.04854784621452173 -0.08742486275614705 0  -0.04634439219295482 -0.08861262501622209 0  -0.0441118988270916 -0.08974486270460519 0  -0.0418517649947774 -0.09082086636242756 0  -0.0395654068933429 -0.09183996176700104 0  -0.03725425715221625 -0.09280151035428542 0  -0.0349197639352395 -0.09370490961901168 0  -0.03256339003325057 -0.09454959349221126 0  -0.03018661194749989 -0.09533503269591435 0  -0.02779091896447685 -0.09606073507479465 0  -0.0253778122227242 -0.09672624590455349 0  -0.02294880377222645 -0.09733114817684957 0  -0.02050541562696112 -0.0978750628605958 0  -0.01804917881120608 -0.09835764913945998 0  -0.01558163240020206 -0.09877860462541965 0  -0.01310432255576947 -0.09913766554823829 0  -0.01061880155748498 -0.09943460692074342 0  -0.008126626830025281 -0.09966924267980326 0  -0.00562935996728636 -0.09984142580291366 0  -0.003128565753890103 -0.09995104840032237 0  -0.0006258111846929931 -0.0999980417826325 0  0.001877335517092352 -0.09998237650384323 0  0.004379305882543121 -0.09990406237980078 0  0.006878532179827535 -0.09976314848204761 0  0.009373448396544122 -0.09955972310707441 0  0.01186249122098281 -0.09929391372099353 0  0.01434410102169454 -0.09896588687966891 0  0.0168167228247549 -0.09857584812435229 0  0.01927880728810846 -0.09812404185289136 0  0.02172881167238507 -0.09761075116659038 0  0.02416520080757896 -0.09703629769281898 0  0.02658644805498359 -0.09640104138348123 0  0.02899103626378299 -0.09570538028946973 0  0.03137745872169579 -0.09494975031124768 0  0.03374422009907978 -0.09413462492571403 0  0.03608983738590409 -0.0932605148895233 0  0.0384128408210011 -0.09232796791904624 0  0.04071177481301732 -0.0913375683471712 0  0.04298519885248568 -0.09028993675716174 0  0.04523168841444655 -0.08918572959380006 0  0.04744983585105387 -0.08802563875205931 0  0.0496382512736056 -0.08681039114356295 0  0.05179556342344641 -0.08554074824110286 0  0.05392042053119698 -0.08421750560150111 0  0.05601149116377094 -0.08284149236711523 0  0.05806746505864942 -0.08141357074629837 0  0.06008705394489031 -0.07993463547314045 0  0.062068992350357 -0.07840561324682899 0  0.06401203839466206 -0.0768274621509803 0  0.06591497456732821 -0.07520117105330526 0  0.0677766084906786 -0.07352775898598621 0  0.06959577366697992 -0.07180827450715208 0  0.07137133020936784 -0.07004379504385366 0  0.07310216555609947 -0.06823542621694852 0  0.07478719516768322 -0.06638430114832015 0  0.07642536320644966 -0.06449157975086556 0  0.07801564319813849 -0.06255844800169477 0  0.07955703867508632 -0.06058611719899883 0  0.08104858380061176 -0.05857582320305206 0  0.08248934397420797 -0.05652882566182319 0  0.0838784164171622 -0.05444640722168118 0  0.08521493073823577 -0.05232987272369083 0  0.08649804947905057 -0.05018054838600033 0  0.08772696863883907 -0.04799978097283517 0  0.0889009181782307 -0.04578893695061648 0  0.09001916250175765 -0.04354940163173486 0  0.09108100091877785 -0.04128257830651554 0  0.09208576808252723 -0.03898988736391795 0  0.0930328344070252 -0.03667276540152144 0  0.09392160646157242 -0.03433266432535521 0  0.09475152734259386 -0.0319710504401355 0  0.09552207702259409 -0.02958940353048034 0  0.09623277267600569 -0.02718921593367883 0  0.09688316898172744 -0.02477199160459344 0  0.0974728584021618 -0.02233924517328454 0  0.09800147143857771 -0.01989250099594415 0  0.09846867686263801 -0.0174332921997361 0  0.09887418192394669 -0.01496315972214073 0  0.09921773253348604 -0.01248365134540491 0  0.09949911342282847 -0.009996320726703157 0  0.09971814827902359 -0.007502726424618317 0  0.09987469985507552 -0.005004430922550236 0  0.09996867005594191 -0.002502999649665144 0  0.1 0 0  0.09996867005594191 0.002502999649665096 0  0.09987469985507554 0.005004430922550164 0  0.09971814827902359 0.007502726424618309 0  0.09949911342282848 0.009996320726703126 0  0.09921773253348604 0.01248365134540486 0  0.09887418192394669 0.01496315972214074 0  0.09846867686263801 0.01743329219973608 0  0.09800147143857772 0.01989250099594411 0  0.0974728584021618 0.02233924517328456 0  0.09688316898172744 0.02477199160459344 0  0.09623277267600572 0.02718921593367872 0  0.0955220770225941 0.0295894035304803 0  0.09475152734259389 0.03197105044013543 0  0.09392160646157242 0.0343326643253552 0  0.09303283440702523 0.0366727654015214 0  0.09208576808252726 0.0389898873639179 0  0.09108100091877785 0.04128257830651555 0  0.09001916250175765 0.04354940163173485 0  0.08890091817823072 0.04578893695061644 0  0.08772696863883905 0.04799978097283519 0  0.08649804947905056 0.05018054838600035 0  0.08521493073823583 0.05232987272369073 0  0.08387841641716223 0.05444640722168113 0  0.082489343974208 0.05652882566182314 0  0.08104858380061178 0.05857582320305206 0  0.07955703867508633 0.06058611719899881 0  0.07801564319813853 0.06255844800169473 0  0.07642536320644966 0.06449157975086556 0  0.07478719516768322 0.06638430114832015 0  0.0731021655560995 0.06823542621694849 0  0.07137133020936781 0.07004379504385369 0  0.0695957736669799 0.07180827450715209 0  0.06777660849067867 0.07352775898598612 0  0.06591497456732824 0.07520117105330523 0  0.06401203839466212 0.07682746215098026 0  0.06206899235035701 0.07840561324682899 0  0.06008705394489031 0.07993463547314045 0  0.05806746505864946 0.08141357074629835 0  0.05601149116377094 0.08284149236711523 0  0.05392042053119699 0.08421750560150111 0  0.05179556342344643 0.08554074824110285 0  0.04963825127360558 0.08681039114356297 0  0.04744983585105388 0.08802563875205929 0  0.04523168841444657 0.08918572959380004 0  0.04298519885248572 0.09028993675716171 0  0.04071177481301738 0.09133756834717116 0  0.0384128408210011 0.09232796791904624 0  0.03608983738590412 0.0932605148895233 0  0.03374422009907983 0.09413462492571401 0  0.03137745872169577 0.09494975031124768 0  0.02899103626378299 0.09570538028946973 0  0.02658644805498361 0.09640104138348121 0  0.02416520080757892 0.09703629769281899 0  0.02172881167238516 0.09761075116659035 0  0.01927880728810846 0.09812404185289136 0  0.01681672282475495 0.09857584812435227 0  0.01434410102169461 0.0989658868796689 0  0.01186249122098281 0.09929391372099353 0  0.009373448396544148 0.09955972310707439 0  0.006878532179827604 0.09976314848204761 0  0.004379305882543101 0.09990406237980078 0  0.001877335517092354 0.09998237650384323 0  -0.0006258111846929686 0.0999980417826325 0  -0.003128565753890144 0.09995104840032237 0  -0.005629359967286269 0.09984142580291366 0  -0.008126626830025279 0.09966924267980326 0  -0.01061880155748493 0.09943460692074342 0  -0.01310432255576943 0.09913766554823829 0  -0.01558163240020205 0.09877860462541965 0  -0.01804917881120606 0.09835764913945998 0  -0.02050541562696107 0.09787506286059582 0  -0.02294880377222647 0.09733114817684957 0  -0.0253778122227242 0.09672624590455349 0  -0.02779091896447682 0.09606073507479465 0  -0.03018661194749985 0.09533503269591437 0  -0.03256339003325048 0.0945495934922113 0  -0.03491976393523949 0.09370490961901168 0  -0.0372542571522162 0.09280151035428545 0  -0.03956540689334286 0.09183996176700107 0  -0.04185176499477741 0.09082086636242755 0  -0.04411189882709158 0.0897448627046052 0  -0.04634439219295476 0.08861262501622214 0  -0.04854784621452175 0.08742486275614705 0  -0.0507208802099679 0.08618232017488325 0  -0.05286213255862291 0.08488577584822195 0  -0.05497026155416086 0.08353604218938761 0  -0.05704394624531183 0.08213396493998068 0  -0.0590818872635684 0.080680422640037 0  -0.06108280763736872 0.07917632607753539 0  -0.06304545359224521 0.07762261771769911 0  -0.06496859533643849 0.07602027111244805 0  -0.06685102783148326 0.07437029029037233 0  -0.06869157154728432 0.072673709127609 0  -0.07048907320120865 0.07093159070001638 0  -0.07224240648073095 0.06914502661705212 0  -0.07395047274917996 0.06731513633777172 0  -0.07561220173414293 0.06544306646937682 0  -0.07722655219809715 0.06352999004875239 0  -0.07879251259084805 0.06157710580744318 0  -0.08030910168336558 0.05958563742052989 0  -0.08177536918262118 0.05755683273987557 0  -0.08319039632704039 0.05549196301222318 0  -0.08455329646219764 0.05339232208263391 0  -0.08586321559639316 0.05125922558376498 0  -0.087119332935763 0.04909401011149609 0  -0.08832086139858775 0.04689803238741955 0  -0.08946704810847689 0.0446726684087204 0  -0.09055717486612037 0.04241931258597783 0  -0.09159055859931159 0.04013937686942923 0  -0.09256655179095952 0.03783428986424364 0  -0.09348454288482221 0.03550549593535963 0  -0.09434395666870732 0.03315445430244744 0  -0.09514425463489946 0.03078263812556376 0  -0.0958849353175884 0.02839153358207144 0  -0.09656553460708706 0.02598263893540208 0  -0.09718562604064213 0.02355746359624621 0  -0.09774482106965511 0.02111752717675787 0  -0.09824276930314649 0.01866435853836771 0  -0.09867915872731026 0.01619949483379982 0  -0.09905371590102152 0.01372448054389368 0  -0.0993662061271743 0.01124086650983411 0  -0.09961643359974248 0.00875020896139629 0  -0.09980424152647172 0.006254068541813321 0  -0.09992951222712528 0.0037540093298793 0  0.03992262388534377 0.002486785497259221 0  0.04 0 0  0.03992262388534377 -0.002486785497259208 0  0.03969079489453106 -0.004963950104530373 0  0.03930540992889055 -0.007421910153179742 0  0.03876795996798664 -0.009851156273280079 0  0.0380805243013092 -0.01224229018351549 0  0.03724576248390638 -0.01458606105130622 0  0.0362669040470829 -0.01687340128248248 0  0.03514773600397073 -0.01909546160204512 0  0.03389258819831109 -0.02124364529029102 0  0.03250631655312999 -0.02330964144185206 0  0.03099428428411559 -0.02528545711897306 0  0.02936234115037842 -0.02716344827463543 0  0.02761680082286985 -0.02893634932589001 0  0.0257644164580159 -0.03059730126298591 0  0.02381235457106663 -0.03213987818554704 0  0.02176816731024109 -0.03355811216313205 0  0.01963976323893288 -0.03484651632399802 0  0.01743537673901486 -0.0360001060827412 0  0.01516353615361514 -0.03701441842468967 0  0.01283303079261469 -0.03788552917244001 0  0.0104528769285144 -0.03861006816773743 0  0.008032282914228736 -0.03918523230996326 0  0.005580613557756907 -0.03960879640078678 0  0.003107353891560257 -0.03987912175302517 0  0.0006220724768140307 -0.03999516253040598 0  -0.001865615615496718 -0.03995646979370443 0  -0.004346086003418975 -0.03976319323760211 0  -0.00680974222889595 -0.03941608061154726 0  -0.009247052884598804 -0.0389164748268575 0  -0.01164858848909008 -0.03826630876125679 0  -0.01400505796765564 -0.037468097780947 0  -0.01630734459766757 -0.03652493000914474 0  -0.01854654127941309 -0.03544045437873259 0  -0.02071398499593302 -0.03421886651524655 0  -0.0228012903285513 -0.03286489250481604 0  -0.02480038189843101 -0.03138377060985464 0  -0.02670352560864616 -0.0297812310032406 0  -0.02850335856590027 -0.02806347359939107 0  -0.0301929175661303 -0.02623714406799758 0  -0.03176566603379014 -0.02430930812322127 0  -0.03321551931059191 -0.02228742418781713 0  -0.03453686819586654 -0.02017931453794559 0  -0.03572460064747166 -0.01799313504030543 0  -0.03677412155928945 -0.01573734359867008 0  -0.03768137053879957 -0.01342066743190099 0  -0.03844283761594898 -0.01105206931003321 0  -0.03905557682254428 -0.008640712879059325 0  -0.03951721758963028 -0.006195927208563378 0  -0.03982597391876074 -0.003727170699362877 0  -0.03998065129167953 -0.00124399449079346 0  -0.03998065129167953 0.00124399449079347 0  -0.03982597391876074 0.003727170699362869 0  -0.03951721758963027 0.006195927208563387 0  -0.03905557682254428 0.008640712879059336 0  -0.03844283761594898 0.01105206931003322 0  -0.03768137053879957 0.013420667431901 0  -0.03677412155928945 0.01573734359867011 0  -0.03572460064747166 0.01799313504030544 0  -0.03453686819586654 0.0201793145379456 0  -0.03321551931059189 0.02228742418781715 0  -0.03176566603379014 0.02430930812322128 0  -0.03019291756613027 0.0262371440679976 0  -0.02850335856590028 0.02806347359939107 0  -0.02670352560864615 0.02978123100324061 0  -0.024800381898431 0.03138377060985464 0  -0.02280129032855131 0.03286489250481603 0  -0.02071398499593302 0.03421886651524655 0  -0.0185465412794131 0.03544045437873259 0  -0.01630734459766755 0.03652493000914475 0  -0.01400505796765562 0.03746809778094701 0  -0.01164858848909008 0.03826630876125679 0  -0.009247052884598787 0.0389164748268575 0  -0.00680974222889594 0.03941608061154726 0  -0.004346086003418975 0.03976319323760211 0  -0.001865615615496708 0.03995646979370443 0  0.0006220724768140317 0.03999516253040598 0  0.003107353891560249 0.03987912175302517 0  0.005580613557756925 0.03960879640078678 0  0.008032282914228746 0.03918523230996326 0  0.01045287692851443 0.03861006816773743 0  0.01283303079261471 0.03788552917244001 0  0.01516353615361518 0.03701441842468966 0  0.01743537673901485 0.0360001060827412 0  0.01963976323893289 0.03484651632399802 0  0.02176816731024109 0.03355811216313205 0  0.02381235457106664 0.03213987818554703 0  0.02576441645801592 0.0305973012629859 0  0.02761680082286987 0.02893634932588999 0  0.0293623411503784 0.02716344827463544 0  0.0309942842841156 0.02528545711897305 0  0.03250631655313001 0.02330964144185204 0  0.0338925881983111 0.021243645290291 0  0.03514773600397075 0.01909546160204508 0  0.0362669040470829 0.01687340128248249 0  0.03724576248390638 0.01458606105130621 0  0.0380805243013092 0.01224229018351549 0  0.03876795996798665 0.009851156273280055 0  0.03930540992889055 0.00742191015317973 0  0.03969079489453106 0.004963950104530374 0  -0.06998656734335579 1.214306433183765e-17 0  0.03245005292904324 -0.06200857632122375 0  0.03245005292904329 0.06200857632122368 0  0.05811306002301816 -0.03899353213400074 0  0.05811306002301833 0.0389935321340005 0  -0.0614006985570547 -0.03359537127574802 0  -0.06149337361087821 0.0334088191180815 0  -0.001313965901807587 0.06997866514090914 0  -0.001313965901807505 -0.06997866514090914 0  0.06972560686502331 0.006124628316654578 0  -0.03774126024851665 -0.05894751496880801 0  -0.03808338075569135 0.05870987413577541 0  0.06143651450757763 -0.01579542206100906 0  -0.01768495131351921 0.05777361089201642 0  -0.0270257026342554 0.0753923004698188 0  -0.0226559397411065 -0.07479351566734128 0  -0.01544619427472729 -0.05704403063681404 0  0.08006005680817838 -0.01109279628746893 0  -0.07678421468108006 -0.01963207251585974 0  0.01819706638388378 0.07713105968647066 0  0.01818802148393595 -0.07713957693250836 0  0.07477269863186765 0.02627670184075708 0  -0.05793766135890995 -0.05407950061771848 0  0.05305899084771906 0.05902695410766332 0  0.05294899258748845 -0.05905065620622491 0  -0.0769053071338312 0.01966386569195777 0  -0.05811923894227312 0.05424998029076553 0  0.07481497666866632 -0.02954919507944274 0  0.05594414913483169 0.01974145655650267 0  0.01360861339007487 0.05769280538436207 0  0.01386466450392642 -0.05877752536996507 0  -0.04333410106278739 -0.04045098706500817 0  -0.05742343971543853 -0.01468409703162691 0  -0.0588742204274415 0.01495899781358035 0  0.03952757256389367 0.04408505394733586 0  0.04047985437240069 -0.04514689917380526 0  -0.04474249291083507 0.04139060397238147 0  -0.01208747647071522 0.08257551643608128 0  -0.009453923215504862 -0.0836049573949452 0  -0.03852746298672921 -0.07479955495941547 0  -0.07220744243311707 0.044342068220831 0  0.07341580798549906 0.04176997754694946 0  0.03547569288185422 0.07698440347114292 0  0.03370888507348145 -0.07748209785908156 0  -0.0842839259438385 -0.006042395094819011 0  -0.07103954438340117 -0.04575970436753495 0  0.004472491512019985 0.08438206615816649 0  0.08343403546471255 0.01339940845353156 0  0.06670994142375392 -0.05190030698467803 0  -0.04925266227520228 0.06905476415296757 0  0.04935361698307481 -0.02590149835915781 0  0.05572187132090311 -0.001107133031022894 0  -0.0549634953997115 0.0001368371151642747 0  0.02515897928532421 -0.04887949184798984 0  -0.0480400985349139 0.02674317227970866 0  -0.00116039428977392 0.05495967742341172 0  -0.02839196228457421 0.04717835190763474 0  -0.0295341908877247 -0.04637209864574163 0  -0.04836057252932541 -0.0264639912093236 0  -0.0006142638654187461 -0.05492640408402512 0  0.04559816181106224 0.0304716564863607 0  0.02553348161160179 0.04891828448878084 0  -0.05019243023087302 -0.06627549921811884 0  0.005425672478876339 -0.08489828200858582 0  -0.0747879517700068 -0.03288851003830767 0  -0.08138651266826472 0.007038037889352589 0  0.06646876399212594 0.05421027478108619 0  0.0468004146564549 -0.07189016129119961 0  -0.01537338591095633 0.07028451219662128 0  0.04807604623124948 0.07173502711632107 0  -0.07980211768721672 0.03300157252289304 0  0.08668103374375552 0.0004736135418857458 0  0.07584863745462087 -0.04256911812381235 0  0.04976344998262112 -0.01411525989072652 0  0.06889051095299815 -0.00608686931135483 0  0.06282226283528659 -0.02783107069576772 0  -0.03967969833779045 0.0776264180144704 0  0.08491550486612112 -0.02284799552895432 0  -0.0299341486488948 -0.08350585218032991 0  -0.02616395839109708 -0.06302955488379938 0  0.02689936164202104 0.08447809634001227 0  0.03882733308490768 -0.03374030779548205 0  -0.06928957884086341 0.05556127383282162 0  -0.06019578209019067 0.06530366532148324 0  -0.01287834556555787 -0.06842609944113495 0  0.01610504187468677 0.08776322040220855 0  -0.08523768631708353 -0.0264036584531565 0  0.02479892601655156 -0.08571875817638105 0  -0.06210302479101436 -0.06407732563268377 0  0.08190612208144769 0.03470749789702694 0  0.08560983114341024 0.02421433791278758 0  0.06290467063330456 -0.06329957464108621 0  -0.0350142323181285 0.03668723485510315 0  -0.02368058333350049 0.08586453102710874 0  -0.08750838730016068 0.01776259739745772 0  -0.04814854491269689 0.01597045658338778 0  -0.06151312487883178 0.04410572959656218 0  0.06703031477209553 0.03340468471677908 0  0.06241770054949806 0.06400693401479494 0  0.008583906642621503 -0.04968528100107254 0  0.05074210138172597 0.009371438628063529 0  -0.06947701481045351 0.01122839994756783 0  0.04201809903327243 0.05542761904038905 0  0.05048705324996072 0.04762335197991203 0  0.02209032005823411 -0.06653078380844964 0  0.02678451147275296 0.07094676953209635 0  0.008068131697382075 0.07457351165275765 0  -0.06565510276483517 -0.02282675225848124 0  -0.07441413001151688 -0.009459833166577771 0  0.007998237352069688 -0.07475412048025659 0  -0.06074149820257932 -0.04401872156094191 0  -0.04775702755979237 -0.05617150903586737 0  0.0733030343645734 0.01593672016893632 0  0.04293276916370573 -0.06214605748078646 0  0.05134644451314737 -0.04794469830388041 0  -0.01056781993017976 0.04964187641279369 0  -0.07053266275759341 0.02803136936719968 0  -0.04857075436746807 0.05858888409110611 0  -0.01971079053399246 -0.08701776570468653 0  -0.00839595078554149 0.06239597167805372 0  -0.02792228153475062 0.0574113175820721 0  0.0305651384929792 -0.0400206195685537 0  -0.08651990736312223 -0.01614062712035566 0  -0.06815294581644957 -0.05569015157666258 0  -0.03476403108586325 0.06851561182746595 0  0.0486027721957277 -0.03588020600376078 0  0.01745455298733183 0.06704564642195232 0  0.06515406646463259 0.02359784880191801 0  0.04591026018370538 0.01964711891351225 0  -0.03931977897225651 -0.03111169712535426 0  0.01544783823182258 0.04770196523485212 0  -0.04943994169168708 -0.008394564536333023 0  0.03552417387343672 0.03497593847870404 0  0.08279604581102708 -0.03546656547294368 0  -0.008987764690274437 -0.04927860440047284 0  -0.01908737219171296 -0.04659811342584656 0  -0.09010189591300108 0.002255956929087923 0  -0.08012851067622299 -0.04127065724950859 0  0.08975754863206434 -0.01015388089922322 0  0.01506686368347072 -0.08638135406409872 0  0.06375164796061442 0.01386089628322868 0  0.05538264662045665 0.02955292557957481 0  0.02335165625779358 0.05844351905052514 0  0.005075364255479522 0.06253371808320277 0  -0.06473553796187069 -0.008223732665151553 0  -0.05183021694769929 -0.03560754170601165 0  -0.0389224475932976 -0.04921084900747802 0  0.07210188044249891 -0.01880467387643149 0  0.06770469641651031 -0.03646545109011803 0  0.07746140285449996 -0.001927012313360477 0  0.005061058791617463 -0.06273261388256633 0  -0.04865450271079136 -0.07599274661097224 0  0.03779457900618044 -0.05421092669455942 0  -0.05749709348440186 0.02456531530982541 0  -0.03816631552314975 0.04880194075828648 0  -0.05007729924232315 0.04922831669849498 0  -0.05377161367509293 0.03877155040517369 0  -0.003941400462012765 0.08991423028711561 0  0.03930055645935576 0.06841809145752009 0  -0.06252256500181767 0.0052870403229005 0  0.05503833866200213 -0.06794316858181491 0  -0.006157549727139689 -0.06221111859382813 0  -0.03443189875188435 -0.03874504882734385 0  0.007147116257818061 0.0513385886672201 0  -0.04879638085089756 -0.01742307287068009 0  -0.02409488215149309 0.0662333177545114 0  -0.03301763037381532 0.08434299277592709 0  -0.01955535982544661 0.04895614695646194 0  0.02278059870066571 -0.0575584004218903 0  0.03759566331304698 -0.0693779268302261 0  -0.02447375225406536 -0.05401791209718183 0  0.0491281122725775 0.03873809372369923 0  -0.05111347755912002 -0.04674473066109774 0  0.03339520513198932 0.05313676783689535 0  -0.05723486323817333 -0.02572484465345961 0  -0.002542216169400841 -0.09032726190884535 0  -0.06655170900653021 0.01984682782199843 0  0.05966115067569767 0.04804593834123493 0  0.07512793504672988 0.05088595183936358 0  0.04218550750668038 -0.08066064481425569 0  -0.04867025486503902 0.006811584185340949 0  0.02806441402997909 0.04018118206339669 0  -0.05679756037279612 -0.07174673509787136 0  -0.08675861741247799 0.02695144028589051 0  -0.03059323906289459 -0.07075539526678994 0  0.01328677519505491 -0.06763067167018473 0  0.05889998773341746 0.006825777828353004 0  -0.01541121175944634 0.09033705827482215 0  -0.003335799179820968 0.07915495462529623 0  0.04566632234502076 0.06297029375253142 0  0.01670926109632313 -0.04594630746722656 0  -0.0194389467636038 0.07873925834148528 0  0.04831975604509849 -0.005585268402995155 0  -0.03948588609287455 0.02831455373709799 0  0.0803816969369887 0.005761926613350917 0  0.07544912702149857 -0.05131853067549708 0  0.09076149321945608 0.008369362434232034 0  -0.06938627593799603 0.03639041263057856 0  0.0003446870887761368 -0.07821145866531004 0  -0.03949306122734654 -0.08295474013743298 0  0.06376924502438545 0.000271964637715518 0  -0.08051279435459996 0.04405254797349469 0  0.04428403712892114 0.07974660402392861 0  0.05697537019005934 0.07107869342119041 0  -0.04950672684456367 0.07732382285356537 0  0.04143171380864821 -0.02420785752921625 0  0.08142269478674555 0.04276098326923117 0  -0.0696959541768233 -0.01592137534202213 0  0.02602154184817439 -0.07399892963009662 0  0.03300419823571188 -0.08565728517079582 0  -0.01267517256673808 -0.09104322065931526 0  -0.09163061137919636 -0.009205800415907826 0  -0.075966967746793 -0.0520591299302673 0  0.008745410753671152 0.09138241751705048 0  0.0904758041050172 0.01718877489754434 0  0.04605429756260323 -0.05449367499633444 0  0.07006530781919412 -0.05935515186969943 0  -0.0164293900853683 -0.07976028078149644 0  -0.007912295244087413 -0.07528144687313945 0  -0.04155842679606925 -0.06670371395554074 0  0.05971871910422314 -0.04724051435632384 0  0.03295165997275856 -0.04755600338349701 0  0.0607968046993462 -0.007588490869325963 0  0.05672267478460337 -0.02243575912817373 0  0.05534404046717815 -0.0313698482964491 0  -0.09118542921256143 0.0104073837950568 0  -0.08259488450756172 -0.03380684233369356 0  -0.07621928470283093 0.05137449658330791 0  0.03495047878590556 0.08503784737010023 0  -0.05654862206109509 0.0725015555649839 0  0.06563618015419546 0.0410886429837037 0  -0.07745187380958746 -0.002272002557048859 0  -0.0668569089113691 -0.03917295644237478 0  0.06012039058254657 -0.05603536815949085 0  0.06682179111273007 -0.04415803230647423 0  0.01173641732515871 0.08138173544733555 0  -0.02749853105663444 0.0392787601733643 0  -0.04339089057330893 0.06418153484462169 0  -0.04174144946830299 -0.02267776921522447 0  0.007517392791431895 -0.09219727472662854 0  0.04877730744935543 0.002015139449145881 0  -0.04263990771950145 0.02130190613744949 0  -0.02581380348546347 -0.03979492165675746 0  0.02314329860032944 -0.0415704149843221 0  0.0005644473219098272 0.04757671347048902 0  -0.04752236493307511 -0.001099272319393511 0  -0.05723360526075109 -0.007100990311825808 0  -0.0007372359527751215 -0.04739941542746147 0  0.02988987321124637 -0.05484129452636972 0  -0.03217266710697684 -0.05361594504551095 0  -0.04759086942614286 0.03433695055564995 0  -0.009850537908628674 0.07539275342905925 0  0.07449550889350909 0.03374448275801517 0  0.03844739706888876 0.02799627347094999 0  0.07926231215375258 0.02036413898295605 0  0.05352685907623867 -0.07535884423064608 0  0.0693799938521172 0.06115002830479459 0  0.02114179078452523 0.04291098836480825 0  -0.05385852304146922 -0.06004634489643469 0  -0.02031880766956276 -0.06769155498297313 0  0.09275387028034528 -0.00352743479490103 0  -0.04397744001909126 0.05304808921184814 0  0.05928940127436576 0.05529765927112057 0  0.04235788802224489 0.03674222649104691 0  0.03211406890634246 0.04608939844287693 0  -0.04133881871997477 0.07084974321568156 0  -0.0558431888622089 0.008291594907253529 0  -0.05437722869859659 0.03140295113341075 0  -0.08666030672416902 0.0341607682747259 0  -0.06754943295364683 0.06305236395176382 0  -0.06420444878282019 0.05064600450666373 0  -0.0800797325022643 -0.01350200307046746 0  -0.06512372870896793 -0.04942484962387104 0  -0.03308326640468124 -0.06419525476281181 0  0.0509503562674874 0.07799868272224836 0  0.05088320999017278 0.02437362474359859 0  -0.06186841130006778 -0.001756727088938264 0  0.05212637411860596 0.06599223127849969 0  -0.0758551465548417 0.03857161153528673 0  -0.07728638688917562 0.02656453105781019 0  0.06901042874040621 0.04731614854147033 0  0.01209081939330987 -0.08022834492702642 0  0.02879762905733919 -0.06776883329478905 0  -0.07252273783741256 -0.0257688700069788 0  -0.06798299348138545 -0.03113342863152764 0  0.08540659998240552 -0.01576478684458103 0  0.09107762165498197 -0.01971660051192489 0  0.07888060262479123 -0.01783778264137775 0  -0.02101058538737041 0.04205203247204813 0  0.02853721980163433 0.07769804383952866 0  0.006097234024811876 -0.05601312651655101 0  -0.06406287446290723 0.02611783169745915 0  -0.001652666466643635 0.06171895968878483 0  0.08280710566796375 -0.04242648654455569 0  -0.05520778814995713 0.06051881689163272 0  0.04878535634345588 -0.06546266704950092 0  0.08762521040595288 -0.02979040797273121 0  -0.07358753880896149 -0.03952033158530712 0  -0.08355506509624344 0.0006572725982623194 0  -0.0765975335072808 0.0124464726089248 0  -0.07437075212242336 0.005650281970764949 0  -0.03355784225688236 0.05371767913478674 0  -0.0397780270241519 0.08438623786987118 0  0.01996659401801459 0.05265564664413087 0  0.08324594977910743 -0.00523826898986081 0  -0.04532178301218006 -0.03406423227363382 0  0.0391116827288172 0.06175428610180631 0  0.05715192977114623 0.01322179417067201 0  -0.007203193524788258 -0.05566400624882614 0  0.01155049363901407 0.0640062717887698 0  0.01467622949595748 -0.05222652086307909 0  0.04431051323056184 -0.03011637964737275 0  0.0730343874594469 -0.01180485345898147 0  0.08782854990310655 0.03086480307835775 0  0.04362427948409541 -0.01753253953440165 0  -0.007899981135557593 0.06903126897775619 0  0.06077941009137214 -0.07111847207522007 0  0.07430749395265296 -0.0361404775349153 0  0.01917689710360056 -0.09153386810741997 0  -0.03022576374442375 0.06365192989824307 0  -0.09113171064126471 -0.02088595389986929 0  -0.06992221470387189 -0.06206593718954045 0  0.02628010224027002 0.06436237613591253 0  0.0693153194020964 -0.02522310988180461 0  -0.007804417154895806 0.05573327137031357 0  -0.01465862724625466 0.04429141075050969 0  -0.0633266293272688 0.05812376701644441 0  0.02272742733823086 0.09014652663237405 0  -0.03361629349580383 0.07501637387025377 0  0.05417379459149623 -0.00898164500726437 0  0.08124625995381186 -0.02828016639136692 0  -0.04112674628581191 0.03457134248012378 0  0.002114857739043876 0.09312960480868794 0  0.03280303257219402 0.06849698492542212 0  -0.02880237048318755 -0.07705508570690404 0  -0.02622076595311084 -0.08933232046192494 0  -0.07890195863430308 -0.02565067603650505 0  -0.01788576725551893 0.06427971226984398 0  -0.0215208549882797 0.07210540527182764 0  -0.05178750028066803 0.02139399278548309 0  -0.02273551815530162 -0.0812795959156261 0  -0.05510363187817231 0.04512311765167743 0  0.04787809297667704 -0.07805661264563121 0  -0.03830210234431656 0.04229919312132042 0  -0.002946917152164814 -0.08382899016142284 0  -0.04543378676986898 -0.05003337861528285 0  0.005010030226422055 0.06894181571284239 0  0.07622676983507561 -0.02347790134875208 0  0.07753235359114227 0.01132935198161774 0  0.04113191670208687 0.07437285290669497 0  0.00500963441577503 -0.06911474754758427 0  0.0520470615970408 -0.04144114076752871 0  -0.08516160298377125 0.0119926593961843 0  -0.06365395462762366 -0.01436779798456449 0  0.0428005903609391 -0.03898768473082535 0  0.002923209533540268 0.07825080130958974 0  0.06601422101359834 -0.0199758294344792 0  0.03668190164106307 -0.03949274763503822 0  -0.02122082205138916 -0.05929235261452147 0  0.06192763949672078 0.02929803057401432 0  0.06664242756707789 -0.01207662140751486 0  -0.08279677368594171 0.02200316051505146 0  -0.05479734149791809 -0.04139015003580638 0  0.07128774460655705 -0.0001165033540214992 0  -0.03449346102640302 -0.07941195026368761 0  -0.04565394715219033 -0.06202392461250892 0  -0.03173783549956323 -0.03325428968957449 0  0.0322347854909872 -0.03364225161947754 0  0.009492565610376954 0.04540050212590254 0  0.03939032901521582 -0.07522279165404069 0  -0.04372982881275756 -0.01405845281344588 0  0.04653341975842082 -0.04413668250739122 0  0.02886780927619115 -0.08118277064025732 0  0.04488645876139629 0.01289184906193588 0  0.06193404504518499 -0.03403093717785608 0  -0.05624314502250329 -0.06569342313904748 0  0.09364535663692722 0.002737095974470864 0  -0.01779185847933554 0.08454490923280543 0  0.01401209351002543 0.0723691283954639 0  -0.04550239211680588 0.08203972844753123 0  0.05468014449232542 -0.05313225768904487 0  0.0453329265794419 0.006875637121625307 0  -0.02268451572699455 0.05422703315471977 0  -0.01653338111155323 -0.07350433105268091 0  0.02633098757353688 -0.06234428950855114 0  -0.05246760201277161 -0.02213100339144716 0  -0.03399228971324091 -0.08784019742269267 0  0.0553792636972761 -0.01648880119546227 0  0.04901252591279175 -0.01998939326097797 0  0.04438490545330194 -0.01167583570479259 0  -0.04156553361156793 -0.05447147043090705 0  -0.0883702829862336 -0.03169524640566561 0  0.07209663854731105 0.05592988667215044 0  -0.08566068119300894 -0.03895932369043689 0  0.06289216418655266 0.07000212641905795 0  -0.01611652493424148 -0.06317595423948932 0  -0.07377416664835494 -0.05756365029301581 0  -0.09277098843976522 -0.01510524161154446 0  0.05362711707455025 0.05290698546366521 0  0.04810784256279574 0.0554809769527894 0  -0.03630604911317315 -0.06935259563524111 0  -0.04607953117878861 -0.0706048855798258 0  -0.04380614192375626 0.04718300041126488 0  -0.04451796310108151 0.01116935540063433 0  0.01335275392627783 -0.09196415034307694 0  -0.00549749658621237 0.04593662807678854 0  -0.006947868715195015 -0.06809785745110937 0  -0.08241983154524231 0.03838156924559503 0  -0.008812322792550594 0.09359974899738811 0  0.03386553905276372 0.04054691146910997 0  0.03879358183863874 0.05019092817012121 0  0.0443898872774522 0.04776660949326481 0  0.05096429059607459 0.01574977354359051 0  -0.06998550698773945 0.049753230901393 0  -0.06307085767752474 -0.02803049584787451 0  -0.06005975877831269 -0.02025110974086338 0  -0.05467235562185346 0.0670279038773428 0  -0.08059069518350567 -0.04764581283195943 0  -0.08967547362237746 -0.003633742401037453 0  0.07942253607962346 -0.04711613472012377 0  0.03654844119344293 -0.02799568767153337 0  0.0552441625950847 0.04414273043878637 0  -0.03405305501101855 0.03079344889448413 0  -0.04323984853986065 -0.07837635190382239 0  -0.04902920525956609 -0.04136627599312706 0  -0.01014876292302107 0.08799816898369427 0  -0.0228027106326001 0.09156516574255946 0  -0.02901204446170631 0.089171934112328 0  0.02845960515947967 0.08999590298961525 0  0.02315359140475103 -0.08014992201633515 0  0.02322522761232788 0.08000268025318338 0  -0.0351882538663214 -0.04461679781101182 0  0.004515319973755803 0.05664081502593465 0  0.02910010273591571 0.05716544178835353 0  0.06775962819443392 -0.03073677807215871 0  0.0142115565339182 0.09320531839539947 0  -0.06400851499671716 -0.06943992578762287 0  0.02893186669075215 -0.0897330036917356 0  0.06843718239906947 -0.06487134112935201 0  -0.01311101449522722 -0.04444727042611293 0  0.01819312103416386 -0.07111935275228566 0  0.01881461480886656 -0.06176602714898916 0  0.0865423221163662 0.0379269974515743 0  0.091321719430296 0.02297255554040156 0  -0.09113529607308023 0.02268354792286258 0  -0.09293987347565634 0.01588119726207515 0  0.05847531967546755 0.02480811510051451 0  -0.08107305274652193 0.0158708803817605 0  -0.05311388479363206 -0.02989035941086926 0  -0.06217280428633474 0.07082836979776719 0  -0.07253743250396934 0.06026339436191813 0  -0.06463150710703543 0.01438938999421838 0  -0.07167593747355799 0.01678044243867404 0  -0.071592353178787 0.02245549992579055 0  -0.06831321306013521 0.005549823925109157 0  0.004686731671777439 -0.04542942412041075 0  0.01053064191909086 -0.04431849436456769 0  -0.0004699548386188834 -0.0607876479182983 0  -0.03259745610780364 0.0418722571106197 0  0.0719355679339361 -0.04677426926698767 0  0.0539384688725881 0.004210411897444317 0  0.04349048859214111 0.02499411894604862 0  0.06779959741623696 0.01824733975246985 0  -0.02018160634819349 -0.04095313698994424 0  -0.02853743787374947 -0.0579200624274735 0  -0.006612995993403636 0.08367616522663479 0  0.08239844423699705 0.02898105174576343 0  0.05372630705131826 0.03514712084515204 0  -0.001083421836385274 0.08423593138280414 0  -0.01890816986803708 -0.05239321717160156 0  0.07767687087715677 0.03825785927922123 0  0.08513047986264922 0.01868444307601463 0  -0.06398430056160076 0.03875269322995219 0  -0.05006442172588676 0.04286445938965446 0  0.0204618729107913 -0.05225763176787618 0  -0.02471393408388179 0.08042423479418723 0  0.04454547015658458 0.04180232739573563 0  -0.07408622055331859 0.03313469131702067 0  -0.08701911681108107 0.006813465277529821 0  -0.02900995043899773 0.06933555033335491 0  -0.020571643368322 -0.09241248864359543 0  0.03128360873878639 -0.07261011905389132 0  -0.007390807307147672 -0.09376899448412897 0  0.04205482963035624 -0.05054327418428556 0  -0.05332235432782487 0.01346023949960465 0  0.064264239542108 0.005725480259304759 0  0.01705339463821139 0.08242792419025832 0  -0.08272497841483667 -0.02087811764650959 0  -0.09075029446789504 -0.02638538154032679 0  -0.05929086078668539 -0.05938233511257414 0  0.07560585037759865 0.003176774953718888 0  0.07612246814908431 -0.007257895871108113 0  0.05799484300228572 -0.0610157573348908 0  0.01313297817096765 -0.07304135368374548 0  -0.04783106820005317 -0.08146404419639987 0  -0.0143921453566708 -0.08588302398330325 0  -0.01531836812239284 0.05266448577369731 0  0.06740991083902159 0.06626095069714857 0  0.03895304609125894 -0.08565464030900259 0  0.04047695025033332 0.02038671443974606 0  -0.03056619992859388 0.07950311561005921 0  -0.03675936030570225 -0.02635941562180051 0  0.03897332607305033 0.08125635357425923 0  -0.03004581724324732 0.03447223084111337 0  -0.02569179060212302 -0.06843284178058259 0  0.08527817190650981 0.008233716513345889 0  0.02978580607241215 0.0347001479577241 0  -0.05907903788732154 0.04893123419176434 0  -0.0668365370797806 0.04529843095960233 0  0.09096723001526018 -0.02530726253075483 0  0.07233830245596257 0.02134827705613786 0  -0.01078247907408284 -0.05959271281197041 0  0.001958968126767387 -0.09410594526570756 0  -0.02236566653085602 0.06088528679118962 0  0.05822890807801549 0.06059504658672149 0  0.06347819374584832 0.05870954669919402 0  -0.0945060613455522 -0.001023197118362013 0  -0.005615293521590647 -0.04503389157848407 0  0.003415553906051836 -0.05130677816525821 0  0.02092192763388343 0.07186040909261029 0  0.0574573353853338 0.06581955570596555 0  -0.0122467363887987 0.06601999178992735 0  0.06913280329036854 0.02791953536004435 0  0.07059311869284915 0.03730485465250828 0  0.06169860854078501 0.03480607225877728 0  -0.06615097217260421 0.03095198966660063 0  -0.09475006419446039 0.004747650324420722 0  -0.05301309440057984 0.05568902568706506 0  -0.04863133615720142 0.06384009186394686 0  -0.04333030878357557 0.05893032707178093 0  0.06532249546649978 -0.05700731968331182 0  0.03766821278896257 -0.06384614653818049 0  0.04298061950795865 -0.0677666926115453 0  0.04784736319650561 -0.06029574859185451 0  0.006868260720982095 -0.07986584048159284 0  -0.02427873901593976 -0.04500404167209551 0  -0.07269605280126017 -0.004497908149900209 0  -0.0749526913448295 -0.0146965799212681 0  -0.07953166453194008 -0.00827858104670439 0  -0.0595358247168174 -0.03870995163450146 0  -0.05676249717949508 -0.04833090436738695 0  0.07227899622536822 0.01075187828382246 0  0.009452830834206147 0.08614637635401909 0  0.02111618546464378 0.06323342824902521 0  -0.04452380198935689 0.07522095364325022 0  -0.01357159647550056 -0.05203469572134286 0  -0.06593345597047309 -0.04428928982839402 0  -0.05435881736013209 -0.07700111933217886 0  -0.05281191912413634 -0.0549531095525176 0  -0.04425632351948018 -0.008878942888106117 0  0.0275816044916487 -0.04427890738650314 0  0.02606980701606995 -0.03703903643341059 0  -0.0123452513077453 0.05868773227830455 0  -0.00748714876967712 -0.08849714388710068 0  -0.0379651433875754 0.06413453645676256 0  -0.08477070613872961 -0.01123127567024247 0  -0.06292778389260738 -0.05563017511763545 0  -0.07011609144250516 -0.05087603775355418 0  0.03699734802838825 0.05695205414114284 0  -0.06067920567029073 0.01011578155203138 0  0.08803661595873659 -0.03503278231745239 0  0.09326978118725286 -0.01454151306261368 0  -0.04232051675212439 0.01600238447256254 0  0.08110917706341539 0.04842112626610963 0  -0.07172652677158005 -0.02066795715575995 0  -0.02861071641574502 0.05231565418415487 0  -0.03286590978808657 0.05913199432157904 0  0.002390096392847132 -0.07351589164739764 0  -0.05887633050111019 0.03788117690789409 0  -0.06095794675373663 0.02015958200344757 0  0.01841577610167539 -0.08236442629826403 0  0.07087091174273401 -0.04072580676989814 0  0.07657022438434272 0.04589629693985607 0  -0.04327155359134807 -0.02768175104346754 0  -0.04059514485059304 -0.0360958907946357 0  -0.05280045492970665 -0.004516508403579523 0  -0.05387309202273152 -0.01097904644457931 0  0.01580703451823885 0.04234981438869992 0  0.01487603483492967 0.05276141385850958 0  0.0216870421235522 0.08501133290638774 0  -0.01515903925865543 0.07559244188485778 0  0.03128355706468912 0.07338191439520177 0  0.07519990221252915 -0.0569732221559996 0  -0.0761987877567904 -0.04475988482571418 0  0.06189771151551486 -0.0425364727642075 0  -0.005160239880000981 0.07335110959788554 0  -0.07859310981618894 0.002732139665602147 0  0.0428113343434885 0.08466159064909577 0  -0.004206175132736575 -0.05122058803570562 0  -0.04427769450100762 0.030330774557153 0  -0.0704771563159135 -0.03553277440735893 0  -0.00268765153209829 0.09486401794335353 0  -0.005631521993331084 0.05107500697747326 0  0.0502058666439557 -0.03098322798758209 0  0.05362677140154156 -0.03661559590139001 0  0.06160874197277385 0.01913901198902945 0  0.05824896035438266 -0.01191548646607126 0  0.03367393670720636 0.0300990375244256 0  -0.08442882373885878 -0.04378716049984682 0  -0.07780435484760397 -0.03685905618729811 0  0.07925519459585566 -0.03895216148473971 0  0.07833997545717268 -0.03313577290800228 0  0.04494101389261726 -0.001398335742087412 0  0.09386117639373673 0.01300502336055745 0  0.02405229963717094 -0.09062215665898175 0  -0.03852820247230394 0.05375928374121122 0  -0.03346378626893387 0.04687852957724045 0  0.07123639398812946 -0.05396569663294485 0  -0.006069940172385569 -0.07992719677817629 0  0.06457267228365841 -0.06795123852669953 0  0.003454221660572667 -0.08941246900351198 0  -0.05146836124703961 -0.07145776394423813 0  0.05042500082070928 0.02931574482925945 0  0.001278655602989493 0.06569939045309911 0  0.02074931979854918 0.04780684968792507 0  0.00882626630937712 0.05920417930141044 0  -0.04268435759713883 -0.04561459478800116 0  -0.09010199176233012 0.03060236683485461 0  -0.05641196223139265 -0.03363357121045073 0  0.06669982183219679 0.009962796566476912 0  0.01853333465148438 0.05737771494874582 0  0.02473838961718357 0.05374866168265511 0  -0.06650954790033226 -0.003568162317044133 0  -0.06933677814951894 -0.01070574570076278 0  0.01036644002401938 -0.08485860132195699 0  0.03236481024799229 0.08082537203292513 0  0.09460047909771996 -0.008353083290143554 0  0.08483868184637103 -0.009899102300714689 0  0.03722631172960535 -0.08099384293241674 0  0.07793164916909336 0.05485146617132512 0  -0.0529961122161015 0.02664219646797649 0  -0.05996856213353492 0.02877317533782411 0  -0.06035040294510691 -0.01081689433038324 0  0.0466337801665621 -0.08286066213548106 0  0.0881929664070677 -0.005455758135093487 0  0.0009616678901688326 -0.0655533752030007 0  0.009084758058472447 -0.05991345131405951 0  0.04683044057943704 -0.04970811900731736 0  -0.05520454641656903 0.07739961165281127 0  -0.08101675923630228 0.04926787498628637 0  -0.002749461617239342 -0.09514439058197334 0  0.03902471820792242 -0.05904549857994266 0  0.01015644865360517 0.06896032100655131 0  -0.01267140748428501 -0.07656897364125367 0  -0.07612844323004812 0.05654384445236316 0  -0.00409645109333707 0.06595596760032411 0  0.05532153582082679 -0.04508341115769449 0  0.06121671948247896 -0.02063269188701483 0  0.0162180937416796 0.06219342170916771 0  0.02433707994520859 0.07529124115722005 0  0.03754170303532031 -0.04893244424411842 0  0.04103536998724439 0.03208634485551529 0  0.008714413663490629 -0.06595332499035418 0  -0.0550969475590435 0.01791889222070533 0  -0.03379078409138198 0.08906009918020592 0  0.003390807144786905 0.07346722699975169 0  0.08165283610503843 0.0008801021871569169 0  -0.03820305775053155 0.02352198327829904 0  0.04907475881228837 0.0339303241010102 0  -0.06525363371184037 -0.06012110438893714 0  -0.03304619283325522 -0.07485711630149339 0  -0.03346302672195178 -0.04904351003764627 0  0.04846233962049063 0.08209589629199594 0  -0.05448239871195774 0.05112398437988906 0  -0.08195336034431711 0.02845070086840162 0  -0.02824405670369182 0.08445911284911077 0  -0.03543456717789012 0.08007802635994418 0  -0.06467994293613073 0.06681509505849462 0  0.0340705175479855 -0.05738884657490226 0  -0.06663398898668979 -0.06548717879294187 0  0.001589651543472812 0.08829656773638457 0  -0.08512261304191349 0.04244659950365449 0  -0.0369174848935982 -0.05351249092154049 0  -0.04867186967226423 0.05376433283883079 0  0.05831134384843293 0.07558391883313396 0  0.0368099079097258 0.07244307332532388 0  0.04358090937358669 0.07036068211784618 0  0.06448265088999322 0.0495624701580918 0  0.01034745004006497 -0.05403082638416412 0  0.02334723335353977 0.03836127744954423 0  -0.04492946142354044 0.003315675515831173 0  0.007102500254086458 0.08045612797282896 0  -0.009831296870474487 0.04373994755674563 0  0.03818106510828941 0.0387993670104238 0  0.0122434994246593 0.07671616652978577 0  0.01754933736944352 -0.05590822534608827 0  -0.06885177391337627 0.04105633688898158 0  -0.03302558019186695 -0.05945291943399292 0  0.0360119585716881 0.06517672160228292 0  0.07770056882406082 0.03012441361491015 0  -0.06123830052060816 -0.07320431453302899 0  0.02330746364125745 0.06790161771622956 0  0.0201379580349986 -0.08683778423549289 0  0.04388957521302178 -0.006881471667833468 0  0.0779273226508877 0.0159367418714858 0  0.005185187608350147 0.04713140739331501 0  0.01811997256431983 -0.04110248043015127 0  0.05987744243547029 0.04335037346231571 0  0.03333488113244955 0.08945197995810157 0  -0.04354905369035588 0.0257999690285694 0  0.05267391691546097 0.07341644363675072 0  -0.05288937493819409 0.004485409903264731 0  0.07945666559060105 0.02517255913230959 0  -0.02592001078207245 -0.04947757784226973 0  -0.0101115463455466 -0.06467669945005497 0  0.07030921320421711 0.05171055499480728 0  -0.03857683100434901 -0.04119571794229548 0  -0.0472219915449523 0.02052469130841563 0  -0.06558660998908217 0.001700530092672462 0  -0.0591984628426587 0.002043489941326408 0  0.05310038260732956 -0.06370679429095047 0  0.05076489011538611 -0.06959422998368169 0  0.05953922021903577 -0.06658309203894147 0  -0.01842713070173655 0.09378923276655163 0  -0.01371042411367003 0.09459388774894806 0  -0.04915117189272384 0.01142696100263515 0  0.0276612303829961 0.04479951618857325 0  0.04765379364399961 0.06713749445274288 0  -0.01621684025170805 -0.09407250166994442 0  -0.02456497102439261 0.04991461958600128 0  0.05827691728906362 -0.07553929468117074 0  -0.03131700289566754 -0.04213087510504343 0  -0.03627771524463495 -0.03454537521689323 0  0.002677415618506251 0.05242429042664286 0  0.0105990728386359 0.05429075428049692 0  0.01142407825411184 0.04980924824523277 0  0.08572195013459906 -0.03894188530626484 0  -0.04818779613958982 -0.01284250137353058 0  -0.04789589964698891 -0.02191062910421982 0  -0.0529176881188921 -0.015448135314602 0  0.01845324486816334 0.091630689643525 0  0.05419029597595747 -0.02661839777099273 0  -0.07436525025539562 0.001128514704353429 0  0.02489988368680081 -0.0534738306221778 0  0.04327094903797553 -0.03450359194173075 0  0.09515551775103123 0.007064775676378125 0  0.0800919100143261 -0.05172868249423319 0  0.05359629915368344 0.03972009859746364 0  0.04887800261160601 0.04332289593453578 0  0.03377937071804221 -0.06656151014009273 0  -0.02546985111750031 0.04350851933012775 0  0.03970025888063197 -0.01994140371347324 0  -0.08168003027017388 -0.02930694803708879 0  0.04399543773459179 -0.07555776814508097 0  0.02080610659284943 -0.04778167252928186 0  0.01282298426644831 -0.04815741470428822 0  0.02994970401298548 0.05012298989853857 0  0.05518299780556879 0.04866274894771192 0  -0.02677752634111559 -0.07307506717318227 0  -0.05898373908939599 -0.02983691483273852 0  -0.06525105056333784 0.009094851963615012 0  -0.007801540689713931 0.07936630693025595 0  0.08834790464113022 0.0127055119690894 0  0.08935423672548656 0.004094372510341277 0  0.0754067437188241 0.05893109489578733 0  -0.04328274061347454 -0.0853428853918045 0  -0.03895758153001457 -0.08740200548811375 0  0.03598383816429999 -0.04406428223176821 0  -0.04834109148859488 0.03874183845082442 0  0.01453159772567691 -0.06326649346832297 0  0.01764113727682288 -0.0667012534709356 0  -0.04943271605972438 -0.05202854162627941 0  0.05220585607184679 -0.07985560510093115 0  0.04550287790299366 0.0754203029873822 0  -0.0442815016013753 -0.01872472409630508 0  -0.04869778921959537 -0.03100643706516462 0  -0.03743583365173236 -0.06506098543281974 0  0.009336209275807941 -0.07043346206607527 0  -0.02991398618825304 -0.03755547485779127 0  -0.0006711654013366072 0.07548480759268347 0  0.06189645731487375 -0.05154765376069639 0  0.06457621209759602 -0.04799753654701899 0  -0.03782741203875382 0.07358148924751362 0  -0.0238963220567005 -0.0855577719511077 0  -0.003612815918302152 -0.07626459593346618 0  0.05057738810113117 -0.05514457054473043 0  0.06926981832446064 0.01403975726991373 0  0.05838098184797629 -0.02811661888179321 0  0.08062494685095462 -0.02390518081082668 0  0.04156331586099645 0.01598129204727353 0  -0.06586052605669805 -0.01831197042625746 0  -0.09502067825866094 -0.005800571553002018 0  -0.0803666334239939 -0.05203981187455612 0  0.04580189776314707 -0.02314051814586106 0  0.06844323037635608 -0.01619441922709696 0  0.05279175050438674 -0.004620517536008591 0  0.04840661449936056 -0.009957735422781522 0  -0.04105714193234778 -0.06213302103819517 0  -0.04036691302917672 -0.07087292336378356 0  0.08580202007184255 0.04227101740788739 0  0.09124972821727631 0.02765986730850969 0  -0.01927790710042397 0.068390161838007 0  -0.06724609238910048 -0.02686041413432256 0  -0.02005944164828617 0.08822480274404301 0  0.05025481518064968 0.02005540988106317 0  0.07356510001343446 -0.003781983937104063 0  -0.05971031365314456 -0.06842791454267159 0  -0.08916822455588222 -0.01274172558005832 0  -0.05581295735280992 -0.01885449342169401 0  -0.09540209332772633 0.009584707743576844 0  -0.04583674420293441 -0.06631589273572085 0  -0.03996988469707818 -0.01874685477229953 0  -0.04390112335824206 -0.05808996149611632 0  0.035980007778828 -0.08877250171387716 0  0.007792260065502386 0.09556839211851466 0  -0.005299822721981344 0.05931324562248878 0  -0.08084325950809096 0.01153437099000802 0  0.04509164667973881 0.05218151693734459 0  -0.0607289893327038 -0.05051446445857405 0  0.06521205300041703 0.04534633487973457 0  0.05795723474100371 0.00260039686123995 0  0.05517899296134159 0.009245698366083709 0  0.06072109167089509 0.01076037707520901 0  0.05694251490902326 -0.005704686702899311 0  0.0606348421445716 -0.003035000918400828 0  0.0645353466308432 -0.005175889716821409 0  0.03898995199709226 0.08712792520611391 0  -0.05240039619477151 0.07399668279558801 0  -0.03501336938921471 -0.03036383440084344 0  -0.02614635461681503 -0.03553056954592584 0  -0.02921821806525586 -0.06601872595703309 0  0.03544616522657732 -0.07357763591628716 0  0.04700490982488488 -0.03986729074582179 0  0.06353583446372156 -0.03829062502038733 0  -0.0470254592836527 -0.04523585124007123 0  0.001070753340294628 -0.08568396997004124 0  0.07170507284818252 -0.03262493174480818 0  -0.07716326847096333 0.04700823063808496 0  -0.07643055383891645 0.04280211656374495 0  0.06409000058530506 -0.02377006999542618 0  0.07223943420891181 -0.06299522251675135 0  -0.005119604271856104 -0.07199984333047946 0  -0.01122979465582918 -0.07245827076481835 0  -0.05970898043792901 0.06081882831039357 0  -0.02313632652813462 0.03804934362607536 0  -0.003613478624077152 -0.05793264583939502 0  -0.02184293408429433 -0.06360719914358318 0  -0.03522108929236556 -0.08368424166229482 0  0.02152866939907543 -0.07413229244459606 0  0.02495649444542273 -0.06979080132341139 0  0.02937299311389786 -0.07682684277051553 0  -0.04997820010743882 -0.06195602242312247 0  0.06746266030869658 -0.002047101696394709 0  0.06767118999851747 0.002294348359022671 0  -0.0465325128781219 -0.005259121023250811 0  -0.08738941623852078 0.03858167627890645 0  0.05240260068070795 -0.02267810378127839 0  -0.08692883403886685 -0.0203568885932187 0  0.07680571942502661 -0.01399934548908297 0  -0.01462713578415976 0.0485064211010494 0  0.002988213366843304 -0.08147658022771007 0  0.06245562286927559 -0.01147886028787756 0  -0.013989182850751 0.08631330881367094 0  0.04189782209815932 0.06500989725157882 0  0.04873894864982278 0.05982934445975748 0  0.04289045785248889 0.05965929798856517 0  0.0752887624309406 0.007555615440580534 0  0.04320228778991815 -0.05779314665351654 0  -0.06801089468934224 0.02466347749456348 0  -0.03532481494276896 0.02669928661093674 0  -0.08699937002308841 0.02193481367601367 0  0.08362107207093926 -0.04712264912326463 0  -0.06117434034551211 -0.02429213131106011 0  -0.04445609594130124 0.03713718333765844 0  -0.0261767472271483 0.0626065989367717 0  -0.07576695161742339 -0.02865685252053114 0  0.01056019944642579 -0.09521275688492419 0  -0.003394289166588908 -0.06557851895061169 0  0.02705923394580898 -0.05809417940409219 0  -0.01533506977025777 0.07983693370943509 0  -0.02283310322770573 0.0761608394701548 0  0.04467739300464806 0.002760419451948975 0  0.04115870661283436 -0.07148185286800685 0  -0.04337726703887602 -0.07402202328413701 0  -0.04986825185203452 0.08168881655917945 0  -0.05960998435371234 0.07529939188484047 0  0.05669518375867767 -0.07172521987036296 0  0.01399444767338062 -0.04192970637079663 0  0.03419901992407989 -0.05173788046450815 0  -0.07004299722334273 0.03231818242915329 0  -0.04056321234705147 0.03874551240604424 0  0.08138651832805263 0.009789025501654825 0  -0.08887000296743551 0.01384657457866501 0  0.05875247870910879 0.03192478612663098 0  -0.03049353261410873 -0.09060192170685609 0  -0.03915952493578407 -0.07885947438445789 0  0.04914376840036247 0.05150563184047801 0  -0.05342546900179829 -0.05082964058760533 0  0.02889868055797477 -0.08530339673259624 0  0.03315683057349742 -0.08155247676928928 0  0.01240180643241751 0.08952519467026565 0  0.005876926844132768 0.08832905950549988 0  0.08444169903408805 0.004075644678434028 0  0.007778922581153175 0.06561813361440265 0  -0.04799146976677719 -0.03730096378898509 0  0.06630143234073375 -0.06099413724582719 0  0.04295499524908248 -0.08470184556424711 0  0.04734244214493766 0.02653764358835277 0  -0.07190601043952816 -0.02999269366001553 0  -0.05686669533837418 0.04143792135226733 0  -0.06341562676540714 0.06268533267946591 0  0.03755809074370836 0.02368365407607803 0  0.0305298588640833 0.08643101277157814 0  0.002366536616804956 -0.05778541255511944 0  -0.06629710614353197 -0.03499591731901835 0  -0.01174377340393776 0.05464543962512707 0  -0.04556052005990186 0.07111963445009301 0  0.05738690329254719 -0.03494256796122301 0  0.002044933269189715 0.04379697174584706 0  -0.01145680755237551 -0.09516641448878606 0  -0.0167020451950726 -0.08992022548941637 0  0.03722796402629947 -0.02383005498031066 0  -0.07986527780314968 0.05316160007979841 0  -0.07246969447132341 0.05299660488361248 0  -0.06525973327308479 0.03490569700901184 0  0.05469094509477707 0.06279053984933505 0  0.05603457600451858 -0.04919021010369217 0  -0.05827267662216178 0.06885218104746144 0  0.08251052848813076 0.03878503070812595 0  0.09589762849199075 -0.0007791157392598789 0  -0.01163655741783327 -0.05561425206237589 0  -0.02132038243757399 0.08259793798812276 0  0.04020751193438104 -0.02986846209991719 0  -0.0222173922590184 0.04591182005133455 0  -0.03791723919315481 0.03206949017386402 0  0.0711323302277181 0.06474985661745268 0  -0.09104039385641027 0.006363624317813344 0  -0.07777361650288264 -0.05620892304968857 0  -0.08808834876878394 -0.007319677607714252 0  -0.09561454234822304 -0.009781892061769146 0  -0.07356924839630052 -0.04885779781451288 0  0.09383989888277479 0.0196505048942557 0  -0.04898307215436622 0.002727483966252318 0  0.0008761519400346061 0.05850556416469791 0  -0.09196977725056962 0.02681926295078331 0  -0.02505623455229482 0.07015493182262043 0  -0.01766559726483902 -0.08357191079612884 0  -0.01315593817720008 -0.08207139396867084 0  -0.02017331132809723 -0.07806750360379283 0  -0.08390033126220418 0.0463572181427455 0  0.08919099213891818 -0.01420696107067311 0  -0.0166558385617039 0.04065715091067374 0  -0.05574777391399159 -0.03754165311714927 0  0.07084722768558241 0.03172220634809191 0  -0.06877473678466153 0.06696230486045537 0  -0.05103783508772033 -0.07914905253127318 0  0.03151984386587488 -0.0438638640319972 0  0.02901342059853237 -0.04797104673800295 0  0.03304907423164623 0.0570716585060201 0  0.09156214093044161 -0.02923799559169535 0  0.05514925318359997 0.0783715625113373 0  -0.05747005827787149 0.03405641036294317 0  -0.015935713982043 -0.0412622685264323 0  0.007922186929188155 -0.0881320548327931 0  -0.01550580156407995 0.06109702192491943 0  -0.05058391495353096 0.02992269721990464 0  -0.04476174722511234 0.007244508323184868 0  -0.07872933879259233 -0.03302530486667398 0  -0.08166990056257334 -0.03764059365431768 0  -0.05835854564393382 -0.0761173645905819 0  0.08199419446687237 -0.02022708565162405 0  0.01877967120210682 0.03972848497355625 0  -0.001843458083242969 0.04445374527657825 0  0.03628170872864298 0.04679192058936824 0  -0.08248897361682053 -0.01680037386269752 0  -0.03138379433355985 0.03815081109303693 0  0.04391186844309591 -0.04707007649736918 0  0.06955613441801727 0.04108516114370921 0  0.06220191422439469 0.03886584038655562 0  0.06667316442902735 0.03730833649250277 0  -0.04362702612426692 0.0856203454218044 0  -0.08066640054099553 -0.004522321012244214 0  -0.07631713780053201 -0.006028262591509034 0  0.05786766172357522 0.0515893866944418 0  -0.06928471439210308 -0.04225265810521718 0  -0.06349105665662742 -0.04120695410770411 0  0.08997856060962182 0.03417392137147759 0  -0.05331398175498544 -0.02596710047302486 0  -0.02607120996875009 0.03525663072409201 0  0.05648642661120142 -0.05742822137975993 0  0.06218153574988178 -0.05941105004506927 0  0.004108806447230913 -0.07705784726068896 0  0.05171207217731382 -0.0007415434978449316 0  -0.03415634201379106 0.06291678806911857 0  -0.08871695589471111 -0.03596195842674196 0  0.05330862828540903 0.01265130545750569 0  -0.01642784224772652 -0.04941619524440797 0  0.06701672950484881 -0.04028344836719072 0  -0.02991846483904724 -0.06186223319194332 0  0.06262900251520774 0.05310283452205314 0  0.08427553625142969 0.04597172561248021 0  0.01386211380303528 0.08461260501291588 0  -0.0184671184318799 0.04496583139491787 0  0.02857328383739297 0.06110996906529571 0  0.03020401879533441 0.06538456974041196 0  0.07758484604747014 0.0421439103987691 0  -0.06317587172952059 -0.03732517539990606 0  0.08154823925360324 0.01725989750330295 0  -0.02833604492184433 -0.0540627632228517 0  0.011764113939682 -0.08845150535880639 0  0.07261143933271982 0.04565376341465938 0  -0.06725039411917219 0.05903523958674103 0  -0.07343120891303172 0.0480063397699529 0  -0.04358543197724726 -0.002714942295478424 0  -0.07156804510327283 0.06412508659596902 0  -0.06921311397251689 -0.006625998389482439 0  -0.03957472825784002 0.01882725268206834 0  0.04109266359438217 -0.01463563994901228 0  -0.03793034463551161 -0.02203068161669363 0  -0.0461912266912733 0.06677518145482733 0  -0.07255214062446173 -0.05388781312379478 0  0.04907437777024799 0.005876332930868084 0  -0.05186413284482284 0.03490559021525273 0  0.05474123761378379 0.02350798248142769 0  -0.04764435777803688 0.04605129816807089 0  0.0545375084014001 -0.01277360409598858 0  -0.01270905702566166 -0.04827936266051309 0  -0.03782838977974963 0.08806051825365972 0  -0.02237858807748403 -0.05085001790955117 0  0.006815995238275861 -0.09594795837924526 0  -0.06124821387775487 -0.005900758272777828 0  -0.0564349722533824 -0.003376559475558909 0  0.02223145948233684 -0.03777081488499387 0  0.02373699541997053 -0.04533916498013428 0  -0.001609935452769467 0.05096168892582596 0  -0.01161988977978855 0.06975803590674391 0  0.01749995864800685 -0.04967144553612086 0  0.05579010797907578 -0.07839149754340081 0  0.04967890092493261 -0.07456449912989462 0  0.03726992816151115 0.03160511061220171 0  0.05475340742006964 0.0161491661516839 0  -0.03895690836586294 -0.04496091583198725 0  -0.02756900314439555 -0.04314290014676923 0  -0.02245703409570699 -0.03774484236331704 0  -0.02975624393362077 -0.05038530618075389 0  0.01361033157820076 0.06725906330905009 0  -0.05132968070555643 -0.001003438420043045 0  0.02252117572489427 -0.06272619672942037 0  -0.0268515145418289 -0.08072202842012102 0  0.006192284609547594 0.04341264715792229 0  0.08795101373864719 0.02122567237005648 0  0.02213172820280314 0.09386574300329213 0  -0.01914620178913331 0.05276333373962885 0  -0.06220013800325367 0.0542011223032729 0  0.06918613544298248 0.02387809110390381 0  -0.001996245214184332 -0.0437832799531768 0  -0.0003588234609229393 -0.05115773197367816 0  0.06724076532034523 0.0579669277697024 0  0.06597919979272801 0.06277430082252188 0  -0.01157301008106043 0.07879602941411758 0  -0.009420453308245253 -0.04547273933280147 0  -0.03865046711313675 0.06799529379676066 0  0.04235938157416216 0.02857362082565667 0  0.0349270332309653 0.02647420684194967 0  0.07570579986218082 -0.04635941498432183 0  0.06015526643634129 -0.02448919097842635 0  -0.0534333979988699 -0.06822574357292295 0  0.05854505319342051 0.01680953287493347 0  -0.01649746200837018 -0.0670346013677489 0  -0.02261784793799238 -0.07087051586424784 0  -0.08730674824593866 -0.0005019569988280201 0  -0.04070029083156732 0.06158662223498163 0  0.07825090889628773 0.03384051053503073 0  -0.07566966637928904 -0.02340612770056243 0  -0.06934402457896414 -0.0237023342567433 0  0.01505986230118265 0.07922559082634421 0  0.01503249231701583 -0.09529737173737417 0  0.06842876215000325 -0.04842592708716979 0  0.08717373685390192 -0.02596660217669737 0  0.08519851134336356 -0.03261817801432269 0  -0.09434318150988456 -0.01867386660036988 0  -0.07383210823202119 -0.06151214339109097 0  -0.07049194194795957 -0.06579897691249817 0  0.05340228269167258 0.06963042887783837 0  -0.02473109708819143 -0.05781694320859092 0  -0.07918947860430881 0.0402724803847497 0  -0.02449090545590405 -0.09288011926862574 0  0.02393050857628557 0.04548121144967805 0  -0.06839722096083158 0.01486752943017929 0  -0.07261976073407089 0.04056456084460382 0  0.02213557673761731 -0.09386395880943819 0  0.08221547929138755 0.02265291165068025 0  0.07644556726859394 0.0228861280080516 0  0.07551321566947185 0.01912250581019586 0  -0.07130391600361019 0.007895437456646925 0  -0.04855360068368166 0.07357296674951631 0  0.02565794714485511 0.09252321601272465 0  0.02668365204550695 0.03673670515553101 0  -0.01004458258188213 -0.07957282940518828 0  0.0794005705449026 -0.005247653545598414 0  0.06448097280531166 -0.07173365647907404 0  -0.08350394837270758 0.03196757218846136 0  0.02673332453293593 -0.04067826254337945 0  -0.04519714902187553 -0.02448642905925075 0  -0.05199966902128995 0.008797406920825467 0  0.05837849113400941 -0.05275068354431593 0  -0.01087427580378175 -0.08701741078339474 0  -0.05262849526583655 0.06358321185577613 0  0.01821045824539548 0.04513966317666133 0  -0.0118081259722437 0.09135428007380028 0  -0.04181060774263898 0.04388853922586757 0  0.03550005655952933 -0.03577566613744181 0  0.04238736064312035 -0.054206385530428 0  0.06575224658996293 0.02976927151301664 0  -0.05348165694423802 0.070494453874527 0  0.0724022250786866 -0.007316293008856934 0  0.06957540242438999 -0.009760677062739713 0  -0.05917691655407697 0.00677606719640323 0  -0.05734547797842267 0.01163130926288168 0  0.09055037476136393 0.0004140737871299805 0  -0.08637240105388859 0.003124671627124606 0  -0.03224274662443868 0.07142216820967441 0  -0.02901457060212109 0.04260726208113496 0  -0.07431908375465975 0.02918367137192146 0  -0.04331830220038943 0.07887356795322972 0  0.07876455712181135 -0.05543770068425338 0  0.08648290351583197 -0.04253984154934129 0  -0.07921625709769277 0.03661347261782475 0  -0.05302399860131939 -0.063970012957098 0  -0.05637678127533249 0.02805305921141483 0  -0.03108208656243546 0.04963711091111171 0  0.04614781283341546 0.03636698627156323 0  -0.01911496885644838 -0.05616107490877221 0  0.09616441539196786 -0.004988478029565899 0  0.05259142492642942 -0.01895847170021231 0  -0.02438915314762862 -0.07801577898836204 0  0.01142100891912933 -0.07646216281086445 0  0.05635546999920842 0.05746515510549515 0  -0.0737169687096739 0.02551107324991329 0  -0.01789919275896492 0.07304480295669061 0  0.05137839318494579 -0.05158912052108869 0  0.03272746260103294 -0.02954765253998329 0  0.03555673530158158 -0.03196502085462163 0  -0.05087339040909411 -0.05800560638633168 0  -0.05579705175651145 -0.05699384806262062 0  -0.0120593837648224 0.06234041721408172 0  -0.04584929398238455 0.06152721955283438 0  0.07193642535252656 -0.05040405429290249 0  -0.07747259759730586 0.008396857294314298 0  -0.07545499355180232 0.01611045309626299 0  -0.07281847742903647 0.01311646195133585 0  0.06170807302147643 0.07370094757527834 0  0.07365707426188943 0.06212515739405655 0  -0.06565855763557633 0.0553310187731034 0  -0.05169392120340027 0.01669085419712542 0  0.06497208178383278 -0.008814591926937499 0  0.04094434154313731 0.07809423694206208 0  -0.05696425685005283 -0.04452520232505737 0  0.03575910159548629 -0.06057522235195981 0  0.03403685780827621 -0.07020638983128627 0  0.02182981357155611 -0.08361825560309585 0  0.04252392668397729 0.00940805566989654 0  0.001760369941401039 0.08180600706377297 0  0.01992612040781686 -0.04425584180419012 0  -0.04578530355187448 0.05622369617382682 0  -0.04674056966022259 0.05068020723970224 0  -0.04095092685253603 0.05109054401766703 0  0.04695245687550553 -0.03262906539714319 0  0.08574112546814087 0.03413284996457674 0  0.07878610565750148 0.05127344099370764 0  0.03067233546314043 0.04273562150567038 0  0.03356547718268387 0.04946568108833851 0  0.05863104611302515 -0.01809157609306544 0  0.07107419947709831 -0.02887695665303512 0  0.07351358853985349 -0.02604678265058353 0  0.07268119272739247 -0.02245039511651372 0  -0.08063368199804516 0.02499913725797922 0  -0.07137769492335842 0.003446628150922973 0  0.02893103640343375 -0.03226547276644447 0  0.09371497617549941 -0.02271618993074317 0  0.07407482426861516 0.03822860875766682 0  0.02471394233972043 0.04183317305799475 0  0.0947493856026338 -0.01800067848984155 0  0.004152322654951605 0.09621424539032462 0  -0.0654151860934005 0.04202348480572649 0  -0.08867065533131696 -0.02347820639744204 0  0.0174437111346186 0.09505819834881785 0  0.04581362848382825 -0.02679037999676166 0  0.04919375355559766 0.0638454936510448 0  0.0311060963691999 0.03812563292356469 0  -0.07715259575637738 -0.04867254099522492 0  -0.02919901100376548 -0.08713388607819246 0  0.06811272147594104 -0.06854032067359939 0  0.03244474586059742 -0.08917063066027281 0  0.06938790226085796 -0.02110481790589552 0  -0.09458080341629235 0.01919816813500586 0  -0.09095370816596912 0.01892814338607347 0  -0.08520557227127171 -0.02999570549062188 0  -0.03510128047602964 -0.05656771025620175 0  -0.06583539779253073 0.07032667739841222 0  0.08543926284836949 -0.01932568015405158 0  0.08308224594858728 -0.01302949650321726 0  0.05819861132039363 0.03543797785859602 0  0.02844171079746467 0.05351353950924905 0  0.02685821307896307 -0.09283678940082962 0  -0.06238352998775296 0.0475714352991068 0  -0.05732755263739515 0.02086995961716997 0  0.07190175354057801 -0.0152159893318534 0  -0.06766590229024218 0.0524210075214671 0  0.0390741917083764 0.03534388758632032 0  -0.04156020305426616 0.05575887401425056 0  -0.01965380656889656 0.03879273855350403 0  0.05863800156962676 -0.04388321348816891 0  0.0565159915971133 -0.06470575471993104 0  0.02581312011179307 -0.07764585014647726 0  0.03062498565906414 -0.05833902897636559 0  0.02973331562521326 -0.03639516237722489 0  0.06157791530953547 0.003220085339061305 0  0.01967204621640188 0.08824406134147823 0  0.02453490642784644 0.08710734576547406 0  0.04647517859994036 0.02312380217023208 0  0.04109392818676137 0.04087167901829361 0  0.0740304952611891 0.02987929237217777 0  0.09144676020233775 -0.006793761543085997 0  -0.09345768295896906 -0.02381021363145341 0  -0.06434874891622329 -0.03144708925799264 0  0.04617158551063193 -0.01488562086784357 0  0.06490581538879307 -0.01659299029265797 0  -0.03579922136344911 -0.06191485619331937 0  -0.03236184974270433 -0.06767406631729111 0  -0.05600533731840416 -0.02239699425913198 0  0.01312459741426361 0.04485791800267579 0  0.08763808249209262 0.0272330110597092 0  -0.05686667652089349 -0.06210309848244092 0  -0.006151104627537344 0.09617507176040586 0  0.06641139216864916 -0.02738006629414381 0  -0.02803566052279931 0.0925514882457968 0  0.0387844317388601 0.05380766368647938 0  -0.07425217196108484 0.009820321352576567 0  -0.04278452905450198 0.06764478946937187 0  0.02875430510416456 0.08133834021813099 0  0.02789949581311447 0.07426045555217267 0  0.03195500287171615 0.07684095975142902 0  0.0005324206508343368 0.09655185943439062 0  -0.04423518955046035 -0.0818536224985119 0  0.07932652313229839 -0.04243201746143028 0  -0.07895847802118156 -0.01685008592921446 0  -0.0774953676427781 -0.01113270370890017 0  -0.06785321971771301 -0.04722359533108402 0  -0.06696631789003871 -0.05239892491872479 0  -0.06321561741741279 -0.04649238137192043 0  -0.08965031504113891 0.03593822453786202 0  0.078154216410528 -0.02648767197316983 0  0.06653952281230859 0.06980823735019152 0  -0.01790980872110233 -0.07026172475288095 0  0.01736757735936511 0.07076418699583033 0  0.0281057332300484 -0.07123259346410436 0  0.02810167887808408 -0.05157838902089967 0  0.08859708832946442 -0.02246404148913501 0  -0.05203690049333038 0.05904615394505763 0  -0.05618398205720659 0.05716168863364016 0  -0.05727958889306387 0.06335136209529771 0  -0.07775869307552885 0.03009006480490374 0  -0.07635241690162996 0.02315525328037008 0  -0.02271142206161527 -0.08889045173238964 0  -0.07264867653797004 0.05647249786057182 0  -0.03171405545326662 -0.02933904692652975 0  0.0591032089366637 -0.03170715796734522 0  -0.06241484771812797 -0.0176503382274585 0  -0.04120141838096738 0.07429579495460208 0  0.02147747144400938 -0.06995955861037362 0  0.04758788765542595 0.07876086292129221 0  0.0489837772998232 0.07510980067929147 0  0.05188563449641867 0.0813706525997996 0  -0.07182239882334188 -0.01315475483412471 0  0.0430424373998477 -0.02098525468144881 0  0.001334256164371504 -0.0446509570592813 0  0.08169129580008753 -0.03184410898661032 0  -0.01016708312089623 -0.0525070820737439 0  -0.01893640422236255 0.06101286690617946 0  0.05301723429614023 0.02706378252334645 0  0.009981281431271352 0.04200649573517662 0  0.06075661626775911 0.06715476425454819 0  -0.0006268819029053964 0.09098249406998998 0  0.005590765749046147 0.09286560562334518 0  0.07570012691337942 -0.01978569076081476 0  0.08214533824582392 -0.01680675281020451 0  -0.05233002167795459 0.07928745535406144 0  0.01088573715601873 0.09407127601576099 0  -0.06363206744170941 0.01780757413518763 0  -0.03481709014420843 0.05028013968547742 0  -0.09158322034623176 -0.02994704147027446 0  0.0134458190744353 -0.0833691888676482 0  0.01573711363714797 -0.07986380228595465 0  0.007221995495848023 -0.04283981690692509 0  0.04713266252522245 0.01600664001982161 0  0.04865980684146196 0.01253804309402559 0  -0.07294766596401189 0.03651134913238226 0  -0.01309973371636623 0.07285098954184521 0  0.0307573086384546 -0.06497333304870768 0  0.025671479932729 -0.06591726585802524 0  0.03882110178810606 -0.04215846257771824 0  0.04835602473924831 -0.001373874905104981 0  0.01482662146842908 -0.07658003983424023 0  0.03572353396619038 0.06037945850710212 0  0.007179426266921279 -0.05278587848681478 0  0.005393372420817054 -0.05934422301351189 0  0.08725332893371267 0.01597164839733549 0  0.06156303953034183 0.02281425430321221 0  -0.07380099697304285 -0.01793154325135215 0  -0.004083884068533853 0.08628413338927306 0  0.09074446770110312 -0.03271037746269623 0  0.001686775282404733 0.0623292604118242 0  0.07669908301697538 -0.01060480433490661 0  -0.07692651600387326 -0.04013954238382052 0  -0.08065341348593598 -0.001119775752467175 0  0.05099394269381857 -0.007719242279563796 0  -0.05607080505124908 0.003333914587267314 0  0.03375400345416055 -0.04126867149737538 0  -0.01187245322215691 0.04648214538612174 0  -0.09379938430474127 0.01258763999641529 0  -0.06588770090334492 -0.01159378811516113 0  -0.03639411562121034 0.08494507142211015 0  -0.03880888003021893 0.08101971005699912 0  -0.06103433448318313 0.04063778585208402 0  -0.05989755703317157 0.05729639802529352 0  -0.005017914713389381 0.06269253640888553 0  -0.01048884461408877 -0.04216405715946976 0  -0.06512273405922486 0.02290908255287291 0  -0.06074558225041089 0.02548706258311359 0  0.05157365882810894 -0.01114446528720696 0  -0.07318004958263669 -0.04299387686516713 0  -0.0702399697158963 -0.03900280597714897 0  -0.07447594344919313 -0.03625658699327236 0  -0.08307133673582495 0.004051756076006536 0  -0.08363084243850058 -0.002723963989326193 0  -0.00400983422087212 -0.05458544791077092 0  -0.0304762787429185 0.05516203179413304 0  -0.03602384495644535 0.05602954088272015 0  -0.08669178584234347 0.03074761566960729 0  -0.01252153699495063 0.04159463164282572 0  0.04754131134107589 -0.06859872292450013 0  0.04616167393535541 -0.06327036563810338 0  -0.01468020144780701 0.05627440535368869 0  0.07496257541593399 -0.0605952463802267 0  -0.03760548268460113 -0.03763441610963241 0  -0.08466053812899542 0.01555867374871913 0  -0.08311826872822045 0.01860439137235985 0  0.01805692595035644 0.04985980009986977 0  0.02286610729491663 0.05095985374853498 0  0.0214358697049375 0.05568015475404899 0  -0.04523199643110157 -0.03057253840538074 0  0.05199165650139313 0.03227898615112557 0  0.05561009700190714 -0.04153094462390085 0  -0.05245657935593512 -0.01877367050616209 0  0.03463651921865799 0.0438385301223403 0  -0.001211571397047566 -0.07357943788554926 0  0.06552317437854756 -0.03357993277623218 0  -0.04208943032576936 -0.03305826143261662 0  -0.04382749753700374 -0.03710186163565289 0  -0.008713648116005531 0.05247323446732913 0  -0.008915565953826813 0.05899222957454627 0  -0.004593157697439059 0.05439527944775964 0  -0.08409404269260609 -0.04729234325699588 0  0.0450493531190545 0.0570084849713492 0  -0.0683430549434173 -0.06836408354104866 0  -0.04452649347407485 0.0185288202606828 0  0.04397680941174392 0.03376659315285752 0  -0.02124492168355184 0.0574948554596597 0  -0.02459380042226006 0.05826829929798462 0  0.08396802220886039 -0.001783659687954461 0  0.08132996361498496 -0.007989742213708101 0  -0.03530791353503424 0.04398131030934066 0  -0.02539798667466841 0.08904691522363871 0  0.07502332495016006 -0.03286995141573384 0  -0.00837940079319917 0.07236405128297317 0  -0.004571477257899423 0.06925820765355137 0  -0.007477908967240226 0.06566353546848866 0  -0.02751538946839873 0.06578591856379819 0  -0.03160090892808242 0.06691794522160015 0  -0.02885059490434643 0.0606140935022899 0  -0.006615710345914813 0.04276934911548422 0  0.07829356446022105 -0.02981042403232748 0  0.06866080913203727 -0.05622800385037705 0  0.09509561362286451 0.01633175061322805 0  -0.04024908344580355 -0.02587002736778865 0  0.04153660497423175 0.01262057864649015 0  0.01307273868813875 0.06101031146182763 0  -0.002534047681034077 -0.08029778496818139 0  -0.005532392222191922 0.09287307267046786 0  -0.007801150930767076 0.09039828511628263 0  0.09144500275288595 0.03107902996205517 0  0.02039859005401164 0.08187512295869526 0  -0.007425246739388333 -0.05905652693596075 0  0.09667381362978576 0.004107632039665494 0  0.0357136414146088 0.08035739256934563 0  -0.08994416226774705 -0.01742640535007087 0  -0.06844199562078462 -0.05904331803504903 0  -0.08800005771784974 -0.0282245220078776 0  0.07586017010505285 -0.03916730327286545 0  0.07105431971641354 -0.03728278810083314 0  0.04219798690011912 0.05037824379000978 0  0.04065900402477987 0.04731811782695249 0  0.04285195224335531 0.04473617372761015 0  0.02753763724260221 0.06757755770171697 0  0.02523892571155422 0.0611936388203084 0  0.03970976127289248 -0.06663928740238709 0  -0.03651570154920751 0.07662872955998996 0  -0.0303715559022945 0.07609069642379256 0  0.0142738333655104 -0.05550244263321492 0  -0.04111754043110782 0.03127356423259624 0  -0.02973599567525348 0.03115680067112395 0  0.01839976254589779 -0.09484176052554423 0  0.01741189417777954 -0.08872627424018863 0  0.05142992862941348 -0.03409482858559807 0  -0.06351580043011892 -0.05234704883956653 0  0.04317341059565419 -0.04264498333376457 0  0.04064160541813552 -0.03649450260003523 0  0.07293314702068041 0.005184135668170444 0  0.04255050226863329 -0.02731832947580564 0  -0.005689565537243532 0.07670618259967911 0  0.04651746229748287 0.009988214782595661 0  -0.05429523543997189 -0.08030313492493588 0  -0.04821894810019895 -0.04829461200382348 0  -0.04226418362031016 -0.04894079149914676 0  -0.04635418572037554 -0.05319374450848061 0  0.00313257722314918 -0.05458520409646005 0  -0.01983792608419487 -0.07299361306860827 0  0.06153097887485794 -0.07446261595031206 0  -0.06690848916762596 0.02775673058344895 0  -0.02911341294958923 0.07272284972335125 0  0.08378774192094149 -0.02604154029088766 0  0.08434262943023893 -0.02942854675794318 0  -0.06324409387074591 0.02933955337817002 0  -0.04214961078637591 0.08201615585109251 0  -0.05394549855551659 -0.007646742645581153 0  0.05862037349026206 0.02853269252963042 0  0.06417585659019912 0.02680736555408746 0  -0.03017666317221204 -0.08013863563523227 0  -0.07944658994498818 0.02186319499069716 0  0.0508051385879448 -0.03836323733347247 0  0.05205056528431813 -0.04473103511950607 0  0.04541169179377093 -0.03699486055927505 0  -0.05431099538747567 0.02357612342283064 0  -0.04903054467178653 0.02344981280478591 0  0.08071557219798134 -0.002253194709060677 0  0.00778339871479773 0.05605136906658501 0  -0.02990539307795385 -0.07398883880367678 0  0.08204144726042106 0.05155258654359977 0  -0.006250046395275381 -0.08515836141009739 0  -0.001988250930427847 -0.0870310240161279 0  0.03277985572821286 -0.03760432100416768 0  -0.02133112054276076 0.06417336872772562 0  -0.01625183841972069 0.06712406828060778 0  -0.08237678298585248 0.0350756738341985 0  -0.03559728707275085 0.04011475039987773 0  -0.03893682813046548 0.0455652386497546 0  -0.05192223565869105 -0.03921286328940137 0  -0.05361684535235889 -0.04452249738275345 0  0.008322689539641791 0.06241443781446701 0  0.03003511500043945 0.0703147978476303 0  0.03606076597939647 0.06919641177294931 0  -0.05993352482659513 -0.04726504913739906 0  -0.08539345432707454 -0.03562999122002465 0  -0.05323266742710197 0.04796201770896046 0  -0.05846391531650318 0.04559429842258039 0  -0.05357614004914497 0.04212799978069066 0  -0.0210200577506024 -0.08404162369954732 0  0.03981972791918967 0.05857597939875079 0  0.07232728742091321 0.04901169681406714 0  -0.05709876036701254 -0.01037918841163816 0  0.09367156790619714 0.02520396679128513 0  0.07834660808340332 0.001284015817030995 0  -0.0443368631234624 0.0338489488193016 0  -0.03796338510492106 0.03531987978264275 0  0.0824889726906077 -0.03919894645979605 0  0.06392996099225237 0.03245228123285612 0  0.06414053529833408 -0.05394423774594057 0  -0.03145533065601067 0.09141987944080121 0  0.0006072111371391807 -0.09702594991541458 0  0.07447602110974992 -0.0006758322053024139 0  -0.0959351010559898 -0.01451837286668686 0  -0.05079156955232506 0.06622705244251177 0  0.06035196810326513 0.01404356042241163 0  -0.08375749246491236 0.02578283891367383 0  -0.04530264324186712 0.02310462499867173 0  -0.01274197056749561 -0.06243757127345721 0  -0.07656413967872829 -0.05921927117180386 0  0.01835498356780866 0.07387301581955746 0  0.07866337382048706 -0.02124668892410528 0  -0.02785366925388835 -0.09269337463674392 0  0.0521858543399118 0.04276393857565101 0  -0.06838814827572405 -0.02049928545651829 0  0.01696198643833912 -0.07412842414527097 0  -0.01765732355078898 -0.05990491549479209 0  -0.04953964690277717 -0.003817260629004319 0  -0.02451236498810038 0.07334843457378475 0  0.02153873719588023 0.0771177729011801 0  0.03118226240977673 -0.0504381037904898 0  0.007575170615809533 0.07119505033711065 0  0.01071493291279983 0.07221356013396196 0  0.002005236911215419 0.07041907031723731 0  0.004537075846155699 0.06573261181381368 0  0.01172225444235085 -0.06482478992765126 0  0.05858380101539414 0.02158833796656753 0  0.01911160647171365 0.06062013094049892 0  -0.008637944572991539 0.04675898674744105 0  -0.03576499925610594 -0.0727497053428665 0  -0.0624038936857217 0.0020835563868625 0  0.0119524202557163 -0.06135565829914336 0  0.05327087362048179 -0.07193752230859995 0  -0.08118464592283255 -0.04439842127081729 0  -0.07587986099941831 0.05989708439510388 0  0.09608077165379342 0.01037752061360583 0  0.08054813249234116 0.0316015001873357 0  0.07206710255469054 0.05923147903258514 0  0.008526562296199513 0.04845119703325079 0  2.644846069117367e-05 -0.08266741948670521 0  0.006516494840650824 -0.07192777835638482 0  0.001739114638763401 -0.06875091353065227 0  0.005490982074107136 -0.06592735202171152 0  -0.05143677224602274 0.05213526863650363 0  -0.08226041783904896 -0.02442346403328417 0  -0.07883970508008291 -0.02229069780605937 0  -0.04662110080158001 0.07893161977936106 0  0.0185046773465474 0.08527207822930565 0  -0.09113951371459597 -0.0333156815457535 0  -0.02672222314339218 -0.08396386868549359 0  0.01146889457100832 -0.05104509273052061 0  0.08890388880569414 -0.03896194927188058 0  -0.05798756003924088 -0.04150150510543863 0  0.00907105313718872 0.07775870356136928 0  -0.09402738853913457 0.02404179904491555 0  -0.003690147844726937 0.04855470688710517 0  0.06456194681100814 -0.03052263581667921 0  -0.01644576626242535 -0.04455970033066187 0  0.05783704813107387 -0.008759326776595499 0  0.08839458580324185 -0.01755750201772521 0  -0.004002447153672459 -0.04792036297591741 0  0.07043689670744818 -0.00318533173425548 0  0.01532394148699266 0.07543614988251232 0  0.01361275535288193 -0.04508194137651557 0  -0.04892469313204494 -0.03421879034566205 0  0.05175476626538375 -0.06657995267894244 0  0.08256833450581004 0.02580942465164333 0  0.05006725960274579 -0.08255864097931277 0  0.09565733841091045 -0.01181762458040053 0  0.09217056169967301 0.005536402397029393 0  0.06055990192682301 0.0001749339767040301 0  0.08969511612055286 -0.002650742522002616 0  -0.0002189126897541929 0.07861553068274231 0  0.005246287356227369 0.07606324258603375 0  -0.006677943610872112 -0.09685390176118512 0  -0.04749035305586801 0.03104696559365034 0  0.04740627687658426 0.04632480181956425 0  -0.02528181883311955 0.04665652496902321 0  -0.007215383135757695 0.08679064229518371 0  -0.009750874532129705 0.0847980235018298 0  0.003765529857169516 -0.09679754939483315 0  -0.09655813944872396 0.001780619141926333 0  -0.0409466591628245 0.08736073041336605 0  0.03552412887224675 -0.08369574381974484 0  -0.04087511515764286 0.01314070723094726 0  -0.08729884473736249 -0.04223336838286659 0  -0.08548060120424705 -0.02321172314438369 0  -0.03068143731350948 0.08648090950245549 0  0.05016323047028154 0.06922517635300501 0  0.05083182507708695 -0.06145002414359887 0  0.06007440079841837 -0.03655138563602544 0  -0.01687919612366438 0.08755510594823068 0  0.04472555195851354 -0.07868914985485016 0  -0.01420864874572557 -0.07132308332969668 0  -0.01586042317606177 -0.07662198382015267 0  -0.069724557503674 -0.003222866264295386 0  0.06977633435894361 0.0442438360728003 0  0.06449436444097487 0.01723650385312772 0  0.06534533857589513 0.02036313335679172 0  0.07561518846853044 0.01381432552569302 0  0.07839922711130271 0.008260164710979935 0  0.08034188885142469 0.01276723934773051 0  -0.05180534043554753 -0.07480731270929621 0  -0.0605109654558278 -0.01397968323751199 0  -0.06663818451391895 -0.0152875880062864 0  0.02143385747841672 -0.07738609534762501 0  0.03812752796410741 0.07529683922174829 0  0.04058123894129438 0.07128321733909461 0  -0.08807072828540512 0.01080944224016298 0  -0.08323811363026659 0.009542735716653429 0  -0.002332024776858734 0.05799037104093869 0  -0.0255281041841694 0.05290079892705616 0  -0.04069296646662603 -0.05759768718812353 0  -0.04340561704804287 -0.06418829039695263 0  -0.04777670219654497 -0.05948266059894203 0  0.06758380122424602 0.05012692773658496 0  -0.08000892077801797 0.01879893704950667 0  0.02682855272894145 0.03357649036676661 0  -0.04157330618444958 -0.01056401049624799 0  0.04534850549866556 0.08274368624742766 0  -0.04345248848202673 -0.005847922210067131 0  -0.0769751054803552 0.03439648719177579 0  -0.02371163431047951 -0.06113549990696114 0  0.03405430346424258 -0.02606073346465832 0  0.05812254804997101 -0.01502317074596816 0  0.06264765128830008 0.04194156889604689 0  -0.04787711553712452 0.08425046623751806 0  0.03912680830918753 -0.02627804603027208 0  -0.0431835100806077 0.0005397123100047175 0  0.05129742866364288 0.06157343844612649 0  -0.02430706353453529 -0.06558956329727116 0  0.06200124830479958 0.04580096627369303 0  -0.01883926680458464 -0.06485528427935808 0  0.03053966711535729 0.03006835632525577 0  -0.03081865846621298 0.04518093536602019 0  0.05371983419113575 -0.05606374682506496 0  -0.03269547362470045 -0.08191627962727731 0  0.03706201066259607 -0.0776409785666836 0  0.03680166744621046 0.04159529692773381 0  -0.06322167588913034 -0.02074764233511632 0  -0.05860005996903552 -0.01753463084168748 0  0.06190010717890389 0.007825934594075495 0  0.007551848872265023 0.08360104735779944 0  0.03595925515351611 0.051416201252471 0  -0.02327580599811159 -0.04790984920087604 0  0.05241200414417725 0.0500542403409273 0  0.05161972963270898 0.05580699090255756 0  0.05638062747444954 0.05428619218141432 0  0.0415076944215655 -0.08750379543919665 0  0.07266329979093461 -0.04352824105260795 0  0.08365078245799834 0.03182881543150789 0  0.04902744911043796 -0.04225138014283124 0  0.0491470991440477 -0.04577884802040867 0  0.04436966055441562 0.06717248109067191 0  0.09275734417294151 -0.01080880039027781 0  0.02934059561089147 -0.06126645335798896 0  -0.03659488181499267 -0.07717958619480222 0  -0.03699248439952928 -0.08118444132150764 0  -0.008174701978577519 -0.0722290235297839 0  0.0696985701965482 -0.01293183178258452 0  -0.06114772337564928 0.05126523418247336 0  0.08720299457963536 -0.01186293255612365 0  -0.02182857477446157 0.05128759565573068 0  -0.03268791482886872 -0.03619443551373442 0  -0.0283095077229161 -0.0328385345718583 0  0.0415352334432973 -0.07755758146868158 0  0.03601449030946144 0.08793000690707541 0  -0.08932148950631004 0.0252015735080753 0  -0.0866057488654477 -0.003493842992058931 0  -0.05866270264193857 0.01806148404367832 0  -0.01084083728500716 0.09616879148288983 0  -0.05744160665383374 0.03096036719454688 0  -0.00720951188808628 -0.051757808885608 0  0.05561317235594448 -0.01956117798419284 0  0.052335164371504 -0.01586086341486408 0  0.00787999695348642 -0.08287884778455418 0  0.02569240731277123 -0.08242729722188472 0  0.03825377055038186 -0.07239709567329758 0  -0.05035529230339025 -0.0831621300518877 0  -0.05788830732627742 -0.0007030358510150249 0  0.08003468979673765 -0.0143395389242426 0  0.06245418518024241 -0.04565093491766551 0  -0.0464902242650229 -0.01539875916628899 0  -0.04053590085311413 -0.01534890439070815 0  0.07161283833496344 0.02593118865025091 0  -0.05930761782245234 -0.06537318326358924 0  -0.05643221611087788 -0.06872815143935765 0  0.0402972196153654 0.02536681936307236 0  0.003716939809754418 0.09047010798564228 0  0.04630633709733922 -0.05759388519936002 0  0.04741663515711987 -0.0295081217580372 0  -0.09719515182253136 -0.002433556741575172 0  -0.09587343400391551 0.01488782995188897 0  0.05289900427096154 0.007136955578230467 0  0.0006439874467130064 -0.09110209907618469 0  0.04860186428485828 -0.05283155205964328 0  -0.04694288586205294 0.009349980064930534 0  -0.04242232429374183 0.005305570263128118 0  -0.02878911347069404 -0.04036917260866477 0  0.03119524848462138 -0.07924543955049962 0  0.0459615348897498 -0.02009197977424796 0  0.008169836476099633 -0.06288864241596849 0  -0.01961836688484123 -0.08113811985832879 0  -0.0098454080720269 -0.06948512408208052 0  0.04675253924782287 0.04965428751828914 0  -0.08872879532058041 -0.03903088413870619 0  -0.04596849315283151 -0.04223495420250722 0  -0.02220149965562396 0.06915981766390124 0  0.06114262920282618 0.0263294179052761 0  0.05572310513937444 0.0739007351111482 0  -0.08290891055867727 -0.05019884937136013 0  -0.09326750537643801 -0.01194932412073887 0  -0.0179674686103097 0.08145826210397179 0  -0.01497449495896063 0.08345933439460332 0  -0.01381529436768662 -0.05960102166836389 0  -0.04126702588231912 -0.04281356720412613 0  0.06369576835445089 0.01025148136845049 0  0.03273150414957732 0.0332460142896391 0  -0.05140646940525867 -0.03242930029386105 0  -0.07425405670639332 0.0627468297870865 0  0.01589032670889405 -0.06916352558548856 0  -0.001230218634754835 0.08724271209299182 0  -0.04672471759116943 0.01327388211854991 0  -0.04218064519063319 0.009054182891793154 0  -0.08312301139394589 -0.01380817049379984 0  0.0109749058299795 -0.05724233777116789 0  0.06448869134225667 0.07255215742027811 0  0.06412163154183567 0.06688845463877216 0  0.05984667456644605 0.07006175034655461 0  -0.08268386955826894 -0.00880977311451934 0  -0.04784889754754284 -0.06408031735682619 0  0.005425372790407351 -0.04866532513335145 0  0.007900542517621147 -0.04640092878775263 0  0.002422938476626445 -0.04764842085212118 0  -0.03198593705518435 -0.07770135242398639 0  -0.06213379522374401 -0.06086919717653735 0  -0.04660694951926351 -0.08463474726011096 0  0.07060574931532773 0.003186457679800864 0  -0.05206336478415634 0.04515541857798417 0  -0.07423334358814265 0.02103020924009757 0  -0.08299003772640412 -0.04034343013612449 0  0.01319236502177562 0.09611057799160486 0  0.01959779875390729 -0.05853131042511746 0  -0.05487078267440505 0.03582565627024245 0  -0.01379553020392031 -0.06540939576620375 0  -0.03538376604402856 0.07160001811811594 0  -0.0568313195578744 -0.07869832389324539 0  -0.08219499088876164 0.04146209848644176 0  -0.08497599580941258 0.03670912739803153 0  -0.05078914931362578 -0.01117459718313768 0  -0.03261181503490949 0.02810115690548274 0  -0.03526192581044128 0.03362157131263568 0  -0.06884557226825744 0.01786536164409659 0  -0.04388504005645805 -0.06857774097522835 0  -0.04803357250986724 -0.06834290503933245 0  -0.04649901440080014 -0.07371365267480579 0  0.05569571023209908 0.03268792168426678 0  -0.05066912124193892 -0.02453923166054349 0  0.07043134090772038 0.01680627337952935 0  -0.03668934755659737 0.02935140720473004 0  -0.04066648591612322 0.06548924386073902 0  -0.06022699490902281 -0.0271229763599731 0  -0.05892144725032601 -0.03558866333935463 0  -0.06685222525887081 0.04862769952187965 0  0.02419397064672468 -0.06021976124493938 0  0.05303404346030575 0.01871257986381323 0  0.04276421445873445 0.005174999660643571 0  -0.09130439152199851 0.03339119507070238 0  0.0396515587905361 -0.03930083503018276 0  0.04045540224953285 -0.08308393502872484 0  -0.07876092945194078 -0.02864137056025663 0  -0.01009261690888296 -0.0925217043597558 0  -0.004536081514083717 -0.09265450307448204 0  0.0748542945902866 -0.01662528324510511 0  -0.007114957217428454 -0.06507900390839232 0  -0.003964574836095025 -0.06853998742762929 0  -0.03184690703986675 -0.0857819250044478 0  -0.03665341898639862 -0.08964355308126137 0  -0.0335772700962812 -0.09091152440046352 0  -0.02477867852388877 0.04057564066607015 0  0.0751135393112545 0.05592847547495793 0  0.02019786125762423 0.06872594434450027 0  0.02377152991703139 0.07087940848416246 0  0.06708434416384063 -0.02312400444044693 0  -0.0561225022078279 0.04864779780987182 0  -0.07156296764538686 -0.05957076988560901 0  -0.07102724461527929 -0.05643581115108123 0  -0.0278423508695596 0.08124887147710365 0  -0.03058547187413554 0.08253587155959559 0  -0.07151112906818027 -0.008598089481618715 0  0.04944111348087966 -0.02293055841687476 0  0.04849021599729435 -0.0169375592520124 0  0.04198660768940813 -0.009500846531072592 0  0.04267125030417455 -0.003993449957139092 0  -0.03220793847653211 -0.04500069991479257 0  -0.03429731828545683 -0.04174697300126269 0  -0.03686437492668448 -0.04706905473243571 0  0.003777345257371196 0.05968401400029674 0  0.001824144591617571 0.0553050317358021 0  0.005713841634711172 0.05393144122814419 0  0.05697289213697225 -0.02544518700828619 0  -0.04145025226697744 -0.0807341227679079 0  -0.0465121382228867 -0.07846793165903819 0  -0.04122856115275232 -0.07613354486447403 0  -0.0278497780255574 0.07826261304979491 0  0.04741337219481821 0.08486143287455139 0  0.05290514797352647 -0.02944625772231956 0  0.05601420899672627 0.02658426947155732 0  -0.09125829656983421 -0.0007880545045473135 0  -0.09088392848855942 -0.006338757551292803 0  -0.01475458699723855 0.06413996393575228 0  -0.03211108813633182 -0.05660574519185722 0  -0.01973375736645502 0.07560414411859931 0  0.03089567622194149 0.08344761247021729 0  -0.06410523821970442 0.07313647644434304 0  -0.06665547013742087 0.03750336598038455 0  -0.06258327136915004 0.03615326964068811 0  0.05715688680344212 0.04642903647480208 0  0.05616429720275179 0.04128157902536635 0  0.05271339921361811 0.04567501127475736 0  0.04054163581689519 -0.05651169993163718 0  -0.04986262400750206 0.01907979207408032 0  0.01745797022965155 0.05447276822037747 0  0.03112742347316561 0.05934329491902526 0  0.02597263489913993 0.05666545458827549 0  0.03896553995854633 0.06546904732722256 0  0.07973344824915662 -0.03589670744553909 0  -0.04303527477080264 -0.05184766490074232 0  -0.03962064794894882 -0.0521543448202297 0  0.0691133076342685 0.05562446519890137 0  0.07301852672656335 0.05305108220636221 0  -0.01790765899692096 -0.03903371601904028 0  -0.03903823722814383 -0.06823833716137581 0  -0.03353330219481589 -0.07039468763717183 0  -0.05049130330387391 0.06155478550138599 0  0.00445086812848817 -0.092314899881858 0  0.03108134602884142 -0.09190695119661833 0  0.05780863908331801 -0.06898349427870093 0  0.06970005993230434 -0.04344907034486713 0  0.06698078605768619 0.02590843381730426 0  0.03794699743775566 0.08419506907812808 0  -0.05605572498059728 -0.03062290089708036 0  0.04342886336766536 0.02174519977390632 0  -0.07269135689402416 -0.001435702201184918 0  0.04558708623345402 -0.004464380263753705 0  -0.05954776212657262 0.07229370183068229 0  -0.06110790292670686 0.06809335390735448 0  -0.04103234400280492 0.04815312021614646 0  -0.04474476626708219 0.04436285106891844 0  -0.04372472477348736 0.05012042421278545 0  -0.05396623005365644 -0.04743723365171432 0  -0.05644869328284213 -0.05138946948172179 0  0.05072454011248975 -0.07731408855570696 0  0.06073499431354659 0.0508150604362483 0  -0.003458681274742189 -0.06092030747495441 0  0.002612485115641501 -0.0608588495697182 0  -0.000564168318737694 -0.05785756911250623 0  -0.05043706935083059 -0.02859357858278209 0  -0.0336428687993309 -0.0268437044534779 0  -0.0507182357985194 0.07159470051495499 0  0.07990952174880804 0.04021018042743595 0  0.004462423861732291 0.0500294950334797 0  -0.05406321851968383 -0.07288843517477987 0  -0.0221908139829823 -0.05608078918752973 0  0.02400922406771382 0.03548249868552906 0  0.04581208950745346 0.05983421697961409 0  -0.07069617505533562 0.0468832782337413 0  -0.05045762846030615 0.01404196111086921 0  0.08858284542738795 0.02413194008850317 0  0.09066469476656508 0.02011489903169714 0  -0.0608347540735148 -0.05356108718898177 0  -0.06003416006986004 -0.05646411338690661 0  0.01632447756860442 -0.09255643763520158 0  0.01044334418902069 -0.09228774056069587 0  0.01296228131042669 0.04102217437457859 0  0.03167038282576126 0.0919566979623691 0  0.05176863809889935 0.0373798020250161 0  0.05584100552181739 0.03716005714803412 0  -0.04448241160403037 -0.02164640518235997 0  0.0492184155073872 -0.05772336057671471 0  0.01962627410540226 -0.07969427122510146 0  0.03103917074255663 0.05491218928365411 0  -0.0634020733822607 0.01156200995492306 0  0.07815590028330013 0.04838799780044723 0  0.03403900624414995 0.03756615997941317 0  0.03311911963768797 0.06559168002601477 0  -0.04053288569046156 0.02546633043922651 0  -0.06396067632231317 -0.02522883483289972 0  0.08689163588933754 0.005745966568598567 0  0.08286800612906023 -0.05020069290369183 0  0.07738788232332851 0.00550671943760896 0  0.068158545310119 0.02114503995583623 0  -0.01840840543421175 0.09076210768063413 0  -0.01675079386902461 -0.05440122877303805 0  -0.0197077898520634 -0.04951762125126123 0  -0.06844873435996358 0.002563503069789069 0  -0.06818549071905237 0.008534546414606048 0  -0.06538620788143047 0.00611655173862962 0  0.02937426186734436 0.04721673758755629 0  0.08679965752676067 -0.002427977907627497 0  0.02411644062531914 0.08301689584537425 0  0.02553911090201068 0.0780618209397861 0  0.02251996857710101 -0.05016469757922371 0  0.02218930456186418 -0.0546595246474634 0  0.017565331400584 -0.05293384187675106 0  -0.06182710848234178 0.01542461918733972 0  -0.06679571902507893 0.012412573909218 0  0.08152498802825146 -0.04506733268455818 0  0.07712011235848233 -0.04891881691991821 0  0.01605307829827018 -0.06074641692792088 0  0.02011501712285765 -0.06438039796713788 0  0.03111467033325817 -0.06963795532273484 0  0.05925784227136503 -0.06366327393571768 0  0.07916112759130101 0.04458349391124381 0  -0.09343627745987687 0.001912617644179158 0  -0.07872997549428581 0.005702392993362943 0  -0.009235977445817681 0.08191716306854961 0  0.003540993504681 -0.04275558927581354 0  0.04688486564442833 -0.07533405088807676 0  -0.04973556770154034 -0.04418562320006761 0  -0.0251228584333262 0.0936304954203498 0  -0.02153238295966355 0.0944821941360319 0  -0.09267229242650236 -0.003917369203043407 0  -0.02082518286920889 0.08544168360620051 0  0.01512308330213123 0.09047201662522172 0  -0.02330894011302163 -0.0418875112561047 0  -0.02120700714315302 -0.04425074446035791 0  0.02617488128015135 -0.08843681349224461 0  -0.06361371264942492 -0.004136354704706583 0  -0.03558754814896496 0.0603164313006347 0  0.07128115553883717 -0.06584411122425392 0  0.06899454480617204 -0.0620374803738673 0  0.06574406993363119 -0.06382799800131191 0  -0.05587802633179428 0.01502553395264535 0  -0.05420393066150365 0.01069115013516293 0  0.0853737741976974 0.02917265200089971 0  0.06647570359168477 0.01503104892261942 0  0.05805918872721537 0.009603678978459661 0  -0.01636335986343148 0.095918336379267 0  -0.005941085983461549 -0.04216727474193378 0  -0.07912294724353486 0.05609686649399596 0  0.02851196962617777 0.09287050009540321 0  0.02740839542707419 0.08731365390089861 0  0.09126080702156476 -0.0167423560446176 0  -0.06416556713761754 -0.07320530458704089 0  -0.01876651056951629 -0.09551658673883737 0  0.000579961191449116 0.07290593448405752 0  -0.002291918386036154 0.07310558262432183 0  0.06848472322598477 -0.03360833082637177 0  -0.07053487239897957 -0.03259336029478506 0  -0.07006422829341287 0.06169507148309474 0  -0.07017965994299021 0.05841921679544682 0  -0.07515632789792559 -0.05506310420190876 0  0.009807345892482937 -0.04149591581240603 0  -0.03490947386052332 -0.06638817101690626 0  -0.05249903779024694 0.001630303788778509 0  0.01441644587721663 0.06446999513024712 0  -0.04519313082508478 0.01572044014814857 0  0.01033178071401052 0.09687121050122305 0  -0.06230912088625418 -0.06702393215292272 0  -0.06661527854197369 -0.07067271263737972 0  -0.004598265217018262 -0.08828705401531016 0  -0.08459217727851645 -0.01872434961402652 0  -0.001356461409312308 0.08131724530852845 0  -0.003752796927890879 0.08301353391404034 0  0.04434297625830455 0.01709538634164964 0  0.09313243376653145 0.01013815648792045 0  0.008718578713652515 -0.07759411038201804 0  -0.01717700936834255 0.05485442678686337 0  -0.07081022115199957 0.0251954876984326 0  -0.07113768467444131 0.01961065913058336 0  -0.06872741198587329 0.02181705909688574 0  0.0311193865281136 -0.08353195880091638 0  0.03883006365055636 -0.08851377213304462 0  0.05943299567130319 -0.05008909353314495 0  0.06426670104560026 -0.01375517988348298 0  0.06393872210845031 0.05577212995326617 0  -0.05943313291199539 -0.003510687410734849 0  0.08395695277438432 0.04883117913009526 0  0.005095698051316998 -0.0743909907377369 0  0.04621528661596436 0.03934073407269374 0  0.04490773786935191 -0.0600835420781238 0  -0.04184404585629073 -0.08789295745714081 0  0.05236620859631566 0.02195298594325841 0  0.07784746265461073 -0.05821406701314705 0  0.07207896830250898 -0.05697074291247368 0  0.07610994844509517 -0.05418049361748899 0  0.04405819827553253 -0.0705994495022223 0  0.0145564832612636 -0.08923678899437204 0  0.07818062098994676 0.05800640323416465 0  0.03489205917336273 -0.05458058422474738 0  -0.03614953987069183 -0.05053648764788361 0  -0.03850306115075196 0.07082730648748611 0  0.08954945843120626 0.03723065666138833 0  0.08819180521392042 0.04044319076293968 0  0.08412343061435855 0.03646239119001341 0  -0.08523414596088277 -0.03281502810808878 0  -0.0841919158942523 0.006652392862760008 0  -0.07910927352060482 0.01380059865983439 0  0.06938141514928718 0.01112090433318351 0  -0.02657344040928158 -0.06011375415279126 0  -0.03539274655476259 0.06561498109438461 0  0.04194013264858676 0.08750536129458235 0  -0.01251633952135429 0.05182389887376526 0  -0.01695207188980297 0.05025641335369294 0  -0.07476677415437497 0.04552380946517559 0  0.03380461683519193 0.07148731543439077 0  0.0345792453966423 0.07425437550018751 0  -0.04599214327498022 -0.03936293722254103 0  0.04439101062412217 -0.05217784862297738 0  0.03916940523068749 -0.05149976448671375 0  0.04121401186749639 -0.04786065150565671 0  0.04376681004377712 -0.06494947826055215 0  0.09602249444019213 -0.01541010426455366 0  -0.0701459152535865 -0.02757876276961221 0  -0.001227582807300294 -0.06361313219601221 0  0.05107388746447567 0.003780471129530141 0  0.05526339783282348 0.001696935695977213 0  0.05596390796443397 0.006381867087209721 0  0.07251306165062636 0.007957079289209164 0  -0.03630387637648577 0.04664851491993275 0  -0.05955456389015994 0.02261935265551366 0  -0.06171319164650425 -0.03048557516029181 0  -0.06624910682698155 0.01671756314921354 0  -0.0597261066522347 -0.06245031587407317 0  0.06476639503532199 -0.04211242519863066 0  0.09383364689931088 -0.02559451920467881 0  -0.06306290799790119 -0.01160550615483457 0  0.04518239005338998 -0.08639082308962447 0  -0.05736649271914928 0.06617572574058293 0  0.06977948615492706 0.03447071264366183 0  -0.01980020124161887 -0.06169944802461773 0  0.06185892106782592 -0.03123629655573615 0  0.05497257227093912 -0.06131539158149965 0  -0.04698521428793242 -0.01010374557322814 0  0.0380215929547792 0.07846777126859975 0  0.06035558492619164 0.05826594508212982 0  0.06154889180223883 0.06107816102981727 0  0.06457000492221215 0.03529356854201028 0  -0.06231843802481156 0.02315264147498021 0  -0.05198384336081938 -0.04211844149481192 0  0.02005533228369676 0.06587908623079052 0  0.08738577186392932 -0.008334154557673617 0  0.02632882203013006 -0.03395000871667729 0  -0.05451455218655465 0.02067765434937028 0  0.05600610424796804 0.06833821328774425 0  -0.03822120900793867 -0.05609482914080251 0  -0.01003179641857797 -0.08970541924277277 0  0.00166754454195854 0.08533514565898313 0  0.09406504682885193 0.02243661144189054 0  0.0421425748208245 -0.03191944980671158 0  -0.03953892356416492 0.01604555493146083 0  0.08408130677371871 0.01610642903407742 0  0.08517950090207059 0.02146591712462651 0  -0.08282007047411215 0.01348185770098301 0  -0.050873116711012 -0.04957750034305318 0  0.02372381572718184 -0.07582453918467925 0  -0.06698711570570311 -0.06253576464286592 0  0.05322270556477062 0.07623813374298688 0  -0.02197824628096818 0.07988915315338886 0  -0.02404479971825092 0.08311542426475285 0  -0.05025700880839153 -0.02045957658265851 0  0.02378146008024559 -0.03546852684953002 0  0.03669851805680916 -0.06659979485104781 0  0.03494876073913375 -0.06324078584213588 0  0.04057971461087867 -0.06386075586913102 0  0.02332119741317639 -0.07202361775811345 0  0.02565200129357727 0.08970007635788591 0  0.07404315336224691 -0.04858866403274215 0  -0.08756875829081659 -0.01024172131189326 0  -0.04731259995404265 0.04328705396953202 0  -0.01362206444450405 -0.07925780444114652 0  -0.05104937924514271 0.04003122720442262 0  0.07632096336503053 0.03583568528536078 0  0.07960681640841398 0.03626268452889118 0  0.09114175548054575 0.01217023126638963 0  0.0417028513140112 0.08076237896951548 0  -0.01306248822286138 -0.04080841378177004 0  -0.09685215552942739 0.006926766164661242 0  0.05475065172745681 -0.03407955403014831 0  -0.08075359509513426 -0.01894651261908186 0  0.04336648602037629 0.03930910759940158 0  -0.09359863934305553 -0.02666919023134656 0  -0.0607309427288702 -0.04119792337581702 0  0.03932865849099006 -0.07921036340218432 0  0.00454689884710039 0.08158801392156961 0  0.03242874511810256 0.02763956556010527 0  -0.05463217636513878 0.08080147354260944 0  -0.05879940981808136 -0.022772956071712 0  -0.04201305770942763 -0.03022325872022192 0  -0.08868663879595193 0.004620029308259084 0  0.0646803034919681 -0.002377711743999543 0  -0.02733381585916819 0.03269739041090913 0  0.05020902781171617 -0.00349568596652542 0  0.0728074047168334 0.01864013406042222 0  0.07380294587219986 0.02369026379070752 0  0.07627937646302284 -0.004463716880447839 0  -0.01306157833640743 0.08890428608686579 0  -0.08989047342386726 0.01639612676331835 0  -0.02533928693440697 -0.07542744631731774 0  0.04084542906840785 -0.01740634557007105 0  0.08266120571858085 0.007332063511543733 0  0.08400348451598159 0.01069067850345698 0  0.08798611986304931 0.009664334350740413 0  -0.04068251500377017 -0.03907976726893206 0  0.03756752986726542 0.02075147287674542 0  0.03913259427094676 0.01771854112845486 0  -0.01397907145444244 -0.09644739688815412 0  -0.08631396920516655 0.04496528753877462 0  0.09326833512831914 1.615867775593834e-05 0  0.03406070813982329 -0.09139968940571226 0  0.06853870082837443 0.06376089954682869 0  0.07006076057194492 0.06745059782434711 0  -0.04433689972893842 -0.05524567553142778 0  0.06705592079780356 0.005090451032838669 0  0.06432166985028206 0.002971045352768918 0  0.08940373413645686 -0.02755428142618558 0  -0.08011360184935798 -0.03538775422479015 0  0.06342998791225637 -0.0189495603175077 0  0.06089973401279986 -0.03922289951509772 0  -0.04312222705669501 -0.07125241597613194 0  -0.01382689939376171 -0.07405939618042306 0  0.04567096614398991 -0.009120196637881809 0  -0.08035970540102753 -0.05492643383918335 0  -0.01950627038445949 -0.08981644758628805 0  -0.02147023432397727 -0.0950119685769894 0  -0.09728990714977746 -0.007320027194837568 0  -0.03293058757226099 0.05638888894806812 0  -0.04864575382727262 -0.07184129604409362 0  -0.08932463224064255 0.02795791361464236 0  0.068375180910748 0.03054891485317706 0  -0.06422306760107371 0.044486784623355 0  -0.06935746674751271 0.04389629315233065 0  -0.005701576360386201 0.08110600613457385 0  -0.02504764164662448 0.05558223216875396 0  -0.01201094063463915 -0.08454248038147892 0  0.08607091737886445 -0.0457033209020926 0  0.02286570090510571 -0.08793293411737739 0  0.02882004820207198 -0.0739390627466353 0  0.03180776821659743 -0.07538883389504866 0  0.04184729620053483 0.06223314792141102 0  -0.04493676788933798 -0.07625057236705539 0  -0.02841840188501699 0.03668800904011155 0  -0.03249195061216256 0.03566513597680244 0  -0.03203249636251249 0.03261438765574894 0  -0.02514145820178621 0.0776890596894429 0  -0.00943763144560035 -0.05722128135057263 0  -0.01690796720740271 -0.08712299680560898 0  -0.01418622334434069 -0.08868025266711065 0  -0.06750077826574634 0.03333356552547555 0  0.02645799107164143 0.05155108667323832 0  0.06950151295160571 -0.05177509453735862 0  -0.03316249614743253 0.08160777086220845 0  0.0009317630081354836 -0.0883988941528924 0  -0.08783490917867358 0.04144017004735575 0  -0.07295859450801163 -0.06427622206919877 0  0.08194818495736814 0.01994819856245665 0  -0.08228395729231165 0.05175974513581471 0  -0.0609839227417814 0.01282841553295553 0  0.0769991764541483 -0.03554460579088861 0  0.04282552807845582 0.0005552979151868568 0  0.03598703980851303 0.05429782425384523 0  0.07310347348622279 0.001980297988551505 0  -0.02665039788164384 -0.04667176322817533 0  -0.03269466226989844 0.07766994751482605 0  -0.06560275245248319 -0.02903078230679453 0  -0.02852448184638305 -0.0687880265893831 0  -0.02298885590156079 -0.06818138196556586 0  -0.09367884441994469 0.007354524430276406 0  -0.00677415625907281 -0.0475752515347755 0  0.01440468433949998 0.08185513390397027 0  0.01836023390044208 0.07993819009060585 0  0.05951629124993981 -0.05872131740590956 0  0.01221656539726938 -0.07030777809963151 0  0.01056462495692979 -0.07389479071075551 0  0.04536013989097636 0.07257967014367898 0  0.04703146078429068 -0.01230482658020821 0  0.07429388152204934 -0.009296054606436278 0  0.05905142155555537 0.07291376050895357 0  -0.04702168838031502 0.07625716612878559 0  -0.05856779155505026 0.07791353979034497 0  -0.05845828452770618 0.05156518933078009 0  -0.05514000913180555 -0.02802696509097165 0  0.05552845929927107 0.06019176525403284 0  0.05939804411804649 0.06343693719925897 0  -0.02276281615930494 0.08841441112188643 0  -0.05012853351340903 -0.01491536547077407 0  -0.02727674970234704 0.08703572757409425 0  -0.03565896649204671 -0.02373899240040564 0  -0.03746006133443577 -0.02904778196022816 0  -0.04334286083246523 0.07265541308291017 0  0.04666185275654651 -0.04696114656471336 0  -0.02654495679559608 -0.08665495654689619 0  0.0470369717438066 0.004091061068685555 0  -0.01854434769009019 -0.07556986303396994 0  0.04496617717221357 0.02783774441542654 0  0.09253165112267904 0.01539075853871113 0  0.09656829207795858 0.01304061389966544 0  -0.001351461155042616 0.06703093427982849 0  -0.08122559130801263 0.002057021072105123 0  0.01603791859580246 0.03961546369687431 0  -0.05629572372844675 -0.0743900381321928 0  -0.08182789508805549 -0.01140346548687895 0  0.081149565062147 -0.05419920753216566 0  0.01849808721330826 0.04240534101585968 0  0.0244706955234511 -0.03924264944206744 0  -0.05925998475547264 0.04264977888056806 0  0.04624461865110202 0.04389356300791854 0  -0.06477674133867563 -0.001156521402864893 0  -0.03743261755439727 0.03803919278417195 0  -0.08922884791999987 0.008368299241339397 0  0.01617811334039717 0.05920979936423405 0  0.07795806165184986 -0.04480311021941958 0  -0.05084223857197449 -0.0688637157444226 0  -0.06732796149011704 -0.0003363884713255382 0  0.05477833500741234 0.06548850246514874 0  -0.04997862331680034 0.03273411529009133 0  -0.08541457817075078 -0.008542374510981257 0  0.03636679458738469 0.09059081357236465 0  -0.09666029035718722 0.01214538683460964 0  0.01781633909473816 0.06436980335804809 0  -0.001903236125812325 0.06439769468952719 0  0.07868863328274647 -0.008720171178050105 0  0.06750838690014406 -0.05862456810442759 0  -0.0681056913675244 -0.01306628968840567 0  -0.003839265434039638 0.04250569114707068 0  -0.06393144004294921 0.0204886385748467 0  -0.008767914482506323 -0.061428101079039 0  -0.01250674453264649 0.07544060087081922 0  -0.01694730384773392 0.0776441738764327 0  0.03185525940210013 -0.05302689768468676 0  -0.04348768897009107 0.01361699184761201 0  0.07362135766313008 -0.04094107676602324 0  -0.0501851213815298 0.05620938354641735 0  -0.05545608762080981 0.05457891104170747 0  -0.07240253361682795 0.03105308687489572 0  0.05535496726505031 -0.03877608181021273 0  0.08812860304622103 0.01852875522017973 0  0.08168489349849709 0.0454008008396527 0  -0.06209678528148471 -0.05818391156662908 0  -0.0655234519077858 -0.05713362288065969 0  -0.06563289256611773 0.06117534061232364 0  0.02177640603032407 0.07442502401583334 0  -0.04082106458363122 0.0414057583775004 0  0.06267020512993936 -0.05679558074816207 0  0.02074335315721502 -0.04013714793844501 0  0.01952528183896585 -0.03772006810170949 0  -0.05207806191769146 0.0766382496264415 0  -0.07827761751804031 0.01653042043275247 0  0.001022071841198239 0.05026153368084259 0  -0.01375291560889413 0.06819414980624496 0  -0.01011371055969312 0.0675838778904263 0  -0.009955376561101285 0.06459684838256 0  0.0234369955358729 0.0649924198390299 0  0.02179794187190998 0.06063500041956618 0  0.07488092154165069 0.01126579990092039 0  0.07198472956184132 0.01350354561423785 0  0.04297362998381127 0.0763311032194204 0  0.008551589804201298 0.08869042226558946 0  0.01119576250852106 0.08405216818913179 0  0.07179820349356478 0.03966780611842911 0  0.07284220119121658 0.03585117191825458 0  -0.05165310951461768 0.02425127088348544 0  0.07026181633580023 0.01948213821603178 0  -0.08443848761436358 0.0489857244052594 0  -0.07110072225776495 0.03840180084211336 0  -0.07727518046767588 -0.03082274521779487 0  -0.001453105762779105 -0.09278714073762329 0  0.05840986044033203 -0.00148110385097799 0  0.08689759680732465 0.00310534573714341 0  0.07148211575356896 0.02914816130241902 0  -0.09735631453961772 0.004336974885364685 0  -0.006779669453348691 -0.09112102052221396 0  -0.01513846485417618 -0.04698315596649544 0  -0.03635654708228327 -0.08627960336011824 0  0.06010542733334939 0.03726266472768935 0  0.08023394006283836 0.0535102311602412 0  -0.07630061363849987 -0.01701347209798589 0  -0.03801978959883696 0.06145117148809037 0  -0.06857320212362428 0.02983881672606766 0  -0.06369873426485927 0.0319463923933884 0  -0.08470320598602032 0.02881393079641241 0  -0.07500526712371534 -0.0120451059483497 0  -0.07744279186389226 -0.01378417768181857 0  0.07494495461332924 0.04812978166730852 0  -0.03844868965550039 -0.06152968173830852 0  -0.007819707596453541 0.04939413138273576 0  -0.04602026033682893 0.06415120050383086 0  0.08811898815431578 -0.0323889878997305 0  0.09068834314312413 -0.03538477580852444 0  0.08541540489778393 -0.0352384869685481 0  0.07564421964525719 0.0403526616979246 0  -0.01410553585193158 -0.05463613359165642 0  -0.07876822485403873 -0.04563446859068998 0  -0.07784014423489767 -0.04265092537284335 0  -0.07368416760285942 -0.04559521385294378 0  0.07747601448815412 0.02725746578188441 0  -0.0751877444195302 -0.02604132039173015 0  -0.0459561163650263 0.05884532058263599 0  -0.04072858199586499 0.058302740011403 0  -0.07357303464623248 -0.006972657772846636 0  -0.07519292134330349 -0.003639118484864516 0  0.04548628630284945 -0.06694763366838929 0  0.06116263751318542 0.0165463269221982 0  0.03037700247285427 -0.08750724909887347 0  -0.0780919315560107 -0.05360217507107484 0  -0.08124823081985624 0.04661349459145377 0  -0.07879688803061594 0.05072852299903616 0  -0.07692908043962286 -0.008575213954631278 0  0.05383441423934343 -0.05063797129707134 0  0.01278266064793293 0.04750816503264748 0  0.009435600579930788 -0.08068012355587145 0  -0.03033249162522598 0.05844864878659162 0  -0.03187283922003795 0.06158296798156108 0  -0.005372727338217443 -0.08256988424296142 0  -0.02188815577478468 -0.0534511683770306 0  -0.04602058992610148 -0.02792758899770194 0  0.01613269665729826 -0.0838654810293526 0  0.0976427137352701 0.001222189847056334 0  0.02835243756988453 -0.03862014534711346 0  -0.06743703366700726 -0.008721582339478036 0  -0.066499553179872 -0.006230133161406535 0  0.01023729088308381 -0.04762799815497323 0  0.03658843253211241 -0.05809511677695761 0  0.01080434177189995 0.05714135162525934 0  -0.01720791675850612 0.04745279239748584 0  -0.05666106840026583 -0.05947955415489616 0  0.04195070288298457 0.06826570619098492 0  -0.037253365916629 0.02023943215937319 0  0.03614627057169981 0.02924198343003599 0  0.06236866432053133 -0.06611666610377456 0  0.06131415239635463 -0.06853499430848735 0  0.08007041892921375 0.02773887954352688 0  -0.09372357083821937 -0.02121154947555833 0  0.0407807086556716 -0.01193611751605126 0  -0.08648899299169638 -0.0133853461075426 0  -0.04950718751810257 0.03627690256989289 0  -0.04401345732185115 -0.01147076958550855 0  0.06715476895308486 0.04338988672006149 0  -0.02638450259472723 -0.05579671041362213 0  -0.04452143728733645 -0.04753629665962616 0  0.06137450591658946 0.0318618235084359 0  -0.0552540397642195 -0.05380782352462815 0  -0.05026384139337907 -0.05547671153722939 0  0.02894247543171564 -0.04205805223955407 0  0.02537897750193245 -0.04289758071527208 0  0.02610961570575961 -0.04644192995156614 0  -0.0677103500902284 -0.04983931286512444 0  -0.06606982984221553 -0.04167239986787338 0  -0.07097970582592006 -0.04839040827560447 0  -0.06938653139496545 -0.05338586285390843 0  -0.06335164099287313 -0.04388221327690178 0  -0.04210088264624244 0.02880196296643278 0  -0.04547043416660575 0.02781496653817657 0  -0.02343703633548188 0.03542685964562891 0  0.04627660700620469 0.0695821366909649 0  0.07469588523813607 0.04406028270692487 0  -0.0181676877894215 -0.04260518684857831 0  0.03805878728565583 -0.03622122814627819 0  0.09726157844605955 -0.008543360814720624 0  -0.01020093756053631 0.05673507597786247 0  -0.02744222167716481 -0.05160461495624334 0  -0.05627164344743204 0.03802635147813407 0  -0.05974842678737802 0.03538961957596688 0  0.05932297695936267 -0.0413366578284243 0  0.05772236301053043 0.07882389779960386 0  -0.02024932050519601 0.05510524929059402 0  -0.04051506211051483 -0.04703020073779687 0  0.02709158918068759 -0.05526429034034794 0  -0.06848622495282312 -0.04471429924395397 0  0.02817813354924597 -0.06524992972791781 0  -0.06521141197326359 -0.05434495811142358 0  0.03649928687339665 -0.02132592295433234 0  -0.07232768530694872 -0.01574363236622264 0  -0.07510363816201791 0.05394036333156243 0  0.08567744238758937 -0.006302704447705833 0  -0.06262748553841967 0.008093312878982578 0  -0.05826481605283665 0.009194094631964888 0  0.003750815909894878 0.08686221836403536 0  -0.003314611933035217 0.0755439016314019 0  -0.07016109599358361 -0.01853001630696157 0  -0.07189659011989517 -0.02325400911419889 0  -0.07432338603165066 -0.02048209832670332 0  0.06055115452217361 -0.06142128305328729 0  0.02596011191578866 0.08086446770324529 0  0.02069381332298736 -0.08939792414178466 0  0.04976350594876372 -0.02844508606719555 0  0.02721570810820886 0.05892121164537146 0  -0.04327539239953336 0.06160892803326617 0  -0.05373980799782968 -0.0337355710247945 0  0.0301224259863178 -0.02965755437073145 0  0.01111910456592962 0.06655804433016982 0  0.007584510105308728 0.06859768973234658 0  0.01276349191101616 0.06989646941471606 0  -0.03956691735591942 -0.03370372731594209 0  0.03214061916167717 0.03575971179268019 0  -0.02851340707676386 0.04974648918377293 0  -0.02790258946531802 0.0548143209401811 0  -0.0311844056933455 0.05266336503810681 0  0.01526979020479673 0.06924655381112059 0  -0.0354564379697029 0.02392620355559914 0  -0.04269205276090774 -0.02506713809427152 0  0.06944487705027073 -0.04603468567933208 0  0.04663457408503863 0.0005608074004668021 0  -0.06845033805933259 -0.0371373575490879 0  -0.07592647435251643 0.003387502063025962 0  -0.07838962968834744 0.0001463397263938714 0  -0.0734438692183161 -0.05145028634136778 0  -0.05366632589409484 -0.002089594194741489 0  -0.05148548359210704 -0.006772072894858662 0  -0.05585021750461284 -0.0126380525117419 0  0.04047497247145413 0.08342937179617092 0  0.04504217425427275 0.08637761907904967 0  0.0121428597987318 0.08677488169905219 0  0.09114831216877899 -0.02274681119574735 0  0.09540642826170365 -0.02061232318608649 0  0.001732762799585478 -0.07602283236999884 0  0.0009832071413623735 -0.07128114106618273 0  0.003974999941586461 -0.07147907823966859 0  -0.06468738642892953 -0.06375744209814821 0  -0.046530355696669 0.005352010664799043 0  -0.0457778356031158 0.0008450451667906989 0  -0.08487393862829995 0.02048505295134924 0  0.021092896692546 -0.06060547084232618 0  0.04916826708397893 0.01766509909458963 0  0.06509261839593995 -0.03617284459369468 0  0.03786067802223994 -0.04614702090367082 0  0.02061133010229863 0.03753443301661195 0  -0.007342736701593628 0.07472607183638356 0  0.03531959390018793 -0.04654987694128582 0  0.0283262867717078 0.03144389657773969 0  -0.003022929109816988 0.0923152645255447 0  -0.0004408789437216239 0.09356905777507764 0  -0.002009312869965251 0.09748543556345268 0  -0.05172026214605586 0.01135234794484735 0  0.03763863616731096 -0.03037661554785457 0  0.01279212596177139 -0.09677581575483196 0  -0.07122986818193755 0.03459865622167919 0  0.04655341648190087 0.03298809334426244 0  0.04825334667017078 0.03090326089199831 0  -0.02221997474502752 0.0486001141826471 0  -0.03623350438948761 0.09027263783196213 0  0.03549461827505006 -0.08625724107380198 0  -0.0006563534646302489 0.04219920423055296 0  -0.06198407145696602 -0.008575194034778879 0  0.01565866249762382 0.04515882117753012 0  -0.06393878192696885 -0.03398141896847096 0  -0.02365994704861638 0.0630993060793517 0  0.0155191130953724 0.05027205654842982 0  0.01497503422664829 0.05541542411779295 0  0.01764383904102559 -0.08614928796804933 0  0.00548293019965616 -0.082007388788498 0  -0.09146774958235997 0.01373809027396079 0  0.04946072538410264 -0.07191305112072735 0  -0.03605186668098215 0.05268188116965368 0  0.04386414871686884 -0.02508938985500436 0  0.04362130299126173 -0.01498049464780203 0  -0.05868978611947698 -0.07347526702711764 0  -0.0592502570198644 -0.07096174219840019 0  -0.07367645698845553 0.0506413575956469 0  0.05930980867893072 -0.07320527926810091 0  -0.05797798316007129 0.05895989479975399 0  0.0156152137825151 -0.07182101464144829 0  -0.05687036051068659 0.07522328577056273 0  -0.0933951875782033 0.02893056745827144 0  0.04217901949155547 0.01846978159992045 0  -0.04164749886037103 -0.007861137886878117 0  0.06715850608820301 0.01252216103030889 0  0.01718814538388765 -0.06398641749016232 0  0.006227972896425359 0.05866721157332298 0  -0.07390064902783851 0.01833604097560546 0  -0.008979357704975309 -0.09576089671495715 0  0.03500167708497436 0.02390896887120978 0  -0.07145276964862141 0.06669583799967622 0  -0.05576301181834191 0.06934029198924932 0  0.06656034271212471 -0.05477008389406173 0  0.0170548746529235 -0.05840577013445837 0  -0.02160085322076918 0.06669547350982093 0  0.03913492676477322 -0.06166861581316434 0  -0.07220250209365808 -0.0373938287114129 0  -0.0725668523115045 -0.034103532385935 0  0.02563006657257742 0.03946759170642542 0  0.02243142127631588 0.04072673592129315 0  0.05110200944721753 0.04041300631512909 0  -0.09228981357601632 0.004165830465257977 0  0.04073604261250408 -0.0689702658804513 0  0.06639034269024381 0.04772134383637351 0  0.06567728859298862 0.05180023223791735 0  0.06221105880591938 0.04836178000863259 0  0.07423437257751056 -0.01412654343744717 0  0.04262195310624073 0.0529212398581591 0  0.01477120040997516 -0.03951777868974854 0  0.01719161601806446 -0.03873362916510673 0  0.07239855554337017 -0.06043087123500607 0  0.09378384872812182 -0.005834310187687449 0  0.06021212179675717 0.04067915885278384 0  -0.03045185557617032 0.04051336749886984 0  0.05771822422494237 -0.05520504457567246 0  0.01750260896627882 -0.04355002069265364 0  0.08183669861944032 0.003534379762244106 0  0.08417131369494657 0.0007310225355252772 0  -0.0517697540469545 0.06859201410919848 0  -0.04236797407136642 0.0765346867702425 0  0.07555119343229033 0.05340844255261153 0  -0.04211862464356977 -0.01735866527929047 0  -0.08032236288944483 0.03046360483265795 0  -0.0796881302508145 0.02733872772327482 0  0.01920325564806934 -0.06874961841699895 0  -0.08602323359694541 0.02440205825107246 0  0.06912724029439719 -0.03890652785527842 0  0.008688730973389319 -0.05602195305015711 0  -0.03452281719605059 -0.05254334064969918 0  -0.03139214847549768 0.07379050001161575 0  -0.05335235384262483 -0.05758310277507304 0  0.06021239013159999 -0.0135517667480469 0  0.06006821637404534 -0.01007309501680195 0  0.05601722213147516 -0.01071825147508482 0  0.05425968684015729 0.05585898862274781 0  0.006935976366678083 0.08604355227269288 0  -0.0267153829006427 0.06821221465552171 0  0.0486310752826486 -0.06270481246949795 0  0.06888918390223728 0.008577001061892084 0  -0.002256264424713577 -0.0527949681931194 0  -0.03150470087806732 -0.08828584003825167 0  0.048173416229222 -0.08069627684314434 0  0.09376939391160662 0.02772251193340161 0  0.0682937455759955 -0.01876924562962687 0  -0.06488432916826606 0.04697230139764559 0  0.06708712277519241 -0.07097624842396368 0  -0.007898023175586875 -0.07796397138094616 0  -0.00774433913992167 -0.08178226435667001 0  -0.07793063437818455 0.05836327831909888 0  -0.08583607258603146 0.009483069479214609 0  -0.06159006609456681 -0.07007789255815694 0  -0.01611279585583532 -0.05193958313867852 0  -0.04099248304862206 0.07979722844566865 0  0.02205957275064815 0.08748788442318718 0  -0.09628115412136098 -0.01703361108254761 0  0.06963602121180101 0.05866756983090705 0  -0.05890182253182553 -0.03302576508242803 0  0.02478618515358231 -0.09447128929634091 0  0.04155007978025132 -0.05987564638915261 0  -0.06163438435085203 0.07375399473930797 0  0.0200612071842392 0.09553715906406707 0  0.02565408688984311 0.07317156036100678 0  -0.0764687007884185 -0.03474269969782509 0  -0.07913906127739455 -0.03897391114903218 0  -0.008509083768713781 -0.08621991150586331 0  0.04110759625188985 0.02290276995935005 0  -0.08682298589206178 -0.04478192060919678 0  -0.02979088277836222 -0.03496599504825443 0  -0.07181027775072828 0.01034016234325945 0  0.001253755981980352 -0.06301857166948724 0  0.003321055058813836 -0.06459306715314622 0  -0.0004966174003012665 -0.06760122448218636 0  0.03666826145009414 -0.05128586183416989 0  0.07371045053683323 -0.05322726017273441 0  -0.05942604424126584 -0.008427126960673312 0  -0.08487017928290085 0.03933704197827621 0  -0.01009999134315 -0.07663438648337735 0  0.09006030924929122 0.01463936608332021 0  -0.03850733133069732 0.05625268773675835 0  -0.0381270825609596 0.051296685170112 0  0.0352979628812824 -0.079407880365958 0  0.06696379317161127 0.06046346235894792 0  -0.03825646121360601 -0.07227843729018346 0  0.03798675510715059 -0.08336557470199545 0  -0.005485232009741929 0.05677685045585908 0  -0.08866426144789585 0.02002077456613556 0  0.0417890477156861 -0.07406825505281912 0  0.084957654149481 0.02666806504937897 0  0.05288092028117372 0.02991307194859228 0  0.0505437094843236 0.02683444941730593 0  0.05002948105480499 0.05385908491449685 0  -0.05674407122271793 0.005848890769220887 0  0.08598674554748902 0.01373070006576139 0  0.04851233895632977 -0.08454926591431872 0  0.04409823410248796 -0.08239030097491377 0  -0.03798821207011736 0.02614746376220079 0  -0.0399587691417404 0.02148720621379501 0  -0.0420628451583204 0.01888103500312663 0  -0.03547969797457325 0.08259723978077833 0  -0.04199433569296655 -0.08318647877242129 0  -0.04067517156571671 -0.08543774988359482 0  0.04456297400415015 -0.07308539528554631 0  -0.0716369309931386 -0.04105217586599717 0  -0.05053164346505621 0.02735715001040027 0  -0.05402886730090047 0.02892330094710212 0  0.01052102628863355 0.06111465360518412 0  -0.08882192565656687 0.03280788639838406 0  0.05066447091856986 0.05816561560645227 0  -0.04309782712611714 0.0393649924462022 0  0.002635402279836379 0.06790629065250803 0  -0.04200072168624005 -0.05977496595326023 0  -0.05529013203621549 -0.00556988978883647 0  0.03067649538522377 0.0789857386679004 0  0.0343102781317936 0.08253101526009332 0  0.03378865365265744 0.07879830378673068 0  0.06662325814073321 -0.06655976573878859 0  0.01112852777468795 -0.08250619361012951 0  0.007900282406667888 -0.08540465359167219 0  0.01268373132376672 -0.08572159657947567 0  -0.05158494246279837 0.03761731886191599 0  0.0209013842242087 0.05809647397796147 0  0.03040343070425913 0.06785940863293059 0  -0.01125179147724448 -0.05028121982300173 0  -0.05536575493171806 0.02580450144394224 0  -0.02673084782205638 -0.06616796991252691 0  -0.09248977746964422 0.03122649673735934 0  0.09135102871935423 -0.01290339393992009 0  0.005337129051023733 -0.0875471958168131 0  0.005981897770309344 -0.09008105089573354 0  0.08238350397174812 -0.01023227548777183 0  -0.06074567537343562 -0.07673399791739359 0  0.04946219641786339 -0.0497835676313131 0  0.07905270551731775 0.003664515415716371 0  -0.082723975883443 -0.02695478720124127 0  0.06206727223819353 -0.04813359253080888 0  0.01492054527402657 -0.04965867228686761 0  -0.006359071829111856 0.0709538016175789 0  -0.04081685521022926 -0.07356555540266056 0  0.02067346415493293 0.04533710715923835 0  0.02050854369074088 0.05025555690856823 0  0.02325109048563958 0.04789040834449067 0  0.03099571977105096 0.05240355581515968 0  -0.0113943436621919 0.09377557183496517 0  0.08787119398147454 -0.02003655200107968 0  0.08761517280553362 0.03571878071355131 0  0.03088682504424119 0.08963056223070559 0  -0.06523781282056705 0.05289344095445017 0  -0.03755502526070312 0.07884857290864984 0  0.04610373366301947 -0.01761522593600041 0  -0.09344583829153949 0.0215219223254263 0  0.05399286057421664 -0.04742940152922278 0  0.05755875836308688 -0.04608321494824353 0  0.03707865103709329 0.04402914622628961 0  0.06864540462306133 -0.02843188466025374 0  -0.04146267647661029 -0.01304493110065053 0  0.03281019273657877 -0.05954083230476061 0  0.03190120833302239 -0.05624469174883966 0  0.05066989434090886 0.07176928988735512 0  0.02231854656905242 0.05335034955130488 0  -0.01480819998918543 0.0587344697786067 0  0.001466851442805956 -0.05279000180298898 0  -0.02291428374634318 -0.03532498134263475 0  0.02083519925309744 0.07946446184098802 0  0.05579317276539103 -0.02874498919889271 0  0.05464561729890271 -0.02403613832272965 0  0.05168742790248704 -0.02683023391838418 0  0.06612957511585055 0.007471934020239438 0  -0.0972830809395074 -0.004876005620213577 0  -0.001080548029690055 -0.07611286181002735 0  -0.01367613062447103 -0.09392022022180942 0  -0.01506321665212231 -0.09182500381208338 0  -0.05282683974665195 0.01888051051815615 0  0.02469596749757842 -0.05596011036039072 0  -0.02939756815086718 -0.0304912407145643 0  -0.08302405594837715 0.04384190062616709 0  -0.05682784390066659 0.07966802938625378 0  -0.05863958715960439 0.02672400982173929 0  -0.05997884068490621 0.03133839591128171 0  0.03965055960749049 0.05611615965163772 0  0.05250177592110366 -0.03187661313041307 0  -0.00208686884228093 -0.04943351433546249 0  -0.06854635712888929 -0.03402458902340098 0  0.007087725400594077 -0.06779852913669995 0  0.01056488616136067 -0.06797971685449669 0  -0.03548550578844002 0.08725124824131028 0  0.0584372605255566 0.06806160394260856 0  0.04905157992771718 0.02243533698811142 0  -0.05207689408339813 -0.08139035738851579 0  -0.0464188472824314 -0.007713205803425452 0  0.06353928100187232 -0.02139003468713951 0  -0.01564051283709526 -0.06933226177611937 0  0.009040545922541986 -0.09029617902134096 0  -0.02637149457753146 0.06007759960960214 0  0.05449316921371853 0.07180336722107965 0  -0.0122458041123016 0.04400830808590418 0  -0.008777121720786589 0.04142051501493506 0  -0.02040584118544699 0.09225648021171384 0  0.0414083541950739 -0.04097725916905306 0  0.07999490926190579 0.05627593636116222 0  -0.01789567833864978 0.07051225239679551 0  0.01224995571865218 -0.04024183601993522 0  -0.0585478619278688 -0.01249387235914235 0  0.07348773204230036 -0.03847264463704429 0  0.04437150675861488 -0.04971896821925439 0  -0.05234760455389564 0.08176801018995086 0  0.05921970854211372 -0.02215736502200405 0  0.06106390686802651 -0.01820211999694947 0  0.04843243371577527 0.008328080871765188 0  -0.02829301233991202 -0.04845352068566924 0  0.04336665228850716 0.03141996979774401 0  0.04164836840179384 0.03442799425154378 0  0.04018566650561406 0.02976019125455304 0  -0.07512421389565689 -0.001195386931280874 0  -0.07012658133662074 0.05221821829820565 0  0.05463357687265703 -0.08067953812898844 0  0.06648882605997525 -0.01474560036855367 0  0.07575664312151685 0.03163219047957239 0  0.04446732300864439 0.05458971596007043 0  0.06431743568493214 -0.05152966404622904 0  0.06163643957133917 -0.05404005566584245 0  -0.04215585271320779 0.002819294463053412 0  0.03491370993295958 0.03218491997129447 0  -0.07746669121395926 0.05344234926881876 0  -0.001935320595462565 -0.09762688139881122 0  0.055087833764557 -0.07352181366639811 0  -0.04691542472867828 -0.01937976100637962 0  -0.05370521190980302 0.006901529948676226 0  -0.05118383204968103 0.006381286875413973 0  -0.01072164182634529 -0.06712204468659658 0  -0.03659073011710042 -0.03982430978297292 0  -0.03658379224061512 -0.04261034602464839 0  -0.06121903993343018 0.01776025475801273 0  0.07889435744494201 0.02278714938885627 0  0.02970944310576971 -0.04557742868281268 0  -0.01388156290274098 0.07777131841323272 0  0.05128484032579064 0.03498099004189073 0  0.04860285715054507 0.03633974180692335 0  0.03000770439592949 0.07542426490564258 0  0.004268981072971106 0.07122905344699942 0  0.005942094779660618 0.07315853251297265 0  0.002832600021217215 0.07582730302305345 0  -0.02438816593616273 -0.08312774986880585 0  0.0349039783141473 0.06283603442560506 0  -0.004270373075499913 -0.09701792401324567 0  0.01969390963244563 -0.05463207522429136 0  -0.09311100234623507 -0.007289499220099253 0  -0.01550965202932853 0.07269558818112459 0  -0.02668226312102599 0.07207491589311595 0  -0.008215737353217343 -0.04325689431610022 0  -0.09108746481239875 -0.02330832274653957 0  0.08346315965382148 0.04118246744952229 0  0.08376300455513348 0.04359513500052894 0  0.04983310963991051 0.0801242650428821 0  0.0505329085018547 0.08342745524508689 0  -0.08841020359622627 -0.02586193919845411 0  0.01957354446399463 -0.0844868885066736 0  0.01211002814970208 0.0919537268271627 0  0.03494890050425782 -0.04923723967908306 0  0.04807314283284162 0.0409797662225263 0  -0.0910984912485603 -0.03571014170614199 0  -0.06875140171792389 -0.06415461879686246 0  -0.05466060577836167 -0.07047397336516638 0  0.05387236433494848 -0.04317774432434681 0  -0.03114710677627923 -0.03968015954969346 0  -0.01594132822413703 0.09344448179937713 0  0.0255506803103676 -0.08003147187029573 0  -0.03139369296136738 0.08878608257174965 0  -0.03307852844352407 0.08675492611091176 0  -0.03413351822747108 0.091436404944264 0  -0.03194314319195483 -0.07273244254314382 0  0.05914932974026461 0.01919419287470154 0  0.05207024551577903 -0.01348396190761604 0  -0.02583592246801389 0.08475140184737118 0  0.06647075467087821 -0.006789153077889656 0  0.06710265688728433 -0.004446564230817358 0  -0.05245384852928327 -0.01301230768953433 0  0.06405991655071322 0.06115341811449922 0  0.06294385815878743 0.02476212108363252 0  -0.07561578653784524 0.03124246793910296 0  0.005422332101314506 0.0785774688116069 0  -0.02521757718376692 -0.07099183209166655 0  0.08863978449615582 -0.04139127026284353 0  -0.02470205740030726 -0.05159012582540791 0  0.07766323853603557 -0.04072545170895375 0  -0.09499449346881146 -0.003360702180558141 0  0.05525099806871709 -0.003692965526317642 0  0.008174717003209493 0.05359919323585499 0  0.009641297333542586 0.05156867128692804 0  -0.07080904330296019 0.01449998910747211 0  0.01060989181120133 0.07475998575298842 0  0.02443886818599499 0.09462340474417262 0  0.06043955963072349 -0.07661974178916464 0  0.0558824114662987 -0.07596176164481573 0  0.05832380513784351 -0.07809039021894038 0  -0.01517775505096897 -0.0835219495638775 0  0.03614303932879872 -0.07130612163603055 0  0.06759483083238697 0.03959354282798502 0  0.05699659077382069 0.06346257671744074 0  -0.03212341678777213 -0.05113375655689228 0  -0.03109705271616864 -0.04829837154351021 0  -0.03448887193415338 -0.04689377036058225 0  0.03484099985883695 -0.02380701709751583 0  -0.01646286779442507 -0.09650162949737419 0  -0.04903400676827733 0.05139080090361542 0  -0.0463784325642095 0.05305373917491761 0  -0.09028771923208076 -0.01496290062584105 0  -0.03307672136588174 0.06504388524605255 0  -0.09563593172287349 -0.01215953235290029 0  -0.02025236796641906 -0.07065474814501006 0  -0.08099087126825623 -0.03179000269899723 0  -0.01079683968489657 0.07205232695095777 0  -0.06477090056969788 -0.06709800060034003 0  -0.06164194518561857 0.03833789564141404 0  -0.03073109894851288 -0.092993833497866 0  -0.03081344252099145 -0.05859299098972717 0  -0.03340411380141637 -0.06181983343024423 0  -0.03535551841407542 -0.058939879195484 0  0.07194619073323755 -0.009645649409690666 0  -0.08140265263610894 -0.006794264198855647 0  -0.04371727127635505 -0.04333283444020992 0  0.009252765367983768 0.08175345769808741 0  0.06468417087551059 0.03879511322665796 0  -0.05203768451218796 -0.009115743598702068 0  0.03830194700184312 0.07058324889330155 0  -0.06012985649864151 0.004414068028217869 0  0.04553072186031985 -0.04186521924319087 0  -0.06379515446172222 0.06905211404504817 0  -0.06241696392692334 0.0661213828222293 0  -0.06677939819977428 0.06544064307052394 0  -0.0619544617963254 -0.04849239246913339 0  -0.02023670983790963 -0.03858116689403852 0  0.01839268139370719 0.04750815580511206 0  -0.03393119805611009 -0.03416910338721482 0  0.03971740833803238 0.01431550043626932 0  0.06177773416579624 0.07606178034076486 0  -0.06448697660191241 0.003863185987139598 0  -0.04618269592627609 0.04816859693374501 0  -0.04598752704735243 0.02543838747159411 0  -0.0004057771861070434 -0.09489819960941855 0  0.03352444320172401 0.05942239999201072 0  0.04912243175403581 -0.03357199144509794 0  0.001220340871582996 -0.04228601473453127 0  0.05978199110883101 0.05298212051310349 0  -0.07545664975344957 -0.04209615029855679 0  -0.07435595744409737 0.05809828053151733 0  -0.04089300722834695 0.05347202739186422 0  -0.08515788696134449 -0.04125774479050975 0  0.03910836495571823 0.0731396258996575 0  -0.05350253750796234 0.05326480381700396 0  0.0706236786775238 -0.03484823605072702 0  -0.0400317656831306 -0.02849209273063029 0  0.04038879182722974 0.0520033432778121 0  0.05748166002627195 0.0432837690007995 0  0.05941348501034893 0.04568176615799565 0  0.04292187152012664 0.07271191824289604 0  0.03309539914298076 0.08686160292401206 0  0.03421405461890635 0.09171670295581044 0  0.06718024540982054 -0.00974255683360677 0  0.05980031143298801 0.07751393789338246 0  -0.04432064903016408 -0.01635434929891469 0  -0.04241899957857147 -0.0203205477840749 0  -0.02691444088650087 0.0415543046773726 0  -0.06872656560538574 0.03867841682868985 0  -0.06664688729153354 0.03993123228429626 0  0.003559830293818466 -0.06726576060053821 0  -0.02063371320461886 0.03661006577635868 0  -0.06549706408871828 -0.04709490288909459 0  -0.08722316361288258 -0.03411445227125907 0  0.01315030586702636 0.07455180542027695 0  0.01122526890913412 0.07896583993680607 0  0.02183122284343864 -0.09149647441325177 0  -0.06830648594645199 0.06951939688831583 0  0.03050155773399535 0.03243939798532824 0  -0.02712720521344976 0.04518713255516213 0  -0.02298805682703665 0.04355230813502359 0  0.00456039576558082 0.04172395528392191 0  0.01251758467078587 -0.05314245644300357 0  -0.00849728628273348 0.09715413813158462 0  0.01622599202166388 0.08464247089638866 0  0.0865432394995191 0.04474193810548167 0  0.0897262167685824 0.02946203535748478 0  0.09069514092656045 0.02530714081399416 0  -0.039886677656832 0.08948644865901546 0  0.05304997319313225 -0.07766116500005753 0  0.05247640448702608 -0.08226718714699002 0  -0.05409544765633901 -0.0204469743785714 0  0.007386143860183465 -0.05802538484202025 0  0.05265055234722027 0.001696943020957886 0  0.03148194193976332 -0.06726381818508308 0  0.07822223438745751 -0.053151598531797 0  0.0891934858237213 0.006516406896235338 0  -0.01683021992668417 0.04311889708200622 0  -0.06270127760590247 -0.07514504743995029 0  0.06164393889764213 0.05524212896273263 0  0.02796920348081669 -0.07887129520183914 0  0.06067155285515755 -0.02906151081278598 0  -0.02764894511772862 -0.0382816487785586 0  -0.09426128851128619 0.02636597333609915 0  -0.05033379170486796 0.07508495732121519 0  -0.04225247169449026 0.02372112397608422 0  0.02998823643198581 0.04496602284494162 0  0.08367086214072374 -0.00757699069406565 0  -0.07106602552380724 0.04230622540328936 0  -0.008052378739606344 0.07699870557205522 0  0.07587595365204924 -0.02582461313791688 0  -0.07852412439918295 0.02400504317195984 0  0.08056643667739533 -0.04930497534939197 0  -0.0183847820854609 -0.09321767894309164 0  -0.048391581759636 0.04114223470167554 0  -0.003999052200273365 -0.06325732800906668 0  0.05397505595775631 -0.06586812170375587 0  0.05087414405990094 -0.06441583917658041 0  -0.04002439662950601 -0.06455912139508997 0  -0.05500559531567897 0.06450148657096356 0  -0.003258939767141024 -0.04182454277659881 0  0.04061185271995267 0.03846595809465542 0  0.03592204804660866 0.03942309443007528 0  0.03714086843303981 0.03668734925214308 0  0.003404366184302244 -0.0861566539316744 0  0.003341863967481551 -0.08380367260190318 0  -0.004084272366133486 -0.08601532142503046 0  -0.07816187080498535 -0.05092671890387033 0  0.03371478400774174 -0.04478945859935479 0  0.03477645822557222 0.0672418397347251 0  0.08024853685355673 0.01520059709262067 0  0.0176937009668528 0.05215800712393077 0  0.0510033072930338 0.01181114176250155 0  -0.03327639750240727 0.03959220982267994 0  -0.04769242228930796 0.01824902943057347 0  -0.03296157773105651 0.04420050860979915 0  -0.08086117228924053 0.004773227620043542 0  0.04727234349771399 0.05792425066672556 0  -0.06017530350031876 -0.0001082353019931661 0  0.02370923915825749 0.05614984293409914 0  0.002769436393159329 0.04626056858518554 0  0.007399134251629177 0.04641590660713938 0  -0.04817380409742414 0.06095069628451707 0  -0.04490939544134496 0.02081760006179424 0  0.00638391630255867 -0.07758193873081423 0  -0.04927662009717984 0.009081145529104721 0  -0.03423133470550719 -0.07691864142918316 0  0.05961646586637726 -0.03426724266118539 0  -0.075544229804391 -0.04699203511780775 0  0.09734516221352174 0.008238789942784638 0  0.02701372305582017 0.04707399486030211 0  0.02708708259497569 0.04242262654091398 0  0.0358661461885722 0.04908632595225023 0  0.02904510595109621 0.0369528205338553 0  -0.0547778584441795 0.07409076091780925 0  0.01529878608689882 -0.06569688269176106 0  -0.04853048015020521 0.06682912500212687 0  -0.01398612355802406 0.09217910358584137 0  0.03753773500406012 -0.01890634248652003 0  0.03147704227499327 0.04048593669954738 0  0.04565040874831284 -0.03462432894130435 0  -0.02823107499504279 -0.07116792394248653 0  0.009337336160118788 -0.05194795193823097 0  -0.09024692066224506 0.03821130392709435 0  0.08460120856810381 -0.04390335127478058 0  0.03652709733361962 -0.04180817304335614 0  0.07561517496216165 0.01669220598129976 0  0.07792733354196574 0.01361611660752484 0  0.07783991207890159 0.01837806642440325 0  -0.04646899572894812 0.08620605230432062 0  -0.006126536797225598 0.06754321612520856 0  0.02531825832441409 0.06911330650304606 0  0.02533416789201386 0.06658587076541143 0  -0.04587673301485893 -0.01314955425665959 0  0.07148346179001555 0.02351185799335271 0  0.04232135457405304 0.002858864178184851 0  0.03730782272062371 0.06715091815667276 0  0.0376634685677991 0.0635575670934108 0  0.06195572376677074 0.005507850327402994 0  0.04997556981568031 0.06689870990580314 0  0.04707017490224587 0.06485829623203081 0  0.04625164529679808 -0.006735719107030684 0  0.04152187009383772 -0.006510237824344017 0  0.06487413560832325 -0.04559535188943074 0  0.007650159781966537 0.04153305230644099 0  -0.005556361158659642 -0.07761623656665102 0  0.03862711835652834 -0.01653032643684254 0  -0.03783145133525729 0.08312385123170336 0  0.05361352038539801 -0.002058996540898838 0  0.03870854790068684 -0.02204113514936895 0  0.00263832139839803 0.04860463490944728 0  -0.07844902097579716 0.01072720054447953 0  -0.08030115011121701 0.009187887737795691 0  -0.07873911009147642 -0.005989629373439457 0  0.02463440336927835 -0.05115438380814987 0  0.06076803934907848 -0.02673530765581315 0  0.0316492002765783 -0.02750262956452411 0  -0.03683101551204923 -0.02000997282997711 0  -0.03005522659715212 -0.04409580052635617 0  0.02339029219623872 0.06264350819970886 0  0.0005372943878944807 0.05335712931750668 0  -0.04335086880572787 -0.06188145949513609 0  -0.002629711382015407 -0.04603106902917753 0  0.09631957047210862 0.01829898536355116 0  0.01612933729136559 0.073277593171082 0  -0.05233615891564401 0.03259138692364944 0  -0.06090035829461528 -0.03682025473017596 0  -0.06333389386377204 0.04098561233627427 0  -0.01020586887277908 0.06093074044959816 0  0.04009101998078847 -0.05425938235432447 0  -0.02509258977420193 0.09132863120186044 0  -0.06187724478850127 0.0274895724475511 0  0.0495599934873264 0.04551897121676673 0  -0.07554089102576331 -0.0382992560698629 0  0.06177497659160883 -0.02286067053058699 0  -0.03499626801139949 -0.03648762902005054 0  -0.03752969570856265 -0.03259017034805287 0  -0.05766538401710343 -0.02063033446070163 0  0.04587025249241896 -0.08068772360731574 0  0.07195407861994425 0.03373384813923913 0  -0.02441750290325606 -0.07321660745667838 0  -0.01961845892958836 0.09575473750172739 0  -0.01423005268705064 0.09687225086954142 0  0.092996901807814 0.007846393059462475 0  0.09437518598684701 0.004909747334991261 0  -0.02607333936094316 -0.09454053665016286 0  0.06805675863396775 0.0524499927553289 0  0.07003585502283478 0.04940221339533024 0  0.07088504667315006 0.05395488323649539 0  0.05283857988343553 -0.06860554683149517 0  0.04968711076616173 -0.06757061745995438 0  -0.09804159270492338 1.235990476633475e-17 0  -0.08316815969860589 -0.03105713426950022 0  -0.06211701208928802 -0.03936483580607824 0  -0.0492873597766796 -0.006101503048800645 0  0.03149597423094631 0.04835521673301756 0  0.02771112506543774 0.04963232619670964 0  -0.04839624100009703 -0.02415996012133924 0  -0.04870218770538975 -0.07929220356667008 0  -0.05294800396706496 0.06123445208299987 0  0.03019138683059523 0.06294103053645893 0  0.05315812206517165 -0.006903963217428377 0  -0.0174471459431206 0.07530602409299599 0  0.07168833229765746 -0.005122942843931687 0  -0.09366047281353898 -0.02896573483968689 0  -0.05015053452479089 0.08396289789809072 0  -0.01894712440280038 0.04099896308523435 0  -0.0919693619274024 -0.01866481869516059 0  0.05042823899118552 -0.01817648659726574 0  -0.04840483092235585 0.07123676780609467 0  -0.03751220760319661 -0.08422794824282039 0  -0.05537817088113495 -0.01629043363233636 0  0.05259655570000118 -0.05407274230486648 0  0.05170066659226574 -0.05713557506492891 0  0.04827369917112569 -0.05511198019386029 0  0.04657048339359347 0.08080978636760819 0  0.05305513245799926 -0.03884430018981985 0  -0.07161436790927062 -0.01088000137648623 0  0.01924602575978944 -0.07330652882585006 0  -0.06222964636697268 0.06042682047884159 0  0.067149879995187 -0.04647097863302196 0  0.01377340988152506 -0.07864017265920817 0  0.004439155875484381 -0.07949308204553522 0  0.01229417044085684 0.05228611557923168 0  0.05841166511472561 -0.00384841282516003 0  0.06194702288659824 -0.005267953503218151 0  0.06314683905135034 -0.007307997424118708 0  0.06221342386746237 -0.001392304582218859 0  -0.05425459249727601 0.05842115019856557 0  -0.04677831658770314 -0.03227977714814526 0  0.05593552498393484 0.08053801937497429 0  -0.03039825316905654 -0.05507493281895607 0  0.04268691325299977 -0.001716990970056313 0  0.06236923526782327 -0.03629829858834861 0  0.063069713537831 -0.04054971958099475 0  -0.03248927258242296 0.06908919760449626 0  -0.0564513984929145 -0.03975703043041674 0  -0.07365045265791184 0.003291511101404333 0  -0.07486959256486177 0.03527911176832377 0  -0.01783594403988273 -0.07788455062927876 0  -0.002617287420754253 0.05309922529503312 0  0.03876019083969687 0.08967885226464009 0  -0.006534800221908555 0.05317999588073971 0  0.006000876746495775 0.09061417659597906 0  -0.08647779004061651 0.01399580816281961 0  0.09802520728086991 -0.00368247111883585 0  -0.05221815546830579 0.04999848146645747 0  -0.01314814741583462 -0.05737689625975163 0  0.08423158472441686 -0.04065662918929313 0  0.08732364819275328 -0.03725045218454552 0  0.08397601965206436 -0.03744246748871044 0  0.01256739946090274 0.05558170615034219 0  -0.06338287501310326 -0.0230225898415703 0  0.06619201158723331 -0.03816386082138286 0  0.04362363243299492 0.01486547862213103 0  0.08863407442989434 0.001637675935956119 0  0.03297977319375831 -0.06441367064242344 0  0.004814930686286498 -0.0946642746377217 0  -0.02248543985642385 0.04026948375275958 0  -0.02539874142924625 0.03837553914663818 0  0.06896771217777171 -0.05398013018740985 0  -0.05109704457154065 0.04720489347144381 0  0.08629947152767095 0.01135974814601351 0  0.08499795420560452 -0.00380170048545821 0  0.0766643133824892 -0.02821445282886761 0  -0.05907782487086834 -0.05209693249905081 0  -0.05883786515657717 -0.04925534264993109 0  -0.005388285464303611 0.08815317670659592 0  0.0172541169168072 0.0897121502815703 0  0.02043103381778575 0.09042983977448056 0  0.01632221125348738 0.09239055598717641 0  -0.06669090636032865 0.0679021356816191 0  -0.003598632662673328 -0.0738610252994364 0  -0.005885117682294377 -0.07417749210963238 0  0.008676845476315732 -0.07259677095400895 0  0.08106449363415459 -0.04096880381505861 0  -0.07212478859759798 0.00076260581243217 0  0.05746881373644837 0.0486936805578388 0  0.05453830135824976 0.0508337126562327 0  0.09572644604310691 0.02090020169096562 0  -0.06441620461521248 -0.01653067700225301 0  -0.06548934033203126 -0.02055714572906107 0  -0.06805447215705457 -0.01755985464336342 0  -0.02655360137277126 -0.07734175638475203 0  0.065469172233817 0.06502044915033384 0  -0.05955665686597349 0.06310420028121537 0  -0.07409751141388922 0.0232847414687449 0  0.03111148460602959 -0.03168548511178972 0  -0.04976124939916852 0.0451465418994537 0  0.04316587366297209 -0.0367592855846813 0  0.0410240700904457 -0.03426790569282186 0  0.04442643803849326 -0.03246061860880185 0  -0.02200036743531936 -0.0660475016924439 0  0.05605882112929483 0.07621606786849791 0  0.0630694986726239 0.02099508213527797 0  0.05487730009090746 0.04639289349903133 0  0.02274110852100973 -0.05244054209974821 0  -0.03627663780704972 -0.07494653074908726 0  -0.05119415642400229 -0.01690389114161259 0  0.008990349666179575 -0.09711965594900092 0  -0.005307746236294008 -0.09489129379373866 0  -0.002629506740658216 -0.07181791719010271 0  -0.05371699577447034 0.01568488736361145 0  0.006697158741481404 -0.06118258190404942 0  0.06322427133111952 -0.06981086895490782 0  -0.01209589816430517 0.08492390099888243 0  0.08103205102343569 -0.03402484807762386 0  0.09149187722475362 0.00339069635485973 0  0.02058324976826911 -0.0817375734850465 0  -0.0949389940030097 0.01695659310646113 0  0.09718048235853392 -0.01347760318341219 0  0.0476982641867302 -0.02436598853740879 0  0.04754474705729653 -0.02170508802532703 0  0.09035990293670954 -0.004811476484707185 0  -0.001824216907818833 0.04692867873089147 0  0.05247111725783053 0.06364040941583569 0  -0.07422918696474727 0.04332579726996312 0  0.01992857600003444 -0.07571395044325423 0  0.04484868475452684 0.07757083975854479 0  0.07056439505703367 -0.01709049100375872 0  0.05949992358790143 0.004474059684974914 0  0.07720287837443418 0.0250147300655185 0  0.03628553636745534 -0.0910103753398601 0  0.05149651556422723 0.05212934654244345 0  0.01985804613088403 -0.04995997646444827 0  0.02307693508545508 -0.04795631568657246 0  0.01898153115945225 -0.04636432490013407 0  0.0198618918931388 0.07561290721990643 0  0.02870425000286186 0.07214524583212274 0  0.04425504521214049 -0.0447386439271968 0  -0.03827011354035475 -0.02444534494431096 0  0.01187269591639078 0.05911443650309235 0  0.02363331214239478 -0.06477883209800724 0  0.0355188695674697 -0.0685146641007348 0  0.0847257836060252 0.03929277443589167 0  -0.08740706201423788 0.03630818860937522 0  -0.0452762479362173 -0.08654451898063475 0  -0.03990722371601828 -0.08953254409685399 0  0.006536147739442597 -0.05062609894564381 0  0.07680256326382119 -0.03149423184441445 0  0.0007146107396101224 -0.04915144260030661 0  0.03792296979842828 0.05982145085581251 0  0.005524504393117022 0.09798172415134371 0  0.0545110857932315 -0.02163795843155923 0  0.02683860269910183 0.07623521488344008 0  0.05600971131520942 0.03491614807994332 0  -0.02715885305902535 0.09044389482249564 0  0.01281393235842859 -0.09432553631314793 0  -0.007460311277938251 0.04484857026387608 0  0.08615858590351859 -0.02802501565067484 0  -0.003878589171847289 0.07144667700946293 0  0.01474307061913532 -0.04701134441885724 0  -0.02656267410268155 0.0485517973652425 0  -0.05412269316209782 -0.02377725060288505 0  0.04453556873515003 0.05000667993456653 0  0.04733685406203592 0.05315741957628493 0  -0.08533472237763803 0.01829507013278286 0  -0.0518096870836658 -0.05269660191211042 0  -0.04843205796997421 -0.05403417270613487 0  -0.04735484381012571 -0.05118811342862516 0  0.0573100345969686 -0.0667999866892571 0  -0.05809377285260348 -0.02778748398068525 0  -0.04588739560077347 0.03917716151527413 0  -0.04690205229396662 0.0367205982932185 0  0.07593998019181698 0.0612994508061392 0  0.07360317536256901 0.05759429242095854 0  -0.0002590103506147609 -0.08040768791428103 0  -0.07568972113706915 0.04897482799436355 0  -0.07808788252158656 0.04468028345452871 0  -0.0788229907435152 0.04252244463380878 0  -0.07889815515223782 0.04846523958149472 0  -0.0481565176196485 -0.02874011763044439 0  -0.02757136959065924 -0.07517627894890833 0  -0.03126807231524895 0.04739024222365786 0  -0.008406208858152733 -0.04100941792890202 0  0.04098723931151566 -0.02197186206236789 0  0.000542285183263133 0.06871677759630999 0  -0.08224375747416575 -0.05338533203356228 0  0.04722610061217306 0.02883975943535226 0  -0.00560372108230833 -0.0494779146194634 0  0.09166278888734587 -0.001559887595594964 0  -0.02853874640238855 -0.08935596689881529 0  0.09270843905938476 0.01766723051053549 0  0.03334160486067085 -0.03170606700856637 0  0.06271021821765892 -0.02556771574579735 0  0.02628988998961721 -0.0906720021086619 0  -0.05723390923197282 0.04368188754679128 0  0.004597188326449333 0.04497641948462512 0  0.01986483302442553 -0.06659264275090468 0  -0.05522193826387024 0.03354757711895576 0  0.05135830864744492 -0.07309160800376371 0  0.07379679303878167 -0.05870007320722109 0  -0.07203919253281191 0.005682614833941833 0  -0.03854853134055086 0.07569783979957233 0  -0.03557350765574365 0.07386356634551289 0  -0.04933049579632268 0.02124269845321343 0  0.0658006283381397 -0.04986278489805452 0  -0.04351872394307937 0.06990452148266041 0  -0.0575048015377782 0.06113591065154995 0  0.06376085035240789 -0.07460707908258735 0  0.07461680084735106 -0.0629478109256236 0  0.04822231975160214 0.02449703461992761 0  0.05783136967982077 -0.02028286569575294 0  0.05732948665932148 -0.03035871800649307 0  -0.02557479489318962 -0.04205430018274156 0  0.03655175158090126 0.08243834484603382 0  0.003293751850772147 0.06387865693101311 0  -0.08206242820720838 -0.04235983348670019 0  0.05298746844105533 0.01025851684434107 0  0.05542877835557493 0.0115992880209758 0  -0.03704267708782048 -0.06725200068488092 0  -0.03535212855975476 -0.06416267016268522 0  -0.02463350292416864 -0.08778181597756217 0  0.02212683178390452 -0.08582863563236866 0  0.05121854349437787 -0.02461181555245173 0  0.05919607022092066 -0.005978748487687784 0  -0.009410078388748903 -0.05476615674492003 0  -0.02175188132413116 -0.08613962626192614 0  0.0529544848208969 0.07925849388918986 0  -0.01965171502833373 0.06562845286921258 0  -0.002234742851441306 -0.07805686399587529 0  0.004889163726531377 -0.05308539800782274 0  -0.05708823336530664 0.001364367641740351 0  -0.03494014793495853 0.05808489517685865 0  -0.0009017526684255268 -0.08467779516313763 0  0.09800826753092587 -0.001463662021559033 0  0.09332848456178987 -0.019746623925045 0  0.0472210168925907 0.0737744744196458 0  -0.05534986058376237 0.01258084757031812 0  -0.07502062676882237 0.0408395019805712 0  0.07837404858641765 -0.0242248418838085 0  0.08040511467506496 -0.02616801090018802 0  0.08256223521262754 -0.02253246373097499 0  -0.05793987551733482 -0.0671073972416692 0  0.06458780497187885 -0.05930131265218531 0  -0.05078106796509 -0.07686495557550686 0  0.03856892579792764 0.04623504632914349 0  -0.03541609680664145 -0.02818018446896969 0  -0.049389994254085 0.0003799974771625089 0  0.08788560829909114 0.04299262356679959 0  0.07423520346260053 0.06425126161055759 0  0.03813674995957934 0.02581233035171547 0  0.002471767933325043 0.09777044094993223 0  -0.0432753067646956 -0.03494387246695755 0  0.0719215098858549 0.0434856834266267 0  -0.04798412026387867 0.05588078784766214 0  -0.00552805924433096 0.07890655164761533 0  -0.08072239503714129 -0.04985524083502151 0  0.04423683719077524 0.06483034798222531 0  -0.03658202300256781 0.06975479476495032 0  -0.04886469967348649 -0.08487478517514666 0  0.02559495995180281 0.04404084384378286 0  0.06628940101760647 0.0001849857121817463 0  0.04178885952565182 -0.06591580521057606 0  -0.03979683125091014 0.07260465652011105 0  0.04727825263335311 0.06147379139264107 0  -0.03827820454303336 -0.03551538032704035 0  0.0762487970781609 0.00953865507736441 0  0.07518250715199098 0.00534702010926205 0  -0.06021499028589127 0.04699667252841266 0  -0.04684808520573341 0.06908854895433979 0  -0.03797209816029797 -0.0176667533838764 0  0.05267038270903009 0.04787203682267253 0  -0.02140021711710107 -0.04655589179213815 0  -0.02069172853377137 -0.03642369075795623 0  0.07157614601589277 0.06138489709514224 0  0.05124018381451245 0.07515950126724358 0  0.07468892748746737 0.02132399994147154 0  0.02745775567045703 -0.07569673938845672 0  -0.01340816955091241 0.0395834473460821 0  0.01528919617397533 0.09692472682708149 0  -0.005501698874394573 -0.06011554712060929 0  0.06911993068932738 0.06955385296206169 0  0.05407465243562169 0.081752378184998 0  -0.08450804140280653 0.03456904462703182 0  -0.04897250267175585 -0.0462383624563301 0  -0.04886976908299169 0.07957404633897766 0  -0.04770096374721068 0.08205887902602325 0  0.07303425900846647 0.03182918025424559 0  -0.07770023595197097 0.0323039292411758 0  0.07007116568502188 -0.03097287414629937 0  0.07347104627393113 -0.03130042908307785 0  0.07325716447978027 -0.03419698718526829 0  0.001576487420719863 0.09099299440115104 0  0.07801893581476758 -0.05094465813386359 0  -0.07142712892075838 -0.006371024647499455 0  0.04920000519329791 -0.01199897547678654 0  0.04818385556445585 -0.00777506427279866 0  0.03546304497126188 -0.07592387662145557 0  -0.06011382378778354 0.07005522903162702 0  -0.05034973737715698 -0.03744916311191757 0  -0.006582036329912631 0.06112161484645975 0  -0.00318305487004201 0.06007161561045767 0  -0.0540775691786826 -0.03599008915129179 0  -0.02269306517513769 -0.09129031833476159 0  -0.03291706278715453 -0.03128943380779036 0  0.0548858485127553 -0.07026391351577201 0  0.07323704984742271 0.02783807786648394 0  0.05377818843716946 0.06745577140620683 0  -0.06729415554197166 0.04315390961748985 0  0.08268015728063093 -0.05248848553214217 0  0.04810713200694162 0.01958956035521394 0  0.07857452910835583 -0.01270466017835011 0  0.07825964202201592 -0.01569343352651569 0  0.02365246386168627 -0.0780154110701982 0  -0.0761420211218332 -0.06149039129982852 0  0.04465636248591306 -0.05616767391300861 0  -0.001953683773903876 0.07726810239133763 0  0.07046012519994521 -0.02318350091121366 0  0.006500807679323432 0.0492566062136402 0  -0.02607833653734782 -0.03326080878510743 0  -0.07655266050984341 0.005484212393951312 0  -0.02400047175655147 -0.06329612663189195 0  0.01052762003372917 0.04740654242148652 0  -0.04483649392437855 -0.04521415859597398 0  -0.01170074411506293 -0.07460124638858913 0  -0.009586373254608959 -0.07388787102923801 0  -0.01185212007292252 -0.07035961794702976 0  -0.005411703344003749 -0.06649878245700171 0  0.03275816447537198 0.08466322740204091 0  -0.04615175851809549 0.07345077447707239 0  0.09781345362648496 -0.006426279407258135 0  0.03888939506738721 0.04088706229196536 0  -0.01163843079601525 -0.09741843612606234 0  0.06357568871734007 -0.03258847739267293 0  -0.06541042280499329 0.06368097690177306 0  -0.03777211855181462 0.04018863214053487 0  0.0773000163810097 -0.0604107056761559 0  0.06877237370094297 6.572290439156581e-05 0  -0.03308057477246483 0.05159343022571433 0  -0.004008737435076612 0.09660434746916634 0  -0.08495592713148523 -0.04928590919418969 0  -0.07725578379746413 -0.02707172146836741 0  -0.07509756047448664 -0.03073106319585843 0  -0.07339660083275262 -0.02805340068616873 0  0.08956328875738491 -0.007951558852909896 0  -0.02658521477269281 0.05091143932969795 0  0.06746787081265281 0.04564355507958934 0  0.08837270864169199 -0.0009104474001042236 0  -0.0796552032966487 -0.0113709417462131 0  0.02548780100171692 -0.07189517352753419 0  0.02650550261780118 -0.06807396606508258 0  0.02412247176035055 -0.06763410111635405 0  0.09332380287532281 0.02989702011129815 0  -0.02034302322395841 0.07028180761187813 0  -0.039790808429481 -0.05977399533663399 0  -0.04849317191630925 0.028988053208872 0  0.05687273453822296 -0.03712530122856166 0  0.07653730438940798 5.526922095501268e-05 0  0.06346799632275213 -0.06118331330589427 0  -0.04251520129592315 -0.05642209687477696 0  0.09406268435462178 -0.02785196499146163 0  -0.04112950755275777 -0.06883599900516445 0  -0.0661387532534564 -0.0249665833630902 0  -0.06777611159103393 -0.02896905812175216 0  0.06835504714120882 0.01613808794656627 0  0.05910920262881791 0.01224149640412871 0  0.06247694427865609 0.01207549075597937 0  0.02963210448903968 -0.09358379321351169 0  -0.04187188137976141 0.04610302637177984 0  0.03500650156156904 -0.03797901623357536 0  -0.0342478058608255 -0.08565610771319584 0  -0.03485633849486975 -0.08154825548946376 0  -0.05027715375258226 -0.07326932977352868 0  -0.03184389831192257 0.0303736143133542 0  0.04081970940575547 0.08560678112061634 0  0.02014072689644612 -0.09613435528006922 0  0.07594448768431235 0.02881969101538852 0  0.05607902195741412 0.003732818790018788 0  0.05714161061641307 0.0005645137671983732 0  -0.0613636621371563 -0.02206569224774035 0  0.05078786491108431 -0.02123249980933017 0  -0.05076102428524814 -0.06408224813975298 0  -0.04781102640529378 -0.06166854830683106 0  -0.05154050933105111 -0.0602334159580273 0  -0.01051150574317963 -0.04752430974007924 0  -0.07705741082822616 0.01460000577368809 0  -0.07697784879827185 0.036634997299198 0  -0.01876547877442616 0.0864835549640464 0  -0.02129266295166778 0.0900086559035238 0  0.04395246912475198 0.06158804069585189 0  0.04186779223138441 0.05766436239806878 0  -0.09557689224206545 0.02112372281837356 0  0.07263180842356488 -0.001821637683497959 0  0.07450957867976445 -0.005765828252479946 0  -0.07493561335983247 -0.06338094166263504 0  0.05146699021177764 -0.03628018480989406 0  0.0263737941987321 -0.06016417761917982 0  0.02487941039380157 -0.05814976302985176 0  0.02893470369068044 -0.05686815660023722 0  -0.04005327872801582 -0.02107392834604393 0  -0.004704309336835273 -0.09049263049850428 0  -0.006776014355384091 -0.0703966425827366 0  0.06712847759748468 -0.02531221585455004 0  -0.09103876508165928 -0.0114189986396461 0  0.02784676258914118 -0.08325084889911354 0  -0.08049840596558851 -0.02722463055000333 0  -0.04461520209166453 -0.06012927251526628 0  -0.04572086373886043 -0.05691324015727521 0  -0.02002852525018249 0.08081599933337995 0  0.01996062843884613 0.09329439320666297 0  0.07965112106062913 0.04674801284663968 0  0.02821215591118766 -0.08768368509968578 0  -0.02486470226168353 -0.03757576408490575 0  0.06371979054099498 0.07463065615026659 0  0.0814832513785641 -0.03723738067283539 0  -0.03992084227027055 0.03653366429284815 0  -0.04215540351983277 0.03708390117710001 0  0.005708936661623353 -0.09787421239392573 0  0.0754349875179381 -0.01234346025947813 0  -0.09319829102943709 0.009506708639191041 0  -0.09763633215709477 0.00980917374282159 0  0.0508453460210396 -0.005562144508011442 0  -0.04556139728456006 -0.06417774312739241 0  -0.04369101827128404 -0.06643735582248569 0  0.08693595984267244 -0.01410444385134934 0  0.05636416688887417 0.02195094646751372 0  0.04496719261094304 -0.03911946695601377 0  0.04746089925589773 -0.03773631118441018 0  -0.08549444922618817 -0.001655400172019879 0  0.04487160487505122 0.04561667350281763 0  -0.07635939858642812 0.01023302657008881 0  0.008318710217208857 0.09766869975687002 0  0.008740304946572113 0.09358275891244693 0  0.006641039021798629 0.06089539693870027 0  -0.02360556089394661 0.09522804721676527 0  0.06488613951490652 -0.02580949476499002 0  0.00249701674864573 -0.07851651704831397 0  0.05593189419512565 -0.007658940393037699 0  -0.04224886646903468 0.01132777998250195 0  0.08572612567776623 0.03128812839721785 0  0.03100703228681273 -0.08138603945808548 0  -0.03323069234590668 0.02597272153219266 0  0.06285000002708198 0.03672441212622882 0  0.04018918461686636 0.06365215337061639 0  0.00843875123490437 -0.09431049793784001 0  0.008460321031279805 0.0435196761082437 0  -0.05108403578124836 0.003277992059167229 0  0.08503538810531393 -0.01206742966093732 0  -0.08691665008055449 -0.03718312346703088 0  -0.04955596971240275 0.004825394504576483 0  0.01048350599625156 -0.07881034218904488 0  -0.01202545767719434 -0.08885424558792634 0  0.0646044733022593 0.04313584071060587 0  0.07123507374634458 -0.02654924923884909 0  -0.05903333057241845 -0.07825898470815991 0  0.06456074171450325 -0.06571620086063176 0  -0.04572267411267452 0.08418391201210823 0  -0.04743045074911705 -0.003275094895002125 0  -0.05246220372895655 -0.06617161470276403 0  0.04925762232400085 -0.04000615893556585 0  0.09572081100792261 0.002182229969324678 0  -0.03239129999372044 -0.07980029897294123 0  -0.0306895129402953 -0.06412936399262879 0  -0.02836433347019513 -0.06383623539820807 0  0.03322816332928313 -0.07368210488722465 0  0.03743109239255236 -0.07436941800446224 0  0.08965184495321149 -0.03075151368337031 0  -0.05456146813896786 -0.06224643567277451 0  0.04108025992006124 -0.04309239845175999 0  -0.05785746203084499 -0.05626391408191206 0  -0.005441033654651662 -0.05298080074422133 0  -0.02377429330148584 -0.09507069067273628 0  -0.04796759418240772 -0.06621046919794242 0  -0.03465167616018078 0.02872271129386596 0  0.05638196463486716 -0.0515132733982987 0  -0.02156189832376035 0.07433214882210382 0  -0.02487350000731888 0.07547160357990651 0  -0.02139712011083295 0.07779374700808772 0  -0.04510945846567001 0.07733797409737474 0  -0.05076659795618599 0.05415870122147779 0  0.03504982772602289 0.05789049991385044 0  0.04658889219816173 -0.05190914986076337 0  0.0382339109954237 -0.05647671685920833 0  0.07922914709221711 -0.0006868087488264348 0  -0.01474478607894475 -0.03947997919875209 0  -0.01482495835148989 -0.04312224584289361 0  -0.07798594650978952 0.03851315197138298 0  -0.02304478934064901 0.05633675452821489 0  -0.0311077597149921 -0.07575425553107126 0  -0.04531501401571528 -0.00132501316927046 0  -0.06978998929727226 -0.02968692679622165 0  -0.06732677115767335 0.03546887183239091 0  0.06419199708570134 0.04733219620577545 0  -0.05634618793916302 0.05246338857536893 0  -0.0735950483666967 0.06476896457120257 0  0.02092200545478449 -0.0564277622989054 0  -0.06014836846850116 0.05328003967988577 0  0.09764416397415918 -0.011046059374483 0  -0.0147024741344371 -0.06155806482031129 0  0.04896276314233224 0.0492694722940093 0  -0.04375107453056737 0.05527936753491727 0  -0.01398579625196761 0.08153177283645834 0  -0.08117750054814589 0.02059711295026637 0  -0.003446442398205318 0.05618266843181238 0  -0.002125185325633452 -0.05641823732713715 0  -0.005825072662310171 -0.05745773688459587 0  0.05409141604822778 0.04179822796504004 0  0.04248725487265861 0.04256995592953521 0  -0.08621464704984388 -0.04717231473117 0  0.06405337266017881 0.008109294572087086 0  0.01195771956127224 0.04298599029361843 0  -0.0588466556479286 0.04049688531704682 0  -0.0478823297692513 -0.04315177550377423 0  0.08450615330379205 0.006225850406508653 0  0.07321962883776482 -0.06491054199890929 0  0.0702510016157003 -0.06375634097755624 0  0.04318975826569352 0.007322503414586423 0  0.04464114265680659 0.008920590128512516 0  -0.02935007251603803 0.06710288711834338 0  -0.0147858583769256 0.04199541604322846 0  -0.06437290298457775 -0.006125624220600306 0  0.02161469794037674 -0.03570681661371994 0  0.08786596068354414 0.03352221365729469 0  0.04969377450783353 -0.07918982818002168 0  -0.03434342700377499 -0.06843334768079769 0  -0.08485421911774776 -0.02083778909447882 0  -0.08665862833115766 -0.01825513407631863 0  -0.08915495962523615 -0.01963090974092916 0  0.0560213126155981 -0.01439037448982398 0  0.06000443369420969 0.008768357798076869 0  -0.09311630949438894 -0.03141929540492061 0  -0.08317533002480017 -0.03597535153852883 0  -0.02615221632518856 0.08260663358266536 0  -0.01089486060742361 0.04024263498053129 0  -0.02358452224067526 -0.03967191183960394 0  0.06456606706501665 -0.01165837730586552 0  0.06211651937268948 -0.009324613730916585 0  0.01172688123966625 -0.04609228085955198 0  0.01177416834895075 -0.05922520767189095 0  0.06355710530584652 -0.04384692689002349 0  0.03784976985665903 0.0482607637226833 0  0.03427655674277261 0.04597397020280808 0  -0.08597924801531429 0.04717348936297459 0  0.09158757558463888 -0.008969215777478327 0  -0.07583658679454468 -0.05707137661137356 0  -0.07854760032762498 -0.05826803058446278 0  -0.06886358330526558 0.04795245066480678 0  0.03703857110658131 -0.02593740033134108 0  0.0393162012289057 -0.02417070067924167 0  -0.09139531526236803 0.02478312868120985 0  -0.09126509529404417 0.02882398032415145 0  -0.04616768167321331 0.03273390413166605 0  0.09502037888867375 -0.002947850845222043 0  0.03385511014200069 -0.08759399661906962 0  -0.02226941767222262 -0.0770786889475453 0  -0.02261328907394944 -0.0791668465638859 0  0.04857867683840447 0.01043130365672301 0  -0.01527411942174127 0.04640363207187487 0  -0.01275778989606684 0.04964727320695302 0  -0.01487052794267526 0.05060244705037224 0  -0.06553060711071361 -0.03722467445862104 0  -0.06461868633334082 -0.03927105264188782 0  -0.06671789199838021 -0.03288041081403072 0  -0.002030130946782528 -0.05937125960647479 0  -0.005755490775923745 0.04897164917686547 0  0.04808862928874983 -0.003477425007167499 0  -0.05900701683714497 -0.005718535755063504 0  0.01182101393467684 -0.04248386894364947 0  0.04332047950913714 0.01141084536539628 0  -0.04995086948019391 -0.08104684705900236 0  -0.02060041206109828 0.05958835830859934 0  0.01600295212860999 -0.04124549902199764 0  -0.06911939446720967 0.02646152381357446 0  -0.06616934603244763 0.02575023722570673 0  0.06782037299005761 0.03544513217419722 0  -0.07713898121150584 0.04080544022395764 0  0.03006894573138914 -0.03418718453014188 0  0.05400320018819152 0.02060134132892984 0  0.06073908848460133 -0.0443504334572942 0  0.03683411340185843 0.08598666941195603 0  0.07668783959911037 -0.01782795484326741 0  -0.08893968938507826 0.02301427042658543 0  0.04119845111950338 -0.05246766374052727 0  -0.0836495896616074 -0.03834747416660592 0  -0.0414103114852049 -0.005179002349835573 0  0.07099496223939172 -0.06795106631765795 0  -0.05810948045700663 0.003839608201781672 0  0.09255684494032845 -0.0313046909583394 0  0.0417253155208178 -0.01933000441052798 0  0.02105598033858575 -0.0423396042825838 0  0.08553705521981984 -0.0482023554630039 0  0.08152134912460376 -0.04741260785458474 0  -0.04812603531865233 -0.03943171912850284 0  -0.04707181901580024 -0.03534014322780162 0  0.07530343764462551 -0.00260512916399476 0  -0.01203339652405379 0.0870746472002687 0  -0.01585924762083587 0.08536186107524844 0  0.0120891508376795 -0.05535758886928467 0  -0.05914593808818276 -0.02484718263892226 0  -0.08943188053917661 -0.009065799044710162 0  0.02770893648266331 -0.03562110439590738 0  -0.06150581348767259 -0.003820885643635695 0  -0.09571522940722173 -0.02035335596471468 0  0.01403457908451504 -0.08125248643059664 0  -0.06209253618463842 -0.02617334419254255 0  0.07200010246811207 -0.02460101639882334 0  -0.04987870764932191 0.02536598077204876 0  0.04321455611940334 -0.02308512109458938 0  -0.009579016940399939 0.07032067195340636 0  0.09704630912704769 0.006167227229608497 0  0.07023101169183137 0.0216047561688859 0  -0.02055999622513181 -0.07496906532465125 0  0.007313541952893512 0.07656160024184377 0  0.006080048333563108 0.06714466985116643 0  -0.09542716217938717 -0.02242499644385806 0  -0.02523642155270017 0.06447771024915733 0  -0.0283155735692876 0.06268646130023474 0  0.04074951474739703 0.06045113255222177 0  -0.03891710416322976 -0.05412322879832383 0  -0.06656092070891344 0.004341662079325488 0  0.01531048038415696 -0.04368828618752189 0  -0.0552895196364045 -0.04580030485648993 0  -0.0438170841087241 0.08329627509509317 0  -0.04186934918344089 0.08410730090536776 0  -0.04491105499332357 -0.07234523971444366 0  -0.02872767674007735 -0.06006640473703896 0  -0.01437643462702584 0.06619736835137045 0  0.01576748538300414 -0.05402323965070614 0  -0.05419425018239124 -0.03919960061624517 0  0.04016194176353232 -0.0496634837648606 0  -0.04043327895980889 0.01024443621592627 0  0.02121504291853315 -0.07204945952216139 0  -0.05580703510765649 -0.008684182390145536 0  0.02209765981993628 0.06961521253681809 0  -0.07352555358446616 0.007712953395112654 0  0.05512998129196901 -0.059138324769004 0  0.06893623134961901 0.03255768349829955 0  -0.0379820363149127 0.0174566737512898 0  -0.06607967809307086 0.07241467558529573 0  -0.05519522947967541 -0.04971548565059745 0  -0.04590577772782804 -0.03727891747368565 0  0.007261862229298643 -0.0699267547646699 0  0.05803257735896693 -0.0485100070300576 0  0.04507862642324439 0.004806325420196855 0  0.0426704967994597 -0.01302024162758963 0  -0.07255537905299415 -0.03199684027930912 0  0.02842480567021591 0.06417196519466092 0  -0.04121776659531508 -0.05077407745250442 0  -0.03908763226226838 0.08637429832188456 0  -0.0695269242372319 0.06370790920948766 0  -0.0631598251075417 -0.05024769724236508 0  0.05394106733808008 2.639696314347159e-05 0  -0.03358779003799323 -0.0551406256370742 0  0.01934038916270402 0.05542744174073131 0  0.09004356798112226 0.03946141136308669 0  0.07466964187265604 -0.04442252744830823 0  -0.04595539584238785 -0.06839124247921102 0  -0.02874169760624099 -0.08172762767537332 0  -0.02468743693770139 -0.08021772765286772 0  -0.027898280841832 -0.07892650987992994 0  -0.04311820607465403 0.08777092075500251 0  0.03899525841275352 0.03307723897499344 0  0.07956458134004449 0.01082228076974823 0  0.08048063418253201 0.007876148716536012 0  0.08218419030955296 0.01172243499963488 0  -0.0618973610140764 0.06410721194096893 0  0.06788299804262884 -0.04226922799052713 0  0.04539953052342705 0.02580814313656686 0  0.02928541703880553 -0.06341170469802898 0  0.04355902161863117 0.08169168027671557 0  -0.04069694954429957 0.06757767961770314 0  -0.06096001315858591 0.0770047496220744 0  -0.08504607374979654 0.004742608232439278 0  -0.01583187153825365 0.03864583508927399 0  -0.05693194640940333 0.03605982396721776 0  0.08418200171683064 -0.01755661612634051 0  -0.08791309072908383 0.01570858346186096 0  -0.09010140127208735 0.01217658754394846 0  0.01403161101893087 -0.06124529909968362 0  -0.008592961719965177 -0.06667485979554612 0  0.04502391414365123 -0.08428660448613008 0  0.0001755605156802602 0.06385603016099541 0  0.05291021845000464 -0.06162936338491908 0  -0.0763409395227074 0.0004878696923192725 0  0.03920691438600905 0.02204211031067244 0  -0.06491256466779903 -0.02707329381693493 0  0.0218442044691705 0.03573667442246387 0  0.06533436598057281 0.0115282953497684 0  0.03928161497737819 -0.07059173964355048 0  -0.02002826029174019 0.04668362651834523 0  -0.06054695706784286 -0.01629009216820169 0  -0.03549035927415367 -0.09171139077546776 0  0.05564138871579917 0.03924915548529162 0  -0.080597927180865 -0.02107717916775844 0  0.001197615586036523 0.07710187465108877 0  -0.09775867318611868 -0.009821464909266043 0  -0.03630601638539933 0.06275850974048292 0  -0.06242536780167115 -0.03539502984259989 0  0.0009369918863845409 -0.05927585501616136 0  0.004039387492467931 -0.05649405777339483 0  0.0008653764116827206 -0.05636712665146431 0  -0.03373586653515778 0.07287787970826551 0  0.05870732819896055 -0.07122011625720093 0  0.05729766423864786 -0.07371038288126294 0  0.02876912083946334 0.08346491437499533 0  0.003799400570206067 0.0547043435095652 0  0.04113275795349094 0.006449228708707552 0  0.03440113163074602 -0.02818861234014136 0  -0.05430594182049556 -0.07493795460725644 0  -0.04244119823028453 0.03291877117199669 0  0.02931959016159448 0.08811174701658574 0  0.02867638250468492 0.0855256204406481 0  0.08208067172299731 0.03676518619337594 0  0.01353242343532624 0.04950243431131483 0  0.05689423918185556 0.03098510601111062 0  0.06002352230067332 0.03022878605366014 0  0.05972404633299243 0.03387821274302488 0  0.02680517777409848 -0.08508047924082418 0  -0.08495468453451774 -0.01478037505109387 0  -0.05692500924262824 0.01686028053207297 0  -0.06700155068314784 0.01029829743633273 0  -0.009637017470521191 0.09157885229161761 0  -0.06289439490684925 0.07548606270625656 0  0.09243995617704567 0.02116578609360635 0  -0.03086229791629794 0.09339084809814903 0  0.05654612274840683 -0.0330529128864586 0  -0.04475435764226635 0.06825392248361534 0  -0.0384028967955061 -0.07021108467466555 0  0.03286882456885259 0.04251646799080509 0  0.04093229476505547 -0.08508698931861587 0  -0.08815148434577 -0.01474450681976662 0  -0.08104159019354931 0.0550205912772179 0  0.02380577634292897 0.08511530791110666 0  0.04226677649523124 -0.02986392918580834 0  0.03866281024995653 -0.02837556012834545 0  0.03923591263659099 -0.03170403643093118 0  0.02345841432353476 0.07793095433562514 0  -0.04115309993126635 -0.07822445340246348 0  -0.03923498615727004 -0.07676856584646845 0  -0.03940124796455242 -0.08090100260859465 0  -0.03055588723557991 0.02826761184193147 0  0.03302678730824233 0.02566105843788729 0  0.03317391485536334 -0.08360835395288489 0  0.03521855606633715 -0.08146973691971555 0  0.03324024485038447 -0.07948731342007868 0  0.08064850122975405 -0.0217813330051749 0  -0.08222098269258336 -0.04626598100066833 0  -0.0865043133794926 -0.005733339884180561 0  0.03805586797038688 -0.04408410996510269 0  0.05337273473925154 0.06112652377760203 0  0.009146891884204445 0.06716174565797456 0  0.009424177891670448 0.06424938968878229 0  0.006111294754320804 0.06435277417762235 0  -0.03585900561702692 0.02184111858420619 0  0.01394344152733472 0.08799270049172057 0  0.01030116264463943 0.08991742986386735 0  -0.04991801376111957 -0.0225544632867867 0  -0.01059157045107778 -0.062575995120496 0  0.07304584368753936 0.05096757078015067 0  0.004733513396277582 0.0520942003396958 0  -0.01911234673798709 -0.04448998306997656 0  -0.07019953437047816 0.06854463035479386 0  -0.05633263519494605 -0.07644136066893513 0  -0.04700161095473886 0.003334075894956546 0  0.04789469450752554 -0.02744141770555299 0  0.08943832180236629 -0.01217539594169037 0  0.05819691625211488 0.04103887197058425 0  0.0405360600307012 0.06678418482898414 0  0.03728932269073131 0.01868764043438998 0  0.05569850217993284 -0.05553881534680422 0  -0.0009556179334361337 0.05966577095010947 0  -0.0005193865460477789 0.05694929956169967 0  0.002533033828361492 0.05725566678601713 0  0.09280462471466988 0.03261350061841182 0  -0.05487529499738868 0.005001561690142176 0  0.06080673370494608 0.07186633177731465 0  -0.01387199959767267 0.05427016249839767 0  -0.009575570109063682 0.05447043791337595 0  -0.01258741108482032 0.05658580466804768 0  0.07817353306443262 -0.03721769862510323 0  -0.02433258553826169 0.06030292130770253 0  0.04360829088344734 -0.08781647609483544 0  -0.06889309877417164 0.04589789778236682 0  -0.07129938988328896 0.0547994212703766 0  0.009492949647437953 -0.08675565101665329 0  -0.05547586129058148 0.03992283309669081 0  -0.08146406344606365 -0.01501992194768787 0  0.07364066487964718 -0.05542410337027613 0  -0.007305100837600858 0.0577224177278766 0  0.02761528676925819 0.07957964337846395 0  -0.08500677583924754 0.02257318788032005 0  -0.06826177738209818 -0.004743028207038585 0  0.00993141401982257 -0.0618020848225637 0  -0.06294395653656021 0.05227791778200485 0  -0.06192759652641345 0.05640246307332191 0  -0.05762391923584943 -0.06408391545571269 0  -0.04483742791275801 -0.07980014704880338 0  -0.09043181664964385 -0.03774028364030965 0  0.05847563611290788 0.0572655820390482 0  0.08619988214881734 -0.02123888034339305 0  -0.07873014933598697 -0.02025149587456451 0  0.0538003269476133 0.03718662965769436 0  -0.02539699715012201 0.03333293197708308 0  -0.06947446159576147 -0.008672379841074067 0  0.02347168724656685 0.07304482407087495 0  -0.009773198755196858 -0.08159240118664136 0  -0.05941815125653803 0.03333770393027386 0  0.0634097036066216 -0.04968761712024639 0  -0.09176164690967588 -0.01332942607787099 0  -0.05252037134230141 0.03056083353125984 0  -0.03603387556945201 0.03128390708783663 0  -0.03857132739964904 0.03013761541247286 0  -0.03924468063771943 0.03367616680645429 0  -0.01204280490357468 -0.05352106106024383 0  0.07388213808709324 0.009478940964523461 0  0.03614033410675334 0.02221298431581964 0  0.08752367530002822 0.007681464724547275 0  -0.0456006554480597 0.04621398970458436 0  -0.01111310850373074 -0.04022839143082762 0  -0.0731624058713351 0.03856859125114501 0  0.01676233083390603 0.05638179734977765 0  -0.05467066360886302 -0.01434229785010732 0  -0.07211147861984664 0.02675437033198898 0  -0.05126071412273016 -0.02660690591993849 0  0.05077189985177012 -0.05926338405336102 0  0.06222674989379221 -0.0139085095748576 0  0.00253280749038335 0.04182629511122016 0  0.0008178718810426988 0.04549616084362947 0  0.01172655701516097 -0.09058405515016807 0  0.01775827875285663 -0.09677241104231084 0  -0.001075003853710754 -0.06564620082530004 0  -0.06345176116604839 0.03396802463313248 0  -0.06551475791930045 0.03288587973725275 0  -0.06472899922039446 0.03686466402067804 0  -0.05582178684237982 0.02222584256824829 0  0.06700316732047591 0.0280414384608338 0  -0.06270241367995258 -0.07178604722241207 0  -0.02801075489046047 0.03462243413992331 0  0.007113037184694589 -0.06465715528853623 0  0.08753012767767543 -0.04428479017002525 0  -0.03318475983290457 -0.08390527212029866 0  -0.01492848396065787 0.0881111272201424 0  0.04434096989698848 0.03744461268971663 0  -0.09125713245365129 0.008380331361942901 0  0.009766798253092578 -0.0641855965859435 0  -0.02945257765533829 0.03875410489557334 0  -0.02094574418210485 0.0441908606157829 0  0.03097170881312827 -0.08556134516862168 0  -0.01813112761636649 0.03743667414586611 0  0.02397891101444313 -0.0837291614051079 0  0.06715955389560074 0.02388971887128298 0  0.06900736760506793 0.02589680604992509 0  -0.06358542161106501 -0.06545415235478597 0  0.03403769232989978 0.05517595289591126 0  -0.004199065989673616 -0.07913042471583148 0  -0.05899165196916811 -0.0453069164789927 0  -0.001079864661507751 0.04891132757587732 0  -0.02318248642496771 0.07093792983370123 0  -0.024098135231795 0.06831116125741117 0  -0.0480270810747968 0.04907668792260525 0  -0.05933100760245946 0.06713037181059819 0  -0.05731662607906422 0.07063244939720364 0  0.06839046398446486 -0.008080835316283327 0  0.07043417470901049 -0.007897069376141857 0  -0.02380276042832606 0.05180886501601923 0  -0.03745138514143408 0.06621693841338763 0  -0.02434124767805557 -0.0901029219851837 0  -0.03041824846202649 -0.05240917248213046 0  0.04018529562006586 -0.08106184427684171 0  -0.06738939794536138 0.05678135964942835 0  -0.06535685017254056 0.05744904213346475 0  -0.08018264067591724 -0.02394638177528961 0  -0.004747190300687919 0.09472916515197442 0  -0.08899939902669075 0.0397947239910862 0  -0.01928583857781138 0.08308158787512257 0  0.08947496347801934 0.01102932657747311 0  0.04062001029414314 -0.02789605080800893 0  -0.0676579633691213 0.06102459227654107 0  0.06890574941415417 0.004278125601765785 0  -0.01147085410714343 -0.04569821221446659 0  0.0706542812528955 0.00955503811429452 0  0.0374093134737296 -0.08702044922206241 0  0.05118921042406724 0.005892216868993487 0  0.07064814382474836 -0.04858946599326363 0  0.0747916592359715 -0.02179893561540305 0  0.0664127820492683 -0.01797223161209363 0  0.04980331178199612 0.0001669069134657843 0  -0.09533256483672287 -0.007789001150428394 0  -0.09365888976376549 -0.009242726320424922 0  0.07368487604395943 -0.02008791128038427 0  0.05192936533050029 0.06825600634835625 0  -0.03713815664537838 -0.07914781437647277 0  0.04118626424394189 0.08937668940207065 0  -0.05985695466940956 0.05527785206715911 0  -0.05806991845042695 0.05631618466727319 0  0.03005126733359712 -0.05211399837733994 0  -0.003632316086936606 0.050607119678939 0  0.02200426736718063 -0.0441899523358301 0  -0.009634803642817082 -0.09767106224361401 0  -0.02814009464766505 -0.0854086485371276 0  -0.06624962612555797 -0.06859821075107367 0  0.02734671889104252 0.09452533476547346 0  0.01642062581356647 -0.08181662609706958 0  0.04928143028536495 0.0617821712634863 0  0.01530865107743281 -0.05729482734587827 0  -0.04025738553844824 0.02347510069591273 0  -0.0525466926098658 -0.06199672805131066 0  0.06362391829611672 0.01905589064038957 0  0.09679238582186332 0.01511594530420782 0  0.06245185222171241 -0.07249913086919482 0  0.05763647331852866 0.005251066063564665 0  -0.01922616120839563 -0.05836005077486633 0  -0.07051396588603913 0.03036364890111505 0  0.04860212289064917 -0.04783648352534318 0  0.04602189243824553 -0.06998581096116675 0  -0.06384585664216168 0.0006506597349082396 0  -0.08903464305673288 -0.005542474734133205 0  0.05888691429331336 -0.02604186064055044 0  -0.007885231270550833 -0.06322810570090312 0  0.09225572220591467 -0.02689495516275816 0  -0.01917490862919871 -0.08500596198725514 0  -0.01477771769566574 -0.08089466730065065 0  -0.0175715364302396 -0.08149613558444817 0  -0.04349187813605387 -0.03160195059086338 0  0.07114417898323294 -0.04489225686310272 0  -0.07547022992979201 0.008221383550277779 0  -0.05323350708444939 0.06555293060732389 0  -0.0506201165710601 0.06355917318384095 0  0.05108887241756804 0.01823416992386667 0  -0.09457110081282383 -0.01598746014649335 0  0.02775915541762528 0.05552189666107406 0  0.07189794125796001 0.06661658040133771 0  -0.04679297729010604 -0.01737963110070912 0  -0.03555668396696626 -0.04860686581049192 0  0.06941263009181553 -0.06666321920038319 0  0.08565617426290678 0.04757302227831309 0  0.08265737238680324 0.04715120150181987 0  -0.01725702688721073 -0.05792938343682617 0  -0.07542310195349054 -0.04996788949634766 0  0.03176221054687702 -0.03572579267383055 0  0.009372493960296879 0.07974650161292286 0  0.08935981411667041 -0.03695571563254034 0  -0.08914664034272138 -0.03354494202947831 0  0.06287137000332778 0.05097428751719354 0  0.06449505268627072 0.05384319816329169 0  -0.0192046169619771 0.04304259607030931 0  -0.03057900679772362 -0.06869899124245227 0  0.00241782060327853 -0.09211532563209353 0  -0.01638936281209274 -0.08515598788651038 0  0.02648818395269826 -0.05038392611431319 0  0.05034771564536306 -0.01616718317877053 0  -0.06485413664752861 0.02803383092236686 0  0.06932451429344509 0.06559552505568553 0  -0.06051497349412865 -0.01829662930264326 0  -0.01192193013173969 -0.08042155010129953 0  -0.01142455478790604 -0.0781291069881986 0  0.04606182805793862 -0.07717675838261234 0  -0.07491179526974226 0.01393093793527144 0  -0.07319570855584165 0.015244223532626 0  -0.07459633825622362 0.01187332618032548 0  0.03903595294172538 -0.07721157374819171 0  -0.05543470208648767 0.06252680421529029 0  0.04994673984319743 0.03206872749510049 0  0.07722602669278573 0.05976568963809921 0  0.01614841869589075 0.06550667205470367 0  0.05814246972854031 -0.02383282703616978 0  0.01624954427863699 -0.09046571822314706 0  -0.07230659440985265 0.06225796498399532 0  -0.004414763653886633 -0.04344562909045283 0  0.07083825353542324 -0.01129959715711201 0  0.01481263521858717 -0.07441209512233191 0  0.0269372013288703 0.0623910456356039 0  0.06318716569944732 -0.003703204867732199 0  -0.07025411632701571 -0.0689473617846435 0  -0.0894355542703829 -0.02982650463850459 0  -0.08271761958612317 0.04796870850797184 0  0.05740665532367525 -0.06292136814740286 0  -0.05573917070761787 0.02993524381091154 0  -0.0554396307026936 0.04282348283344368 0  -0.01719095196156346 0.05982583333169948 0  -0.01354483272067538 0.06039177808520422 0  -0.01637745822395735 0.06292640640340434 0  -0.001073717032772057 -0.08887938904715706 0  -0.02245278874677321 0.08430318617603014 0  0.05492155821494617 -0.005898013782884572 0  0.03930948283600606 0.0769235617311371 0  -0.06986824481709354 0.02344497564919153 0  -0.05813800551582925 0.07369355457200169 0  0.05402258985022475 -0.01473544670179327 0  -0.01815245634948293 -0.06292193664816727 0  -0.0171782214215828 -0.04746036613717058 0  -0.06277679316290546 0.01368115873996789 0  0.01909086253058573 0.06271151668968544 0  0.07456801826329423 0.04614740805666601 0  0.07062752231525701 0.04608765481088922 0  -0.03344644947417257 0.07957733350973513 0  -0.03489691168671068 0.07801542397587413 0  -0.01957118406742544 0.06301938413440075 0  -0.07115740490811724 -0.04301729536343418 0  0.06599079774165172 0.05626614857817085 0  -0.05680934802871129 -0.03571158911109368 0  -0.05796710314348946 -0.03739762077198746 0  0.01747389388938988 0.03809275551966542 0  0.02039513942830653 0.04099730977911847 0  0.01288711137531984 -0.07505709623215258 0  -0.08921938754188091 -0.00151701780686533 0  0.0611758757880267 -0.06443017640885557 0  0.01332407054982782 0.08018949402279342 0  -0.08283319220697381 0.01149150664699483 0  -0.08462635593629107 -0.01673884405473351 0  0.03173486845559199 -0.04590417692089707 0  0.03092435319024263 -0.04197158861234798 0  0.03104651613670369 -0.04837057541561483 0  0.02703472604649812 -0.04820687072723089 0  0.08036812821220692 -0.03019957776887532 0  -0.03709627051666559 0.04483307252442561 0  0.07965886894013204 0.03824404709841701 0  -0.06905163653751871 -0.02578397372248669 0  0.06065029877328761 0.06508647596460425 0  -0.07634231669420548 0.02848540924165981 0  -0.07528465001875576 0.02677315472324787 0  -0.0722977526975061 0.02902851970075031 0  -0.05446772545428016 0.002098844734235424 0  0.03739164966169019 0.03426778139357565 0  -0.05119378771219128 -0.03044269237902226 0  -0.01079596000365098 0.05286938027706911 0  -0.03535175889056801 -0.03251658073061506 0  0.06502391530418615 -0.04013040227882063 0  0.04378159962132547 -0.04073533363523404 0  -0.05253602817744236 -0.07782415218041233 0  0.04052078476370019 0.02748950027038249 0  0.0527992248817386 0.02388286952639768 0  0.0564541577215582 0.02460069607610776 0  -0.06854331412440247 0.01983393906953568 0  0.03313522595105112 -0.05005611910265009 0  0.05032764433406952 0.01377395768376264 0  -0.009577837168404916 0.07835741022292193 0  0.05393468037340225 0.03165922179631828 0  -0.02178531744709282 -0.06162138429358963 0  -0.04880275689295987 -0.01093906994575534 0  0.05409770076085403 0.02539180354567019 0  -0.08661398420629378 -0.02490318754158323 0  0.03106937816323508 0.05689915702287528 0  0.0284727503148425 0.05149832866064846 0  0.03193346971286298 0.06395905568714269 0  0.07718763563305871 0.02034760733514775 0  0.03464274287291709 -0.03017969293667757 0  0.01084085748914166 -0.07184811163532362 0  -0.07355299763476936 -0.05954156748199221 0  -0.0719698872505895 -0.06244370261853856 0  0.07777684407694641 -0.01947882131635549 0  -0.01730073740362141 0.0795931172862433 0  0.03207450882218082 0.0704038984590626 0  -0.0281218540372946 -0.03623747063840928 0  -0.02609908769715402 -0.09146861985794719 0  0.06547986983605324 -0.02191343019248324 0  0.08957079090605985 0.03208584378781706 0  0.0911215629475056 0.03589286133546995 0  -0.03101418438135299 0.08449912904815204 0  -0.08115681560869256 -0.03956501125789385 0  -0.07676458995540056 -0.03278562713703603 0  -0.003918718468937557 0.04458348448262255 0  0.03209509935511937 0.03127918363720333 0  0.08229511737931043 0.01510262760103431 0  0.04736077121136113 0.07658165844267126 0  -0.06930193571679465 0.03415295732976577 0  0.07497178775144489 0.001287846023402546 0  -0.02933190763014907 -0.04226315300826283 0  -0.05856895964014411 -0.04338327262347757 0  -0.07400267701892163 -0.02446293310129437 0  -0.07376366047682782 -0.02244034108181337 0  -0.07685188498969149 -0.02170365776621259 0  -0.076956196163412 -0.02500307035162476 0  -0.03381878861225518 -0.02475099125511089 0  0.02916101519173293 0.05923003242346062 0  -0.07750144661348944 -0.004336505441002372 0  0.04244536239597128 -0.04566323981204729 0  0.06535028041018134 -0.06986241109698867 0  -0.04454272740219475 0.005267162695306216 0  -0.04419324678725264 0.009179191664765211 0  -0.04674937551958659 0.007329356292677692 0  -0.03164968058512699 -0.06088668890322421 0  -0.00676967962788802 0.09818439984529001 0  -0.04650625469476195 0.01129371953380756 0  0.04863667279501935 -0.07623742021624416 0  0.05150324149876555 -0.07544433945892198 0  0.04811803690221927 -0.07335823515919215 0  -0.07201138798890644 -0.05008173190714665 0  -0.05524918567860294 -0.02543751768081255 0  -0.05317805151919148 -0.02792689987406708 0  -0.08572323892936282 0.001023749937308635 0  -0.0843580785558091 0.002503413853317118 0  -0.08798466501221822 0.001606372898872482 0  0.07645757509836705 0.04941351879359986 0  -0.0836171399726859 -0.02875893944661481 0  0.08401436105011466 -0.02091389975563141 0  0.07998678387746919 -0.01961964730001018 0  -0.03371403330884423 0.06090230180994718 0  -0.03611705756512902 0.04869218867798816 0  -0.08275343250823188 -0.004620123133894935 0  -0.07945923521937466 -0.002825631184201901 0  -0.02248793420981618 -0.07283346214386556 0  0.06243695553574404 0.05704149210980706 0  -0.06787497043818624 -0.04086719377731565 0  -0.04278434352991171 0.0420618569424762 0  -0.04000548115092127 0.06941231093884273 0  0.06990000080566902 0.03914710592060833 0  0.06863307379914525 0.03723030742319688 0  0.06647203989580759 0.07189616531441889 0  -0.03184262654274318 -0.06575218521539396 0  0.0573607494021235 0.01837852960216631 0  0.02487948182032798 -0.09245897254662266 0  -0.02783251763734701 -0.06188255282238971 0  -0.02252158253300378 -0.0932956931435197 0  0.04076336702491497 0.01062495443533017 0  0.04066674398735927 -0.08932871376225142 0  -0.003222670410340178 0.06776694687596665 0  -0.0303891875101718 0.03642995519077689 0  -0.03328114488572601 0.03762275239177897 0  0.02913084462156713 -0.09168588232789003 0  -0.02162694948092581 -0.0490136676283511 0  0.05595721783233941 0.05229433922372213 0  0.08252460482465232 -0.003284728162091106 0  0.06276749524712325 0.04394547240833171 0  0.04405350176249492 0.01903036486922082 0  0.06239885713896043 0.065962630181205 0  0.07673695661547877 -0.0215889952348292 0  0.04007677728196534 -0.0731155460485233 0  0.05013853055778567 -0.0439794559632154 0  -0.03580511479919049 -0.0217362273814109 0  0.0008603177740116763 0.06050669517688993 0  0.02876974035976602 -0.05927052256874121 0  -0.04077012705031467 0.007698487827721251 0  -0.0984212178327452 0.002464254787196028 0  -0.007694999082852599 -0.05371169796387227 0  -0.03863627946112402 -0.02705639593777033 0  0.03174496929872771 -0.0773558040504739 0  -0.06139356176050517 0.0586157969539082 0  0.03265600963303222 0.05126299038407039 0  0.04825255839396835 0.0697590406874251 0  -0.03995784839829938 0.06353164834494095 0  0.03572068239478324 -0.0563472932726538 0  0.06522135463689835 0.05958578675087571 0  -0.0433423239200553 0.03553129022076569 0  0.01389389071873093 0.04273756825643039 0  0.03703271373002857 -0.03454386726855537 0  0.03442605570267011 -0.03385394751771492 0  -0.08252333380023724 0.02408460043878228 0  -0.0109958059410085 0.08079935711273489 0  0.01351649137935191 -0.08757757068974507 0  0.0490089990719768 0.01528932863777404 0  0.03281628461722712 -0.06868571328789948 0  -0.05163640253085321 -0.04481265987666373 0  -0.05422981214124294 -0.03168225852526086 0  -0.04017268964776848 -0.02388934741172054 0  -0.06112303774149298 0.04920334857444792 0  0.05901403343731015 0.04988966036649292 0  0.02522182264870561 0.05918274666124389 0  -0.04208129811295602 -0.001248545657746329 0  -0.04171511133790766 -0.003255999645730819 0  -0.0447593804770318 -0.004334067701363779 0  0.01765309403345821 -0.07912293658086851 0  0.04739610525329802 0.0214051424142792 0  0.06041471808728872 0.0207569595594985 0  0.08055130227839236 0.02964025698186631 0  0.05707791924104292 -0.05929040479049653 0  0.05842522428521839 -0.05704961276806649 0  0.08340142804696395 -0.01511348926221485 0  -0.06615123538682499 0.05111216524992288 0  -0.06806628484776503 0.05042681140985302 0  -0.005886209287762682 0.0900371804136977 0  -0.09192823414818677 -0.02798813339118868 0  -0.07253367998449395 -0.0471880057020168 0  0.01999206543323618 0.0838749088082766 0  0.02243260018862539 0.08187589662975954 0  -0.03962592425458629 0.05993530341892726 0  -0.01424583436576398 -0.04990311191788006 0  0.0794713614878394 0.04265401227997576 0  0.07758237126885867 0.0401997366230859 0  0.07667758227878919 0.04391195891668989 0  -0.01328996874780341 -0.04638261580120441 0  0.08229559989298095 0.005423094048049954 0  0.052976223484147 0.01483591493202149 0  0.05512458003020946 0.01364862896121459 0  -0.06745049212641109 -0.04305634866399618 0  -0.07166340284837713 0.05089373342760626 0  0.05999305446919691 0.07461239078528964 0  -0.09041844364329162 -0.03150716261747768 0  -0.06855659282518839 -0.07073605734196889 0  -0.01988490122479619 0.07324930920089551 0  -0.06368860388088218 0.05550294651365649 0  0.08060349875120812 -0.05606332086229217 0  0.07688397122797755 -0.0559773581769668 0  -0.00375049834885881 0.08106196014584106 0  -0.03357213016390721 -0.0287821501454164 0  0.04201967815297839 0.02625852008922674 0  0.06639229492222461 0.02204805376446364 0  -0.08091883094505584 -0.009665363484389063 0  0.08384161402987057 0.03454023472846431 0  -0.08929025476564319 -0.02160207178032362 0  -0.01578734333765415 -0.06515657920405921 0  -0.01849856858646989 -0.06683704619891831 0  -0.01466006783447516 -0.06765795249367182 0  -0.02062178352531977 -0.05492915019837018 0  -0.03622383071857591 0.04210574927755809 0  0.05291672293720176 0.01677556603007083 0  -0.05304906724559916 -0.03763435677446164 0  0.04884281197481082 0.02776746514231035 0  0.06804108342823928 -0.05039648878752191 0  0.07687116795415194 0.05189020353802359 0  0.03099808078260676 -0.06024819368503165 0  -0.01772261417942695 -0.05085920905162695 0  -0.08969779194005921 0.0003607800320476516 0  -0.076068361265513 0.06189326579328408 0  -0.07114392715484805 -0.05253575811384507 0  -0.07288595020424675 -0.05581788753370965 0  -0.07436417704648349 -0.05316884106076542 0  0.07951217272126429 0.01721571386962458 0  0.04896802935487982 0.003942490450067481 0  0.04729567611243179 0.006720527833183301 0  0.01540062987546003 0.0948766219599701 0  -0.07919341112859066 0.04642282353045542 0  -0.06852280969591183 -0.06613993484933924 0  -0.04898399328229147 -0.05009885932125136 0  0.01502470865660955 0.0861586316134459 0  0.01281124168352919 0.08298929074307776 0  -0.0329684924980904 -0.04319137868191184 0  -0.0006462550033972448 -0.04154993969406413 0  0.01040116638380891 0.08791398651554698 0  -0.0715791288070978 0.04862488387111316 0  -0.07293122442035288 0.04613683287422145 0  -0.02719005844523939 0.07014777725146297 0  -0.02830947758083553 -0.05599805737991683 0  -0.02641267650455663 -0.05337055312700867 0  -0.06375201912893032 0.06470286646826209 0  0.02022737762067237 -0.09419891894341219 0  -0.04361931943934224 -0.02337356561363443 0  -0.03387121733005626 0.066803640476631 0  -0.02425515832265307 0.04501558345402563 0  0.04925462520914015 0.07703922952488232 0  -0.09152489664435146 0.0353449990829892 0  -0.07994924598009753 -0.0301637413855106 0  -0.06999774469955244 -0.02176309245260823 0  -0.005686283746295485 0.06464306532993613 0  0.07030465802688146 0.06288895925764247 0  0.0568856660822977 -0.002665920967444233 0  -0.06321776216121341 -0.06248380572724544 0  0.08317233582252427 0.01839217735704167 0  -0.01572344372859254 -0.05991561943950224 0  0.06666822850657043 0.03148961416089981 0  0.06373793972670326 0.03036151334507219 0  0.01289891046866525 -0.05710805059027761 0  -0.02328763924869871 0.07839772878335055 0  -0.05992755250268944 -0.07497225876346805 0  -0.04002580450320419 0.04316130695012774 0  -0.04581075632692368 0.03511389018479714 0  0.08687614322878917 -0.02380518046348428 0  0.08889519020668603 -0.02462838741737301 0  -0.01625422619375226 -0.07147239741136131 0  -0.01805886148892816 -0.07220288534408885 0  -0.08899957574764944 -0.04107227892270949 0  0.01275482551749449 0.06552222016100648 0  0.05845753011155015 0.01477917306197471 0  0.05675542432789658 0.01586961238198734 0  -0.05661010506256613 0.0465972464860429 0  0.01424034010866053 -0.07033569784837752 0  -0.03081185465246186 0.07009145471780029 0  0.03958403102842321 -0.01344219061666555 0  -0.01185959397798728 -0.09328445725358452 0  -0.04494891657554735 0.08008513069993563 0  0.077568236589474 -0.005937588493012657 0  0.07811171041845144 -0.003773781933033597 0  0.08132496963996547 -0.005943430339919539 0  -0.08267966578387063 -0.01895257051346695 0  -0.08183025226407904 0.0331190359792056 0  -0.08229946484960138 0.0303983661174222 0  -0.08528267848066812 0.03277554550998239 0  0.05677820253166831 0.008144527701319603 0  -0.09764528779579661 -0.0122858051402559 0  0.01554913901439565 0.06733903148013676 0  -0.08264775560850693 0.05364757168803724 0  0.04687708839152309 0.01382363463009873 0  0.0465551089845341 0.01191925485917852 0  0.04619267194184359 0.01771647834648747 0  0.06792852806465494 0.006800782270186826 0  0.09103217457788004 -0.01481644159075525 0  -0.08776829670061928 0.04350209913276806 0  -0.0758319398978564 0.01802928033394782 0  -0.07116229303859865 0.01214668603987363 0  -0.04961834395269425 -0.06005988524507206 0  0.03815402054459991 -0.09036973914977181 0  0.02417567129019993 -0.0373465313149497 0  -0.08835449172634337 0.02967957700474936 0  -0.05498628077170244 -0.06417289532697992 0  0.03444805210032091 0.02833763583744347 0  0.03662525170234419 0.0273785544345422 0  0.04739168180250779 0.0378264025011575 0  -0.05415880027865039 -0.01781609492846965 0  0.05750734673743323 -0.0422136881336257 0  0.02177831024769125 0.09190182265591827 0  0.0237765080115927 0.09184803113491619 0  0.02259802865530698 -0.0396524140012972 0  -0.05216768249386149 0.02839160137226399 0  -0.03387530931464637 0.0704151712248408 0  -0.02292992139129294 0.08155455774609024 0  0.01621729832045801 -0.04824212623239286 0  0.05072035024330139 0.001874621877544274 0  -0.007540217242720786 -0.0450595766608128 0  -0.05935961466546458 0.01163744637656879 0  0.04885909086211681 -0.07004851788373449 0  0.02199524060422659 0.06638570840977752 0  -0.03771009435343218 -0.05172087729715497 0  -0.01987717522915499 0.05091631191131327 0  -0.01722674308365395 0.05292851573703072 0  -0.02098442163827756 0.05332823239894043 0  -0.0007040119970064487 -0.04536060925861379 0  0.02059989399286134 -0.06250861855226159 0  0.02438857322446954 -0.06216106836340998 0  -0.06143452840338378 0.0300499322544921 0  0.02704326626706447 0.08251181422299383 0  0.04105577491328475 -0.06173291723113734 0  -0.08507528831358871 -0.04560974969521744 0  0.07527551056784144 0.04223344625648551 0  0.0006040755186928312 -0.07438723578457314 0  0.0391771180154197 -0.04770874959328583 0  0.009582072397264043 -0.07586374247740685 0  -0.06486434405339808 0.05935890053226318 0  0.07484103659761041 -0.02749096312434308 0  0.07287678682499783 -0.0279642777582192 0  0.05258496582767257 0.07140104845703647 0  -0.07951845163820238 0.007443838150179247 0  -0.05460791467726445 0.07212026732865304 0  -0.05391130915728114 0.008802033392069714 0  0.02404406268555107 -0.07386883185609865 0  -0.05676858599581841 0.0505242737774201 0  -0.03385249586418608 -0.07308984695033401 0  0.0269211705114839 -0.0532362346869551 0  0.06750536442828566 0.04150684946058422 0  -0.008133877913314772 -0.0798857037284159 0  0.07144441280765529 0.04159016240807768 0  -0.08670465340061989 0.01972677778416602 0  0.03695151523677905 -0.08499310712853964 0  0.01094335024241208 -0.09752393316245722 0  -0.04472157701117532 0.0655533768096991 0  0.08251403855836109 -0.02451783159112242 0  0.06366818404280587 -0.03487353721617991 0  -0.09680413627812698 0.01655363929253048 0  0.02206154055554996 -0.04630841655139079 0  -0.0652276452020442 0.0110037352304162 0  -0.01115243732788472 0.07687136210163166 0  0.09210613148930308 0.001559199018930322 0  0.0852031267106175 -0.02474546633762238 0  0.05583997899722663 -0.0469262861476583 0  -0.04611330061138953 0.02966039004524656 0  -0.0485093100636519 0.01405578061620028 0  -0.03179579458321757 -0.0378834948413746 0  -0.05442450812097108 -0.06650049040819329 0  -0.0563510241439768 -0.04263266159935936 0  -0.05709979845459427 -0.04644058725226115 0  0.08011839373419698 0.00205344365575048 0  0.0868275141941144 -0.04058751034405875 0  0.05410470776890631 -0.01090169435224409 0  0.02019275288853314 0.08632427465605766 0  -0.05553641303253625 -0.001688053604108602 0  -0.05456488511494099 -0.003778100066191795 0  -0.0390110894605484 -0.06625928999516914 0  0.0447296485107954 0.000836374714876989 0  -0.02622382581501982 0.07925924000957967 0  -0.04944437280207278 -0.001780368581630059 0  -0.0519022621595271 -0.002828133273871523 0  -0.05309374444012416 -0.0002648993409130111 0  0.04731551026222092 0.03479336625936858 0  0.07019300684255006 -0.01930356818343142 0  0.07138602593354175 -0.02091736557921744 0  0.01642813355976408 -0.05132477619652927 0  -0.02414470013547499 -0.05594843372818526 0  -0.02274272971524247 -0.05799975044854327 0  -0.02663905591545776 -0.05769175193021979 0  -0.003093631119514764 0.08806311006761472 0  -0.001480096315948829 0.08920158366687791 0  0.05119359680547027 0.04444709279705651 0  0.04716075812916465 -0.08603673054866939 0  -0.003716944069764907 0.0466403287095499 0  -0.04845098922913073 -0.07402638247370338 0  -0.05002413756028835 -0.03932232714252337 0  0.01636549210129468 -0.07771184351102342 0  -0.07962269664720432 -0.05668890248802059 0  0.003134019342154191 -0.06269422271871422 0  -0.07015239507765407 0.006284240047449749 0  -0.07012236918518303 0.009414966761030747 0  -0.07068218893797558 0.04039993140934316 0  -0.03961238999115702 -0.01363903632899982 0  -0.050552767076217 -0.01306156850158261 0  0.01427864556898081 0.07726722719694283 0  0.01623688548599223 0.07717121614886105 0  -0.0128327859328365 -0.08706912449369088 0  -0.02049376147188579 -0.05128515075222535 0  -0.02399972532193837 -0.04977783920700338 0  0.075955353575214 -0.03720682445477697 0  -0.08660509021918744 0.0288474134194919 0  0.08645313264679859 0.02005230148200258 0  0.08667738199391919 0.02263928801268042 0  0.08977958868637846 0.02182275915242215 0  0.03825067164385647 0.02992859430609706 0  -0.04084979185058088 0.01741976136263533 0  -0.06982512431831726 0.01618641782002097 0  -0.06937358745625614 0.01317747290234814 0  -0.06648946922346548 0.01482452539015043 0  -0.01120466286913892 0.07397210931987885 0  -0.08108392886079117 0.02283682410081973 0  0.01825476392265724 -0.05991830710929599 0  0.07377448643717666 -0.04614699556916947 0  0.07757939548384885 -0.04666298276448824 0  0.06336823140581556 -0.01544840165376853 0  -0.07213049525049021 0.05835437228795692 0  0.02324587500187823 0.04342604082447121 0  0.02507944945090319 0.04703770312500506 0  0.04074360720829093 0.05393427712665715 0  -0.09481603975506524 -0.02517620553511034 0  0.03255872887767357 -0.03962476757357816 0  -0.06769266395989836 -0.02245099082491393 0  -0.0707836603857797 -0.02496590038012603 0  0.07225982213058546 -0.03581418671833519 0  0.06466249380937879 0.06890159022610777 0  0.06593844574174695 0.06747956097176927 0  0.06775318398389382 0.06817314918012196 0  0.002594461449070727 -0.04956572276151136 0  -0.01348958294364123 0.07007157175143283 0  -0.03299770465439931 0.04967914393753757 0  -0.06046576621257839 -0.03193082427334028 0  0.03525684787624199 -0.06521554040698503 0  0.03658896907486761 -0.06228346004822909 0  -0.08888863202499199 0.006504161632510401 0  0.08319457861184422 -0.03336533639378041 0  0.05488828067103497 0.01809795316411279 0  -0.03703957173664778 -0.04515036345232794 0  -0.0409147795138313 -0.04475090703557181 0  -0.03930915473435075 -0.04302357600054157 0  0.0565309890603455 -0.08020230413636459 0  -0.06718077038606363 -0.06056717760202946 0  -0.0611936823087833 0.06206554826952067 0  -0.05277965526665868 -0.070041646132007 0  -0.02542818198802038 0.08660514236741154 0  0.04096400582270479 0.00833503226268807 0  -0.03869023480454609 -0.01588424147250701 0  0.05524165264413837 0.07006730428965403 0  -0.02584393633316799 -0.04393215633066916 0  -0.0283224448220518 -0.04489695415048173 0  -0.04051488575924817 -0.04101866027451256 0  0.09762171736072604 0.0114715973842956 0  -0.02432325398109454 -0.03402762711113726 0  -0.0345512784268861 0.08551100569185023 0  0.09252510865038381 -0.02420685799094078 0  0.09559034034114218 -0.02249205782236371 0  -0.0332598398683887 -0.09278337273485994 0  0.04112646008402687 -0.02607409394558918 0  -0.07240477793917956 -0.06613831138552556 0  -0.04629025160059052 -0.0483052434328903 0  -0.01866613084932274 -0.05429610544364987 0  -0.07970512470615065 -0.04315581147527667 0  0.02723595266132508 0.0914559688823372 0  -0.06353001898513203 -0.009732010590589098 0  0.04665453783105924 -0.002226358437266407 0  -0.07552002631954595 0.02487610429978096 0  0.01650099057765066 0.08055013102039774 0  0.001073548067588002 0.09472509096720196 0  -0.06625878674601723 -0.01344153244372242 0  0.02198481853650082 -0.09574306807205919 0  0.06408687715321354 0.06306824477665518 0  -0.06472563836956921 -0.07129597960061988 0  0.08189015445796963 0.0546246396565107 0  0.09376966940853505 -0.01257135632485229 0  -0.03266128188778925 -0.04080643600832339 0  0.09361358619182668 -0.02971083384440332 0  -0.005782100709525601 0.04103886560181349 0  0.02258996296580112 0.09580922189046262 0  -0.06709353906542621 0.02291916311650512 0  -0.01676362612651997 0.06896862671230952 0  0.04465924109139165 -0.06865973522980368 0  0.09121779031178197 0.01023116339205957 0  0.07088043486035792 -0.06162378235465678 0  0.0429373167146355 -0.07212126720190329 0  0.09427297171390439 -0.01615843550371591 0  0.09654132999809932 -0.0172731949073135 0  0.02980059496165996 0.09140925063926304 0  -0.01338230783598578 0.0796668287041768 0  -0.05274837495087758 -0.0489824064920056 0  -0.07895207539494274 -0.04921988341188586 0  -0.09045792121104455 0.02083420904341288 0  0.04261847881374498 0.04676012671347199 0  0.07762528708766583 0.03203436267335098 0  0.07636914862502832 0.03395128338464509 0  0.08004185731793981 0.03442855483071253 0  -0.03124315683351862 0.04327665841831822 0  -0.04281467501547272 0.007212962782213624 0  -0.01185458057944066 -0.06554060511467819 0  0.0184994346550777 -0.05128327092252857 0  0.04768584303015661 -0.01864583735437029 0  0.0003753207597600977 0.08045606889371053 0  0.04392013118476798 0.0296227019592541 0  0.06614575538295804 -0.07259954474952265 0  -0.06799121613019937 -0.002223865256224899 0  -0.06210683250389937 -0.0424760803609258 0  0.004496635698171197 -0.04114060192201034 0  -0.02326327590374265 0.09338364382237568 0  0.08730817125563374 -0.01598181824080231 0  0.08616734300866467 -0.01753840526438195 0  -0.06204267736486109 0.0001159670030670293 0  0.04635155332479926 0.05477404701629966 0  0.06348349698405231 0.04025027491890677 0  0.09592788678380895 -0.006924311943687656 0  0.06270660002404611 0.07189309823677389 0  -0.0105588440518656 0.08988368768282082 0  -0.04723501480464022 0.02253829889388972 0  0.007063980889513014 -0.04088766223749071 0  -0.08029183589373255 0.03845094612731296 0  -0.08130127915850478 0.03674290677089819 0  0.03618483959161645 -0.05315138777084589 0  -0.05305151656529633 0.0363980757855856 0  -0.01805773148363031 -0.08861383232075475 0  0.0596634654945661 -0.0695404069606691 0  0.04935383484300176 0.07320079885858215 0  0.04374648616162095 0.07451008790586405 0  0.07593933179389216 -0.05884045930843217 0  0.003040988552093647 0.08025709870414037 0  0.003251777653873887 0.08295154091998357 0  0.0007872678192383748 0.08354620205204545 0  -0.02087363231381085 -0.05743522496431561 0  0.00731089085904828 0.0784541773071655 0  0.04671618498313204 -0.06527286699331086 0  0.03362874758752026 -0.03592954939663892 0  -0.04199957761600171 0.06024290799247471 0  -0.04197607516625746 0.06295615745413576 0  0.003368174053020812 -0.07511199756506463 0  -0.00864131825363877 -0.04743879777795972 0  -0.06618890920880163 -0.07255620124388261 0  0.06836652672302702 -0.01124489572753716 0  -0.03806748408347223 0.08991389646635035 0  -0.08180965891967107 -0.02256128954642682 0  -0.09229671203401706 -0.025300416179542 0  0.07455290849975739 -0.02442724948496282 0  0.08080205694482873 0.02142702939169746 0  0.08124408691870838 0.02435947881074059 0  0.08409183157620605 0.02304411704760952 0  -0.06495539180022025 0.04888521591929397 0  -0.07218755191274398 0.0329486925834973 0  -0.01169203414157353 0.0978671180993404 0  -0.09316179303286939 -0.01722076383009114 0  0.02099724085261444 -0.06811991530025992 0  0.01462739431650698 -0.09712020107449792 0  0.01451060704474942 -0.09347051671796519 0  -0.02678978022684563 -0.06995974725010327 0  0.06267543594457964 -0.01721942598148747 0  -0.04477101639624373 -0.02640750028964603 0  -0.04689525748591082 -0.02528901518229943 0  -0.04669813253606174 -0.02335737399829057 0  0.06305811183920333 0.0157830029531609 0  0.05730163764462459 0.01133652684020745 0  -0.0837126097290718 -0.02250566199152909 0  0.0591950298937229 0.02664519923552004 0  -0.04682713213381188 -0.07657583007835467 0  0.08662271805228246 -0.03381942172811032 0  0.08656725034551742 -0.03133764311667134 0  0.0410400861003473 0.07623364356520845 0  0.04291482174984934 0.07831279475842304 0  0.0401141796289366 0.07977212565744979 0  -0.03000816616574751 -0.08544965316669979 0  0.05506782790229865 -0.06331852017090381 0  -0.05783459863759331 -0.03140287249700453 0  -0.08099373643706304 0.01397959772883351 0  0.05280360694608004 -0.02083385175526093 0  0.05362227004773097 -0.01731378723586 0  0.03658805866051507 0.0620328755352728 0  -0.0003943512510390583 -0.05305879499961644 0  0.06842526323915266 -0.06025534389964511 0  -0.07239254787164601 0.02416554027506175 0  0.01200206398231316 0.06819732586675757 0  0.03743658685003693 -0.03240212680415747 0  0.02824629168705861 -0.04969604861856769 0  -0.05716687165514943 -0.005186691757733181 0  0.01337769763759783 -0.05080742625214166 0  0.03016523686251039 -0.03820421769255925 0  0.01735685155529576 0.04093205387101541 0  0.01711973098846361 0.06889810248347812 0  0.01549057069588009 0.07115005082577021 0  0.01937462235048775 0.07056697647062393 0  -0.07524133918082439 -0.007794287891721543 0  0.05748686493660391 0.03357175030324399 0  0.06004203493380314 -0.05187007980419723 0  0.05970910318756819 -0.05414926255292339 0  0.05657915300503646 -0.05342449027886821 0  0.08467356584408146 0.05054902011806173 0  -0.06994496225808068 -0.01391225409914962 0  0.03044504057755107 0.06108639067615804 0  -0.04012160054657956 -0.05575333092778782 0  -0.04767127607490079 0.001291080376037953 0  -0.07055937246173986 0.001772861913607448 0  -0.06957973961533033 0.00411106432091863 0  -0.07963403637401681 -0.03718292647441884 0  0.08508082065981516 -0.01393018155496531 0  -0.04259484168111349 -0.0386311720977365 0  -0.01785338305588761 0.0661525892164883 0  -0.01128682715796665 -0.0574436389641191 0  0.02243615626414082 -0.08186288817885738 0  0.05568189906949116 -0.03569285987235772 0  -0.0535324796448103 0.0754752736867462 0  0.01429812069802436 0.06252516829094874 0  0.06721064239267256 -0.06264470151974974 0  0.02508306872561317 0.03768787631143564 0  0.0272306498924712 0.03851642055052078 0  0.02790033267280139 0.03520906247050213 0  0.02657634798902717 0.05341528209401818 0  -0.03360926544719794 0.02410054444088579 0  -0.04309247342026797 -0.07588124769205691 0  -0.01833666675561927 -0.07972525907409514 0  0.09218337700474284 -0.02120673470584237 0  0.09282084562346353 -0.01788233467207011 0  0.04223670373914742 -0.08252644474037125 0  0.0538497308562903 -0.04064683880348621 0  0.04903128544468608 0.05716124642302567 0  -0.03522086904245349 -0.05426158874406922 0  -0.07436748932486208 -0.005298361626790233 0  0.02885604159950105 0.06888261448739522 0  0.07695293141857149 0.0565159940065496 0  0.04388153957996481 -0.00982112128352299 0  -0.06345702463236098 -0.05950806192082173 0  -0.09432122842886694 -0.01352466675625326 0  -0.007889832992688851 0.09530914176886617 0  -0.08074108235291823 -0.03363492628895277 0  -0.01133745460196189 -0.0827296002065232 0  0.002269611409289619 -0.09806280364747015 0  0.02793099098267424 -0.04609904641866047 0  -0.01815553343502709 -0.09125657887286925 0  0.08957157647936244 -0.02085036226662948 0  -0.07828976542778306 -0.0350730579829476 0  0.03789234976506225 0.05199702744579809 0  0.01886477417200922 -0.04829744702187905 0  -0.0194042753667988 0.05685953318247957 0  -0.09284703689318397 0.01799149970876313 0  -0.09648500408008945 0.01943354129496411 0  0.04250254225544249 -0.06956988642404106 0  -0.04918941219629474 -0.06994340347539067 0  -0.05768663450401242 0.02270505220830789 0  -0.05600462231597148 0.01955136424777547 0  -0.05903412900475154 0.01995966334460607 0  0.02651231061443085 -0.03883845806885299 0  0.02493286806901684 -0.04110243410192518 0  -0.0670740591970803 0.006991892007034723 0  0.03622059133082053 0.07522760910848059 0  -0.04495504371907162 0.08733417751834148 0  -0.05734622617443038 0.01364596249193366 0  -0.06408773903565712 0.07118812081310941 0  0.00393954571863462 0.09413957584984234 0  0.005847040639110556 0.09490484487803777 0  -0.009252416841967405 -0.08792140993247537 0  -0.01029936090330862 -0.08525488475003855 0  0.04445164827428871 0.03557661690856417 0  0.04382869879540011 0.08786996451931854 0  0.06115933101100361 -0.05786667754417583 0  -0.08141842621048173 0.02667716259849497 0  0.05198357261839398 -0.002948665528452671 0  -0.01627649360574601 0.06518860452821848 0  0.03363835406711258 -0.07563621886600008 0  -0.06063809117398275 0.008126534653887631 0  0.08552664531143338 -0.008163542991613332 0  -0.007522943156611811 -0.08370301501823493 0  -0.02897187806773113 0.04455633802328654 0  -0.03839754878779273 -0.03933149834425428 0  -0.01194149086642399 0.06784024767501411 0  0.0454898736724331 0.01509250531077337 0  0.08085971063445375 -0.004102460008795246 0  0.001757655131864184 0.07432700435724524 0  -0.07207037893006202 -0.01877409790746807 0  -0.02156351504290734 -0.0693548940800882 0  -0.043795493404062 -0.08781776945959742 0  -0.02861149916425327 0.04079035120965557 0  0.06834528056952377 -0.01428393012986044 0  0.04228986540194473 -0.01625807170490143 0  0.09182781702646854 0.03418375304952368 0  -0.04103404276422799 0.02726710333309931 0  -0.07969933770324573 0.05784692532336226 0  0.04402978647212663 -0.08041476108018987 0  0.000616422436907996 0.09849781868619119 0  0.03264156275739494 0.07491299865412458 0  -0.01179030959660641 0.06419867464112361 0  0.08174645128369754 0.04047662415930334 0  -0.03697239016614476 0.08144570361105985 0  0.09123291247850279 -0.03728919776190651 0  -0.08984832017280825 -0.02801248785395305 0  0.08013552916606387 -0.01631229758060107 0  0.01692456034044774 0.04381726412175842 0  0.005364125773065464 -0.04355676895324847 0  0.006556139310225497 -0.04504679929062001 0  0.008502400481556366 -0.04445895564396566 0  0.005949985096397098 -0.04684332154584799 0  0.01359921380019318 -0.06489709606362025 0  0.07117096609607844 0.05757253391563624 0  -0.09635025989703407 -0.0007757029143174987 0  -0.064975682911911 -0.06194007875383718 0  0.05203845988409271 0.05395207572779792 0  0.09459976099970653 0.008901491324001563 0  0.05018289093232836 0.007531235914893101 0  0.07844295297654981 0.05308253139275287 0  0.07961935417760162 0.04957990971073916 0  0.0442452969205532 -0.05403772523768626 0  0.04282533810251506 -0.05599283320929653 0  -0.05061862097793072 -0.01865354271701741 0  0.0700171118743543 -0.01515597165404635 0  -0.0613043431660767 -0.0286565444597265 0  0.003760962906999302 0.09230892340702483 0  0.06341050576936949 0.02296796437424968 0  0.06043985240367892 0.02446264430281123 0  -0.04298877847661595 0.05704124041882896 0  0.03327843663429407 0.04758896551647207 0  0.02120702783580836 0.03930980986541653 0  -0.01026498979726713 0.06277639157278937 0  -0.03846554395799675 -0.06344542252424167 0  0.04808694559273612 -0.01505728145788247 0  0.04484396829275834 -0.01352246234448626 0  0.06283842122274273 0.001868550875336678 0  0.05981309348147608 0.002644288454918603 0  0.009269041576951274 -0.05803953995970384 0  -0.04244417806815478 -0.01547419340766334 0  0.01139240108064839 0.0456902941891715 0  0.01423574337314595 0.04632117310779065 0  0.05646952291812252 -0.01255381142976975 0  -0.0692737027090686 -0.05728258161235123 0  -0.06738822434039363 -0.05746875314103631 0  0.009319751733242973 0.08426322682954203 0  -0.03252233305167693 -0.04694255764028959 0  0.02984216856345182 0.03953357298134331 0  0.03270787881226477 0.03908319727343482 0  0.08391876812731897 0.02009696743280644 0  -0.04739366518985011 0.06537927601278271 0  -0.04836650447257201 -0.01558702352856002 0  -0.01061647065326736 -0.04403210403738925 0  0.03634392316359712 0.02523173082732248 0  0.05208244404287856 -0.0497605973423584 0  -0.07066525337689991 -0.06387217493628412 0  -0.05252725537316254 0.07211782267252409 0  -0.05365564361922583 0.06861644824547683 0  0.09817575012143223 0.003006571823106979 0  -0.03237259796287601 0.06334897079860162 0  -0.0892764655817286 -0.01091081482338979 0  -0.01397906251306599 0.06226329070402669 0  0.04275733025889411 -0.04885000792056568 0  -0.058036171895859 0.02909394829840387 0  0.01888393297653711 -0.03943674531016819 0  0.05038421070697163 0.04216923880656309 0  0.06063080571533702 -0.03273239105108652 0  -0.05750704623324756 0.00752721766657527 0  -0.06087479124991099 0.006087838890653749 0  -0.05660095868179799 0.009958471872643145 0  -0.0405985310369592 0.07603328222625999 0  -0.05306662432080019 -0.04064204077456156 0  0.02715637260081763 -0.04245933587437318 0  -0.0868324760751014 -0.04041986654032249 0  0.0804965168423399 0.01879026606869593 0  0.06554941312056162 0.01343159830101141 0  0.09579272123940254 0.02321982823302369 0  0.07386154202974414 0.01293953706490454 0  0.006023181002397402 -0.0932741471848184 0  -0.07888566461913801 0.03470638538218762 0  0.0004313477252421453 -0.09298493522301761 0  -0.09145214795565858 -0.01638099859826121 0  -0.08811400476473635 -0.0170978511420084 0  -0.04654341172201919 0.04091930730707095 0  0.03800417170714904 0.01626373881899512 0  -0.0339250197982356 -0.05081398692825407 0  0.03407315493751207 0.06116661276373438 0  -0.06831023907595515 0.03167004225105474 0  -0.01050503258938492 0.04203446069211828 0  -0.04613859202042324 -0.08263227737646645 0  -0.04473760310479261 -0.08401596153465035 0  0.03299962246519844 -0.07179699331024701 0  -0.007178851576374545 0.08864795042140654 0  0.07446544327587219 -0.01842274353288214 0  0.06493016684193584 0.07074375500328127 0  0.06769373632154201 0.06213964895384698 0  -0.06196653737500619 -0.01511249310377956 0  -0.05978398485224819 0.0165794761249608 0  0.02560845284528014 -0.07580473748350433 0  -0.06748547337738292 0.07119191937917528 0  0.06993100389368462 -0.001392705349355027 0  -0.0007878753046873387 -0.07178694031680498 0  0.08649590274719181 0.03975618107538468 0  0.0319259723627032 0.0441834808535272 0  -0.06195802671457951 -0.01942307609249787 0  -0.03869314397160122 -0.04737148028818985 0  0.01958827870061174 0.04386936684379455 0  0.02893930664389096 0.04189645323438111 0  0.06639799876735956 -0.04813614976984583 0  -0.05206695945822978 0.01490380145557663 0  0.04564945570789786 -0.02871883599205411 0  0.04596706640993799 -0.02496493706772512 0  0.07154709080931666 0.0153143792201031 0  -0.01878637606890449 -0.03733652451584691 0  0.07547214832567367 0.02443146823715197 0  0.082989940639496 0.002120987490222753 0  -0.06286459314662959 -0.03250732823293393 0  -0.0638854495553156 -0.02967309646685322 0  -0.0661528756007571 -0.03113968479681356 0  0.0570616722266046 0.05916807974282412 0  0.05447282243475551 0.0577512911660555 0  -0.003980603314828479 -0.07045736050746432 0  -0.03787964189504724 -0.09104638675301528 0  0.04469674011512081 0.08451862197846136 0  0.03052257267030782 0.08082153870735202 0  0.06472997778918771 -0.02850602758909506 0  0.06622666160847811 -0.02964604119775173 0  0.09582924415232746 -0.009871716421460994 0  0.04607735094927313 -0.03090392033671824 0  0.0482891585436383 -0.03123288271705398 0  0.01333937464304663 0.05385858200767988 0  0.05092097942937139 -0.0533540240416299 0  0.05305396945557558 -0.05230783878432527 0  -0.02974814763035467 0.04839556152661851 0  -0.03007365942698074 0.05118606311876811 0  -0.01674547469723469 0.09170836715123577 0  -0.05802260879921407 -0.06069267869520926 0  -0.03653681879275558 0.06786794374230412 0  0.05799934900001368 0.05342038224099132 0  -0.05478884809904964 0.04695163622963019 0  -0.08687621968405751 0.004974259748823604 0  0.04274031266099786 0.04860777904772212 0  0.0572760031461027 0.05588285895549418 0  0.01446438270660656 0.03869694126534867 0  0.07253456543064454 0.06357204384750169 0  0.07383260379518253 0.06014505507422902 0  -0.04927065293968862 0.04692753811033674 0  -0.01598417740141689 0.08173069227372896 0  0.02475856402194468 0.05066911909826838 0  -0.01307372607799688 -0.04262801580364926 0  -0.02730502754582147 0.0433540735727066 0  -0.04518121716320538 0.0516566841695385 0  -0.04327356406329946 -0.05370468928483126 0  -0.06751000344898433 0.05487946380546648 0  -0.08930324531356842 0.01813195639266196 0  0.08794531025208062 0.02903778915300194 0  0.08941898900859441 0.02765725726419204 0  0.08654531373307814 0.02577651490148706 0  0.07325011864197163 0.04742502158594808 0  -0.08048268247287042 0.0514393820451671 0  -0.0219907802666887 -0.04059861651479335 0  -0.02151258787409882 -0.04240615863083595 0  -0.003522690922591503 -0.08197193153364284 0  -0.001161257334557337 0.09586751109978096 0  -0.0477886161647982 0.02487192807467942 0  -0.08605662872467792 0.04080575110278136 0  -0.01656396019627914 0.04500371868427917 0  0.05088664972672553 0.06460932746119295 0  0.0192355465437402 -0.04255744765798177 0  -0.03438612872069986 0.04236974169851918 0  0.02539483183503893 -0.064018846716143 0  -0.006804232373152617 0.04735402408740967 0  -0.00490391257660778 0.08454906287758163 0  -0.002932768419816953 0.08474860442573177 0  0.01681174819341899 -0.07594477132539479 0  0.01126490400637564 -0.04918811867868231 0  -0.03987388262677291 0.05501733716193416 0  -0.09051575763271422 0.004611337784632327 0  -0.004412639680424161 0.05251632271651948 0  0.08468505476344507 -0.05055587885384617 0  0.07622798953446029 -0.06198292691106205 0  0.07130450834697043 -0.05212946850479182 0  0.07380256482015192 -0.05043957058716343 0  -0.02710993590677048 -0.04107436419708495 0  0.05630561972503181 0.05017733383768722 0  0.02204421228678622 0.04653104219591063 0  0.04747579950012883 -0.03439305304812935 0  0.001165725095299544 -0.05457849884714739 0  -0.0235137461691587 0.04725472302648009 0  0.0383349985546542 0.04266036709139398 0  -0.007542404007698908 0.08119077403149209 0  -0.06923280536446046 0.06002581345985009 0  0.05990907713287387 -0.01679113524687214 0  0.05978587584817779 -0.01950256084314278 0  0.0566876881340268 -0.01793427963013397 0  0.09497730992906754 -0.01392626790277682 0  0.08889173414102135 0.02592049499274554 0  0.04625685105355182 0.04116608405556009 0  -0.05346202141255325 0.03402626915977384 0  0.02195634798117899 0.04916172527824483 0  -0.03102172126045025 -0.03148821651344179 0  -0.004316637160940602 0.09847441575539063 0  0.04494434843929357 -0.01622076036858389 0  0.06943116243988733 0.001777601361356011 0  -0.05352045039343424 -0.05328758865219026 0  0.02546384409886667 -0.04472756829169045 0  -0.04015393829173534 -0.01174364467249772 0  -0.04452191743592385 0.06029462072767772 0  -0.04717835515706718 0.06275818428894518 0  -0.04460266446869842 0.0628382357156286 0  -0.0500167276691245 0.01586068669027446 0  0.004167843351818258 -0.04716430599747527 0  0.03308388005196298 0.07315289392901107 0  0.06701489914795877 -0.03245215256309499 0  0.06653740583987007 -0.0350805501404112 0  0.006333379581411516 0.0821705818938285 0  0.08358061187798467 0.008912150581880281 0  0.03758812253583584 0.05520778403853828 0  -0.001773125191235197 -0.08244727303331571 0  -0.0237975724608264 0.08999400329958661 0  -0.04934626694429328 -0.05703578631800675 0  -0.05426992829171062 -0.05602402799429568 0  -0.05487947730742566 -0.05855292284339797 0  -0.05189434467505055 -0.05651218433329495 0  -0.01694998396937181 -0.06157013868524985 0  0.08517293942534419 0.002333289581979172 0  -0.08409186642180734 0.05164020704855511 0  0.02361005673608222 -0.04333077779621754 0  -0.06429117392703218 -0.03582073145953508 0  -0.0619625271150837 0.04227666114252063 0  -0.06375772820994335 0.0427414688853984 0  0.09503873432422699 0.0144604638059442 0  0.03889784557854987 0.01950958172437622 0  0.0002316854812569213 0.04378019625711507 0  -0.00382568244213787 0.07734649166430214 0  -0.005291251096335256 -0.06462272706637283 0  -0.02700594253689204 0.09424283153776812 0  0.04832999899830154 -0.04392103945860262 0  0.003389368422127866 0.08866292842060997 0  0.05602599861116773 -0.04335268059593422 0  0.0346043663370976 -0.05914655036812726 0  0.03767563656298998 -0.06041605315075772 0  0.03396492799496746 -0.06096950428859315 0  0.01694416342133937 0.04642834336771173 0  -0.04230532098117147 0.05231493000446373 0  -0.03945697469847147 0.05006991868037729 0  0.08934868332666687 0.04185322402982113 0  0.07587342554415687 0.03854149401196903 0  0.07386920639886312 0.04002234799671942 0  0.07237821036129358 0.03759999170766161 0  -0.05379735947739071 -0.082094016512454 0  -0.0294633821256572 0.09113314983870643 0  0.02932273787001395 -0.04381844249142368 0  -0.08283282818012154 0.01532446812443075 0  -0.08467985346371411 0.01374317798785652 0  -0.08624929667517549 0.01644764168905076 0  0.01799875632548956 0.08718605724081552 0  0.08654620739411258 -0.004723867261209106 0  -0.09216313113826896 0.02026023896224453 0  -0.008290032973112368 -0.09216694752511219 0  -0.0581514531144191 -0.06945355778652255 0  -0.029707869386276 0.07441970438312571 0  -0.0247847471509794 -0.04680467307330896 0  -0.07417533420545266 0.05238374750400349 0  0.07253650505977577 -0.01353314441393664 0  0.0724030500410137 -0.01698795640617163 0  -0.002151886385238175 -0.06836137372009596 0  -0.08720751034048957 -0.03006417207255424 0  -0.08603035338930633 -0.02820691222315517 0  -0.08340283748202858 -0.05196461677204543 0  -0.04710334836421273 0.05745419541159143 0  0.08238912684728347 -0.02994721207727195 0  0.08362538314499735 -0.03145985992119493 0  0.08003204983016783 -0.03253252884235781 0  -0.06334167637303283 0.04605199650716418 0  -0.06396099962873847 -0.0189013142903866 0  -0.07850889790104568 -0.04744518728157057 0  0.01427295907229451 0.05950214952401944 0  0.08167801415031109 -0.01189438878040122 0  0.0663283687740846 -0.06833188337927554 0  0.06872611585094365 -0.07023244591147593 0  -0.05168248045954742 0.04183914495763883 0  0.04190969465007808 0.03033415858818507 0  -0.02423069378571283 -0.06948551601762773 0  0.05282932478942574 -0.02543012201393483 0  0.06900205691219896 -0.04077175127239094 0  -0.07345524378997094 -0.01103930767368468 0  -0.02086990165740807 -0.07977885150784138 0  0.04262910949990129 -0.01120213977168048 0  0.05621648236837844 0.0618478376279646 0  0.05903120612884608 -0.02978917339552603 0  0.04533329047453716 -0.04818775424729332 0  -0.06383945440430296 -0.05775447808989168 0  -0.05217184956913969 -0.08320493616012564 0  -0.04495130060700701 -0.05188810156810265 0  0.05425984951371463 -0.08245645827429023 0  0.06359086948143634 0.02853933999406634 0  -0.01836767194938759 -0.04079542516278668 0  0.09352731592376133 -0.001830582760188269 0  0.02698745701253361 -0.03211527132936937 0  0.02852253945723018 -0.030502763180763 0  -0.05647680972722392 -0.05511954535987128 0  -0.0701506453603005 -0.00502689885123471 0  0.06225713375718024 -0.0761846913487139 0  0.07979006142942455 -0.04427999162220327 0  -0.04163238853039462 0.08902980385782096 0  -0.06911884042993099 -0.04860448362917333 0  0.05066348814674342 0.05052233499342005 0  0.03493067109896617 -0.04261722360562544 0  0.03313577632962159 -0.0429957220190697 0  0.03924594064766707 -0.01820998821033057 0  -0.08371466989261037 -0.02546525566066564 0  0.04065983724438157 0.04264852844408176 0  0.02244789737104751 -0.08980472637340897 0  0.02657443722981093 -0.09460763890650964 0  -0.08987283000363756 -0.02481565372559924 0  -0.08753782874842939 -0.02206370715734669 0  0.04819114132582481 -0.05107020828874589 0  0.07948288933264136 -0.02775884481662597 0  -0.04940574849374108 0.03446064373457886 0  -0.06295052096212608 0.04931213965538516 0  0.01707279811256135 0.09680678885830679 0  0.01816363450882768 0.09340781590005998 0  -0.07538130833694552 0.047208383886349 0  0.02830091344237081 -0.0339363423143651 0  -0.08742178469689217 0.008588846073667604 0  -0.02239539975821904 0.05899500512848503 0  0.007397626261617827 -0.05465411707061547 0  0.08583374482088886 0.03592362287953148 0  0.0098812065586323 -0.08860442970314106 0  -0.01994542554867118 -0.09408401317742285 0  0.03888813760327354 0.03713896026813185 0  0.0407470624968012 0.03597020710199965 0  -0.05764206462022903 0.03917519686388988 0  0.02864178406872199 0.03325770323326437 0  -0.0774230830994575 0.0495331469895185 0  0.08951995192058183 -0.03402246802603441 0  0.09205013465918227 -0.03407556609500066 0  0.09483283608802938 -0.02411171262732137 0  0.06863102357041984 -0.003449134935994952 0  -0.01699719952253131 -0.05616626900395492 0  0.0566424569852644 -0.04004609178004752 0  -0.03192308582714933 -0.0628291705009766 0  -0.04788960945304299 -0.08330829563064804 0  -0.07116935302957512 0.03638073240903423 0  -0.0731396117691652 0.03469579012838973 0  -0.07469682390614839 0.03712458146074882 0  -0.08758897876534798 0.01255996083183521 0  -0.08098910867116496 0.04011725190158436 0  -0.06585592480864574 -0.009722671914041114 0  -0.06749710969686148 -0.01056560266396045 0  -0.06457047824320651 -0.01281946341503827 0  -0.06540534473840649 0.0183784188217705 0  -0.0645006608297464 0.01620633665869982 0  -0.06255973352878384 0.01928455938638975 0  -0.02146868527542094 0.03876591657435664 0  -0.004667124816388934 -0.08432311632631521 0  -0.006136751567188944 -0.08709891989277992 0  -0.02928943647626292 0.06525091722368719 0  0.07411176997995071 0.05445647803676446 0  0.05913324875877238 0.06642223994727005 0  0.06134795889577579 0.06893577323518511 0  0.05828462263920638 -0.06523052848159215 0  0.03427670956309008 -0.08954282105265648 0  0.0306596458467631 -0.08927278898992494 0  0.06772858094979202 -0.02045808953663794 0  0.02136354459947236 -0.0801263745448472 0  0.05832007932036646 0.03721970691381665 0  0.06882421506329006 0.04272319809770146 0  0.04564284176500003 0.06592544565439137 0  -0.04602210784724304 0.01740052936832241 0  -0.06998426943194701 0.0655277395130397 0  -0.03681177398045511 -0.0573244167088148 0  -0.03390414692307761 -0.05789572189850904 0  -0.06251893723890968 0.009938386957054663 0  0.07049725864359162 0.007756637562301025 0  -0.08471876218676376 -0.01301328657467498 0  0.04645277917282579 0.002369589960035451 0  -0.0170681435034889 0.08943310010715709 0  0.05761554987042062 0.02323484992071391 0  0.04499065832165399 0.03214179714798457 0  0.04674151262551401 0.05145642398450932 0  -0.003125092464875569 0.06293231520835664 0  0.04872368057689861 0.06559256733810653 0  0.03808670515303253 -0.03815848288506377 0  -0.02149506349838861 0.08712289481403636 0  0.09445384215657344 0.01798586308686031 0  -0.0002609216250014327 -0.0433075480181001 0  -0.05723430994566505 -0.02383399017260588 0  -0.05589143872220551 -0.02062670552894696 0  -0.05635085629354965 0.06764962809989634 0  0.051556882822313 -0.07125888164609748 0  -0.05020547300112462 -0.05366653070530377 0  -0.008276977526482926 -0.09011742406401568 0  -0.03654410218613451 -0.06028318440427508 0  0.008809013161893675 0.07274021214330012 0  0.08142470286192466 -0.01848841401264131 0  -0.02134617361249368 0.09627768922300338 0  0.07966534590854424 -0.007111177599002792 0  -0.01330169041981692 0.04543275383666245 0  -0.0312663067779194 0.06513632049760716 0  -0.0462178565584841 -0.05507729561003354 0  -0.03757117972753895 -0.03081747626588829 0  0.07151230806619874 0.006278266639251886 0  -0.03007760690960705 -0.0568963031167364 0  -0.01754746231547591 0.03911744986916795 0  0.0320179313799319 0.08826747414529264 0  -0.02483688633950196 0.03662244768857754 0  -0.02662101757589266 0.0370172258286331 0  0.08127452713364026 -0.04331408123627483 0  0.0268089083878089 -0.06990492381901216 0  0.0218953097669423 -0.0643928970408448 0  -0.0416931285658333 0.07817139626406797 0  0.03035897793999032 0.09333921348945431 0  0.04222842582406119 0.08293576913242449 0  0.06237450346515898 -0.02954327722652754 0  0.03193418504324638 0.06693261030076214 0  -0.05099655629192835 -0.004975943456714624 0  -0.07139288819326178 -0.06759140824929279 0  -0.04727380680154843 -0.04100769776087423 0  -0.02127738808588664 -0.08784790446428178 0  -0.07809893137195184 0.02815631330568751 0  0.07417395774268057 -0.007517024517240734 0  -0.05245008875073157 -0.0244038113769926 0  0.02552148678371056 0.08561677762234293 0  0.02348856087788639 0.08854212473700232 0  0.03257959714841883 0.08290221618592215 0  -0.02656920415913752 -0.03155305090257467 0  0.06800896534942644 0.07096577460711236 0  -0.06901126165375146 0.05371528328344566 0  -0.07606717530930721 0.02132061172921043 0  -0.08059449486569054 0.04226418245283217 0  0.08789227206201565 -0.01012951192571512 0  -0.05019508016505637 0.0596418329526414 0  0.02919343938935773 -0.06964888167342384 0  0.02994948360034501 -0.07133351761739479 0  -0.07901220231281739 0.02570468077126321 0  -0.07890323023751203 -0.01496979135145208 0  -0.08072831835191267 -0.01715138646826021 0  -0.07821343874489166 -0.01850844174479092 0  -0.0492569062115469 -0.03600174597784661 0  0.07645157960298932 -0.01577422638170458 0  -0.07109190357539108 -0.01701825601511267 0  0.08530021221335567 -0.0006257980131270115 0  0.08283912369045129 -0.0004268391393021723 0  0.04331867979895235 0.06327725144277399 0  0.07096605024057547 0.01200303852070094 0  0.002545933829491833 -0.0703699791604758 0  0.01912777352741537 0.03655112696498122 0  0.05227571021974891 0.05744542283201006 0  0.05938177089051049 -0.04549638592053763 0  -0.07440474240484278 0.05571890574690626 0  0.09620775967658061 -0.01902225028404559 0  -0.06660370708947333 -0.04846710787710952 0  0.01381152287984065 0.05129382893692448 0  -0.02918538971011002 -0.09386826626875441 0  0.03934759729458352 0.03133155668903444 0  -0.0418506763462263 -0.02662514666130079 0  0.03022256284908655 0.07717559779781494 0  0.03371040294200404 0.07703405034405074 0  -0.0004756830694292867 0.06549747897673293 0  -0.03189409559644463 -0.09167057034406703 0  -0.01764786895232951 -0.0684537447588601 0  -0.01930039982150862 -0.0691510620158428 0  0.0445380742211851 0.02334920439321097 0  0.04536596774642062 0.02151979755092745 0  0.03659657224230003 -0.03721112872692759 0  0.01987097198801621 0.07789658136368564 0  0.02268197961671339 -0.06866262451250818 0  -0.08242695727121356 -0.04830745947036828 0  -0.007320662782223672 0.06385660960425531 0  0.03431976855027354 -0.03960081529976356 0  0.02847877125255336 0.06600437486182852 0  -0.03961608640572754 0.05224952561925845 0  -0.04402162115069804 0.03209466587615756 0  0.09291607105959614 -0.007790938796707225 0  0.09208527256915519 -0.005154578431860411 0  0.04732461522940867 -0.0416460231088513 0  -0.02917496650571771 0.09389393637566762 0  0.08478874185110752 0.01226998290276886 0  0.01510903780140579 -0.06751305200653702 0  -0.03675571037755334 -0.07116585288911557 0  -0.02127011458843621 0.06234738090485197 0  -0.03667356523583063 -0.05525590606704647 0  -0.04299493212217307 0.0658969182395937 0  -0.04190898961191571 0.06917839257640515 0  0.06255626549699354 0.01764125700069121 0  -0.04318925095633545 -0.08043182289521331 0  -0.04870800181036705 0.0757565670556283 0  0.01120787748910919 -0.06308768340789117 0  -0.0827940365136085 0.04993221199724716 0  -0.05884130992015654 -0.0157669448480603 0  0.04066647318106239 -0.05830740509166991 0  -0.04848715739852312 -0.02022621670978299 0  -0.05030452885844668 0.07331543284531214 0  0.02702202574927449 -0.08114653789501038 0  -0.04387015078851762 0.02859691709761389 0  -0.02131869568256374 -0.09007980209852044 0  -0.08066575634359177 0.03456457155672973 0  -0.05283567942728358 -0.0460944426958634 0  -0.05856542192504637 0.0645848271391312 0  0.0916463653737218 0.01386263979192346 0  -0.06674651608412535 -0.0458525004345989 0  -0.06962167370250487 -0.04687319200524734 0  -0.07605587767477616 -0.01011000058076125 0  -0.07872888601347584 -0.009859299792873991 0  0.04230667466074007 0.02029723922980226 0  0.06463565152108813 0.05738620379002533 0  0.001471441741983435 -0.08385621484590823 0  0.05596722911344434 -0.02694643335886166 0  -0.04471220117731037 -0.00713594290413932 0  -0.06090850846885669 0.03672675210576695 0  0.06457276680583386 0.03704611199392381 0  -0.03924137217922356 0.07932231544671417 0  -0.03953145828988342 0.0826344577909477 0  -0.0648264163525793 -0.04291960031827981 0  -0.03199500157308055 -0.02610185261520027 0  0.04453376610077004 -0.0219200028657172 0  0.04348187641933889 -0.01928392495002033 0  -0.009391833681170674 0.08009807754889811 0  -0.06002841405735874 0.03920226967098833 0  0.06474453068979535 0.01530532352631193 0  0.05237919078569446 0.08316849100679093 0  0.05071690734852601 0.08617556969233291 0  0.04928249620666434 0.08497210108053663 0  0.04489784228871228 0.01065204914814834 0  0.03957274593988988 0.0237632713932476 0  -0.06862092588187318 -0.05180236799498997 0  -0.06445920764005925 -0.045248560191832 0  -0.066230371709723 -0.05079705461188596 0  -0.0640235685732311 -0.04805368340761743 0  -0.06704176319693694 -0.05423125203973984 0  -0.06210805077022667 -0.0451260344569902 0  0.04219123342029837 -0.07585140457541699 0  -0.07712713434595722 -0.04624416085050905 0  0.07019170150148377 -0.05741940870310604 0  0.07078310107106298 -0.05571344019126202 0  -0.07383118746858329 -0.04130958891275417 0  -0.07228961245920609 -0.04451595184797236 0  -0.07457460472629002 -0.04407313887013855 0  -0.002477606738771768 -0.06237813677610878 0  0.08939978053136061 -0.01905498828796818 0  0.01781358027838639 -0.08439512660321145 0  0.02955474877540306 0.07367952073293767 0  -0.0527817992771048 0.05744226327584526 0  -0.05448588762075104 0.05666791260978538 0  -0.05616342382738448 0.05897620480810647 0  0.07921592473122374 -0.05712644860467865 0  0.04438731370254704 0.04366673582207633 0  0.05408794419109385 0.033418551872401 0  0.01293485991796421 0.07844531408152092 0  -0.04454562805978229 -0.02892786264903726 0  -0.04699773816364383 -0.03052713353335744 0  -0.03063516329078159 0.06024556028219859 0  -0.05728528295535975 -0.02935652060766016 0  -0.02283818446842852 -0.08407881528494618 0  -0.05477062365075282 -0.05200846957008141 0  -0.07037247044251313 -0.01214046462919086 0  -0.07324185229114712 -0.01422146037261725 0  0.06495903317899382 -0.06220185607338777 0  0.02846059837676652 -0.04037116870430575 0  0.01724654719209767 0.07859461699825519 0  -0.03806667542751848 -0.08589157899921522 0  0.08842690636811532 0.03864940032041789 0  0.04131452974690384 0.001431547465173691 0  -0.03278651740169625 0.09270958795436607 0  -0.0009389428573515279 0.07181234215769162 0  0.02351989949166596 0.06090529150840847 0  0.007335140867849047 0.09247932166194169 0  -0.02375107956385697 -0.07615402686011849 0  -0.06137547541713773 -0.0123503254027957 0  -0.06388829180393853 0.06099648419656245 0  0.02141846075829483 -0.05879486845417128 0  0.019937031222632 -0.07082755278652113 0  -0.06010426338806076 -0.001874909657195318 0  0.0004812283916026327 0.08963940181200587 0  0.008787989121612574 -0.06862445531308134 0  0.06066442026835204 -0.01179070882142957 0  0.07740902270859197 0.002857090054077233 0  0.01202108206969951 0.03948997241634568 0  0.07760808333893042 -0.04302067649926562 0  -0.07081998983423107 0.05656666132522796 0  0.03211832886405956 -0.0874595055955301 0  -0.006264427576602367 0.05490673518004126 0  -0.0344636480882522 -0.06043665933822954 0  0.07458011116129669 0.03551297164543425 0  -0.08843073199283995 0.0345861874477533 0  -0.07019321492398391 -0.03725648817642115 0  0.06639012399823511 0.01694689217240288 0  0.06606354211403964 0.01871489738237376 0  -0.09323780377642139 0.005649760992229326 0  -0.03567874152003829 0.03833754468002556 0  -0.06491971353692971 0.04023634624675401 0  0.03979307370910929 0.01257296106567183 0  -0.08456222241932332 0.04471633615801192 0  -0.007035239471881262 0.05944151617590035 0  -0.0442925153153126 -0.03900159124763389 0  -0.002346347871255341 0.09071143315558827 0  0.07204904530496392 -0.05871832983730027 0  -0.09495306117205984 0.0008025025888159581 0  -0.09587278098866768 0.003397395344974641 0  0.05035033156105796 -0.009589842666106588 0  0.05227031805630856 -0.009337639154775659 0  -0.02344789641898359 0.04180201558642339 0  -0.05563355845642808 -0.06087990943718982 0  0.033928287479343 0.03578178706802736 0  -0.04460554718603788 0.05772435897818063 0  -0.05064927546984024 0.08002695795478552 0  0.03273771903271012 -0.09263237230962697 0  -0.02479549413000993 -0.05965259418536627 0  0.05723123944271483 0.07288109757037743 0  -0.09166871562829611 0.001109521453469741 0  -0.09316969345041066 0.0001526598006413912 0  -0.0001094770280719551 0.08579045504107966 0  -0.009293897194545734 0.04840727357427595 0  0.0680532697237711 -0.02679117360521347 0  0.063231643445758 0.004326134335316193 0  0.07887894579282127 -0.04879354290776444 0  -0.08165972190730678 -0.002817232224131684 0  0.0869710049936141 0.04643048453194991 0  0.0505279006672235 0.05995367487239268 0  0.02010979277822622 0.07387569459849368 0  0.02706283741320905 -0.07261515872249422 0  -0.07082290551099542 -0.001690075367500717 0  -0.06983742765248559 -0.05510958741590836 0  0.04597352776245506 -0.01087386139918283 0  0.05564594771232267 -0.06632187748841015 0  -0.0365897619731141 0.05040524667920934 0  0.03108182264062799 -0.06319299688489528 0  0.03661949384387986 0.05865793768722816 0  -0.01263571331010189 0.09603743579170915 0  0.0610545399111492 -0.0409833466651034 0  0.01921642651060333 0.07232844283072457 0  0.03819060051992747 -0.06765187904663877 0  0.03911856816863027 -0.0649287296839136 0  0.06542439369042972 0.004371853448881535 0  0.04278835800122964 0.02339091610468523 0  -0.01523199267059904 -0.07835664176049263 0  -0.0377472778649027 0.02791503878842745 0  -0.05272846793778999 -0.07955128860584598 0  -0.03003913786219641 -0.0288763701058993 0  0.0818185235188444 -0.01428948605034662 0  -0.006236136391023186 -0.07594613817004357 0  -0.0142619423829398 -0.06357138096395699 0  -0.01157888084323673 -0.06114142634446246 0  -0.05716417075870556 -0.01645922076441645 0  -0.02744113469501316 -0.03435586924908365 0  -0.03000009324388426 -0.03324083997607059 0  -0.01867892753480178 0.07708637152471751 0  0.07170093474665633 -0.03904362733969315 0  0.03979856178951965 0.01608121731902255 0  0.02704422692453977 0.06923604450731452 0  0.08346891213620468 -0.01920383637289576 0  0.03543545701820216 0.0562007517487136 0  -0.06523758203777824 -0.05260426633208555 0  0.01032895365648865 0.04378874758962758 0  0.01202878134574271 0.09749393063630946 0  0.04986247637218583 0.05561055261110626 0  -0.05516602097768018 0.07914221181740268 0  -0.02581754687116081 0.06610450461978615 0  -0.02693426414993809 0.06415912419316938 0  -0.02888303998281533 0.08616887802853349 0  0.08333107224268789 0.02744064488322113 0  0.09253894968995051 0.02650913271461398 0  -0.04283159219595774 0.07486976455030937 0  -0.04154251560481256 0.07258363005022497 0  0.002755044284624793 0.05033524238383405 0  0.06951987943875743 -0.03629884744565698 0  0.04585848269991288 0.07899404934116433 0  0.04430613341125923 -0.00313320877487326 0  -0.08520826284998716 -0.004552591088144358 0  0.06257656089595735 0.06769774074966851 0  -0.02302511336462586 0.06478459345635636 0  0.05112483571403362 -0.08119784869359167 0  0.04836096740863769 -0.08282842257070047 0  0.05143456842975354 -0.08375808604447535 0  -0.06768108482522632 -0.02418156886704766 0  0.04628955203817923 -0.07362566890464807 0  -0.04041219720574436 -0.01707441583758442 0  0.08874819321370844 0.01688832266795941 0  0.08827302764689735 0.01449689857010856 0  0.08657887289747637 0.01763086103107105 0  -0.08431784027815499 0.02415298847468253 0  0.08904984481345871 -0.01594333239469709 0  -0.04517500472388129 0.05429670505476236 0  -0.02599736933759855 -0.0823114616544063 0  -0.008496568910607932 0.06066979876821213 0  -0.0106647366796822 0.05922663265693618 0  0.02754219693883758 -0.06361425615498532 0  -0.033381094167746 0.03397125565489394 0  -0.05617250800631248 -0.08046349685237288 0  0.003132951195473052 -0.04451282720649783 0  0.0009238089321275379 -0.04649646920133736 0  0.006403603416664218 -0.07571848342183292 0  0.05883094794249901 0.0001959195808831596 0  -0.06382739481369477 0.02426064005803028 0  0.04733080730684359 0.04254455542041773 0  0.09522937036905642 0.01190955351081745 0  -0.05048478805529848 0.02252350815757831 0  -0.05344006729417938 0.07784529699635601 0  -0.05108260482330643 0.07806950973785726 0  -0.04917692430213183 0.08539609028534396 0  -0.06509713743655124 0.0127260664071293 0  0.02408240988205495 0.04022841253845275 0  -0.00963647298974951 -0.05087127341990236 0  -0.02607723561891667 0.05713756799165758 0  0.01011842215439272 0.09248578015851008 0  0.01254304321951349 0.09361677577579379 0  0.009507619948198119 0.09516825476969783 0  -0.07586238110035599 0.03300611984204993 0  0.08396594830118186 0.02477708951205236 0  -0.03425187109206233 0.04534464024796551 0  -0.01885626144763377 0.05914112960916919 0  -0.09280487473632701 -0.001973343496030819 0  -0.09126198614925234 -0.002844652589534851 0  -0.07402683826134837 -0.01618945435549693 0  -0.07518095052040177 -0.01897768342363668 0  0.05395957551682044 0.02853677089294469 0  0.05167081375180454 0.02813185897198346 0  0.05219820115486025 0.02552198906069561 0  -0.05009230111833539 0.03855251879559439 0  0.01615736109076511 -0.06252870751392507 0  -0.05970896488850208 0.05901805819130988 0  -0.05065682018248051 0.05792425412685671 0  0.08443702304163372 -0.02767412604111136 0  -0.05882209260874763 -0.05770916170701933 0  0.05301593131543549 -0.07367683470937701 0  -0.03004703598796648 0.06190266228817998 0  -0.03812933029575898 0.08492760121611198 0  -0.03704465230273336 0.0865334560029124 0  0.05071690734852601 -0.08617556969233291 0  0.009061866593607261 0.04055781034293003 0  -0.08236006068144072 0.005618882315618287 0  -0.01438567887027679 0.07402919574282504 0  -0.0258632814281769 -0.07893726595688288 0  -0.04137955299929233 -0.0525754350221666 0  0.0670660887486533 -0.05693652121470077 0  0.08344429480436802 0.05269202799378677 0  0.05985076834203798 -0.07484022942428879 0  0.05748004986506991 -0.05016156107214799 0  0.04761807493232029 -0.06681439570887585 0  -0.07629728170393295 0.04459003028131998 0  -0.07777511247684878 0.004258111959152169 0  -0.06112305272852424 -0.06562637915474924 0  -0.07723822018726466 -0.01552845947280318 0  0.04055052309095553 0.04928972617656796 0  0.04018824421612168 0.04566835545270016 0  -0.009933561620884369 -0.09427794054378809 0  -0.04655315987491805 -0.08023823519666688 0  0.09166911204875224 0.02935107310970171 0  0.04629168576370718 -0.06137910104903131 0  0.04461655902434786 -0.06178154950929295 0  -0.006126312112852177 -0.08953753731319632 0  -0.04624198558854752 -0.0210960110103464 0  0.05463308953148988 0.07524078921808081 0  -0.07769011140028247 0.02200777992181537 0  0.03295583689586527 -0.05462040693677419 0  -0.06323253541823876 -0.007403117173556309 0  0.05933632405531929 0.02313882002413311 0  0.04959315683734136 -0.006732071556876631 0  0.02315876038100335 -0.07031322906277564 0  -0.06860052736213199 0.02811042299130117 0  -0.07754253220586552 0.0180757138346781 0  0.01459007997109256 -0.08469566473439259 0  0.01187392980596291 -0.08404732171913999 0  -0.01497695030102048 0.04028682216217589 0  0.002687132317185918 0.0953162685723912 0  -0.07964114312427721 0.001348762459465631 0  -0.03719458395626116 -0.04915952363179672 0  0.0324290180091111 -0.05787254309513574 0  -0.01681282288324355 -0.0924074884214267 0  0.04360251814309014 0.05803468109055584 0  0.0436078373543075 0.05607594627110882 0  0.001224353182877969 -0.08136819915006802 0  -0.08873802481655556 0.03739250351296951 0  -0.01090551040586536 0.04507112296422106 0  -0.01296399217893355 0.04788320984726714 0  -0.01096557546808923 0.04795690420093206 0  0.06167939915258493 -0.04982548995425936 0  0.06046772999007726 0.03896126335178393 0  -0.03213840882146735 0.07598991532179586 0  -0.0285378816911856 0.07651160285974444 0  -0.02963281394925931 0.0779525930863508 0  0.03786475798640637 -0.04073471848175993 0  0.07434307415145544 0.01785612573528511 0  0.06586288119347504 0.001971656288052866 0  -0.03819975298598186 0.02174428371032552 0  -0.05413984585977682 -0.0127145815439047 0  -0.08398859693694642 0.04097363384290568 0  0.001687187341703608 -0.05105774265432851 0  0.07182988328194791 -0.03052656827506202 0  0.01521482530678373 0.05710791243886323 0  0.05013529230715915 -0.001595052682671779 0  0.02621817782990773 -0.08670759448707481 0  0.02460912974241247 -0.08750409429994248 0  0.07395692107768909 0.04952292585065815 0  -0.0507151553282824 -0.04092281948861921 0  0.008712362029444384 0.06990044231264596 0  0.005914738229338854 0.07049860108617621 0  0.02994663502661488 -0.06648967071496667 0  -0.08149988380242422 0.01768339684640375 0  -0.08286028396913116 0.02029457811690032 0  -0.08355803739001878 0.01691373772039893 0  -0.08498631145654278 0.03106609068391339 0  -0.08709883083660422 0.03245809126600339 0  -0.002308586798635659 -0.05472144562794609 0  0.01921926637791751 -0.05627449006876656 0  -0.02030771941643654 -0.04789602190105761 0  0.035781544585996 0.04515131553701222 0  0.02416237694887668 -0.08157915125607375 0  0.01691449800595484 0.07480008265072703 0  -0.02707998771802014 0.08873504389462468 0  0.07937273696827908 -0.04072314224514618 0  0.04356100337210031 0.05141437330864321 0  -0.05602645865376771 0.0319920315249644 0  0.0752082220222194 0.06284502447739436 0  0.05415956131370244 -0.07900362349542969 0  0.06978571371212576 0.02953150261429006 0  0.01310722848028016 -0.07700031192718314 0  0.06572888843819479 -0.02430539882359658 0  -0.03211379062996153 -0.08993053161173767 0  -0.0287740090819128 -0.09114327732305212 0  -0.0503423378026195 -0.04258934099425034 0  -0.03195808569892351 -0.06971769797174064 0  -0.03577785580494597 0.09192699989765084 0  0.06014641070199608 0.03554433228969044 0  -0.07291237771916201 0.01982570540945778 0  0.00447291488706498 -0.06096444102950142 0  0.004049265578936131 -0.05823605633930299 0  0.005720409589357849 -0.05767341473345025 0  -0.06653577482400375 -0.05896783490896598 0  0.06204014146157089 0.01373509430305619 0  -0.09274542200562697 0.01119416658575872 0  -0.09313163664949532 0.01417231043083748 0  -0.09444573529406083 0.01100344621493617 0  0.008712806426166324 -0.05353719518962249 0  -0.02962607702002939 0.05677128987078467 0  -0.02934022200945293 0.05387207311429364 0  -0.03191391128705342 0.05421978396824558 0  0.02581362700104631 0.03511338382263333 0  0.02459899864016281 0.03377065514060698 0  -0.01334154893679567 0.09059316227008926 0  -0.08176688193435468 0.0003196020431817035 0  -0.08295105506089259 -0.001047731372699235 0  0.04908701539624487 -0.03829517286005244 0  -0.0569813174536895 0.07703390574369652 0  0.07596476510675623 -0.04086858483939605 0  0.07754223114599314 -0.03881590611885143 0  -0.01838095577453473 -0.07387493250187728 0  -0.04177572556807818 -0.06492733654809905 0  -0.04599106649095189 -0.05880421264942262 0  -0.04326851617060413 0.08064365834806846 0  0.04427530336736222 -0.02763063588663933 0  -0.09329117123345884 -0.005551456656138505 0  -0.05695258451494468 0.02644258451205737 0  -0.04591791208343193 -0.04654332198739462 0  -0.07508466305920353 0.01955745656784488 0  -0.05443824228228395 0.04931348234732551 0  -0.007111060986460295 -0.06076228171017298 0  -0.009164803206010343 -0.05894305304730137 0  -0.007535735791148842 -0.05734576756093133 0  -0.0393890705232788 -0.0378353544822162 0  -0.04707494161242749 -0.08637933021064792 0  0.01662167404111254 -0.0943714926840438 0  0.01884996341496347 -0.0932022941080885 0  -0.004426518231959121 -0.0563318552134727 0  -0.05822306973966603 0.04736385828564994 0  -0.005650146008074085 0.07499310974608357 0  0.07691842859000961 -0.008843890205397277 0  0.07843778795750314 -0.01044783197114682 0  -0.07857177452263213 -0.04057980390276135 0  -0.07749380275863568 -0.03853364963009136 0  -0.07523011844764356 -0.03997503845873108 0  0.07234561084025579 -0.04842924091601711 0  -8.285238162579738e-06 0.06216276345297642 0  0.003397253824128514 0.06216326203659762 0  0.0603662334450864 0.0285168199346538 0  0.05707606348803618 0.02927940563636119 0  -0.03120286225783244 -0.02762008364251829 0  -0.008326794989431209 0.06726746160262334 0  -0.06368004982096741 0.006648862093345993 0  -0.08754066653657158 0.02534509989803167 0  -0.03848203172436477 -0.02042115729216082 0  -0.05480289066527943 0.0274091583507008 0  -0.06018111954353385 0.04524453797229986 0  0.04761978038924709 0.04809564565739617 0  0.04089604746722079 -0.008138904264904285 0  0.01852020987681947 -0.06515936260919346 0  -0.004697134617242211 0.060964372122528 0  0.04735925162260916 0.06317741985072999 0  -0.04651520861183678 0.04478478540737642 0  0.01864754994668983 0.08167684092189328 0  -0.007057198885113676 0.09375619147296961 0  -0.007799391079090117 0.0921592605574901 0  -0.007330429480531782 -0.04996719543164755 0  0.0820193822498143 0.0328081130843919 0  0.02444919872088018 -0.04691059755817784 0  -0.02756164120230605 0.07366034630153262 0  -0.03056244559032493 0.07179430251715674 0  -0.02867984355423418 0.07104086298697043 0  -0.01967386526449953 -0.06000212792662275 0  0.04122028817087066 0.04425476042400371 0  0.04248867306344439 0.0329569585336208 0  -0.06853627809863022 -0.03884608269480794 0  -0.06955568080745836 -0.04056698642932113 0  -0.07189628294639665 -0.03937458045957351 0  -0.01942310675738779 -0.08323345199744771 0  -0.06632299418306772 -0.001873857949370488 0  0.08211902038202198 -0.02670903139351146 0  -0.09728121987231204 0.01380764589525727 0  0.01941928381157134 0.04885451956446803 0  0.01697956595316107 0.04850618943944558 0  0.01909404381925651 0.05120152042601172 0  0.0697384727175223 -0.05006121285553913 0  -0.08661094540898311 -0.03171945606658799 0  -0.04055207845469032 -0.03230199978993168 0  -0.04498631969772098 -0.03578556230760329 0  -0.04158030594936394 -0.03469416326862529 0  -0.04209643675752818 -0.0369680191376462 0  -0.04378443114110102 -0.03330797063094888 0  0.04340612188597261 -0.07734598098483632 0  0.04263965441853429 -0.0789458073754999 0  -0.007236862637982726 0.05163243303561699 0  -0.01001516157595793 0.05130275685987511 0  -0.05357157908723393 0.04401739053265196 0  -0.01923544231126684 0.07162993276750342 0  0.007484093482340934 -0.09808163134867445 0  0.06372611765500411 -0.01008757893504756 0  0.05475640816306657 -0.05744899399915299 0  -0.07390402890490125 -0.03785369549899524 0  -0.07477831366805011 -0.03458610741860957 0  -0.07611415205399427 -0.03670144557338476 0  -0.01649547001489728 -0.04285820143552525 0  0.07155822290939884 0.04750269574639731 0  -0.01184247667974373 0.060457598501101 0  0.01475877067434473 0.04088437763100837 0  -0.04100688126779593 0.08562025505662908 0  -0.04253614308066046 0.05403712339754894 0  0.03622401763559324 0.07862650030038924 0  0.03731142124275395 0.08092313355729198 0  0.03402319208371846 0.08047664582699643 0  0.03499536584464061 0.0420183783521469 0  0.02478838551454128 0.03136858972426647 0  -0.03528229968577552 0.05434938661222493 0  -0.03716272986261258 0.05728586331523637 0  -0.03700327865095492 0.05459354280383828 0  0.04689172915856385 -0.03610686685657175 0  -0.06611533017620234 0.02150773220432895 0  -0.04023458320678139 0.02983107576663127 0  -0.004075814504715556 0.05781802649892982 0  -0.02062359261713108 -0.06491109316676499 0  -0.00241372580502003 -0.07506984449304689 0  -0.0765356932057777 0.05488010220687925 0  0.04306535524147222 0.04097687178549431 0  -0.03581007610241017 -0.08802290444764517 0  -0.0348223227878058 -0.08956665630348888 0  -0.06238967859695223 0.02587896611287308 0  -0.05910091315894672 0.02509817118921973 0  0.05024253771885794 0.0817632486752055 0  0.06876484479231465 -0.02357304895972341 0  0.01233162944754634 0.07296709836067193 0  -0.03021214818648475 -0.07827479454069211 0  -0.030477382122067 -0.0818526355854222 0  -0.07194841762525676 -0.002967948077006122 0  0.02835232217621676 -0.05413716221468186 0  -0.02318099993388597 -0.05234811751669317 0  -0.052731112708997 0.06718300080675291 0  0.07139281218630995 0.001627080696708782 0  -0.06156807327295193 -0.04685111407445945 0  -0.005750766749335741 -0.05469762800777588 0  0.009244605464638192 0.07595356623537751 0  0.0713870361199629 0.05041256056868694 0  0.001631769010923547 0.0793332206804509 0  -0.005579594099308674 -0.06915138329382926 0  0.03980670938993742 0.003725367800894798 0  -0.0514687800961677 0.02592746090642909 0  -0.09251781162830576 -0.02240111416536636 0  -0.02058382221190829 0.0403069265272142 0  -0.03643669179178082 0.02536239606129042 0  0.04221547165128212 -0.06428155467220573 0  -0.09602707595528984 -0.01869840747957179 0  0.06996983797266472 -0.0327070954839466 0  -0.008880297959054177 0.07399238972679167 0  -0.006697402266053941 0.07262139842505164 0  -0.05299654570882821 -0.07600377220866639 0  -0.05198843395023134 -0.07309716753534032 0  -0.05018678327163945 -0.07528536971355226 0  0.04336334462932348 0.08625203840365202 0  -0.002045966385916854 -0.05112057070625074 0  -0.06888977865893368 -0.0606977840096774 0  0.0843702968900024 -0.04559190212893503 0  0.06482256663859233 -0.007136789719889527 0  0.04325656836578221 -0.05953287365961438 0  0.01850018628945529 -0.07481845748867696 0  0.02142768361914794 0.08905981994508161 0  0.07898050471301155 0.0290260327559968 0  0.02228717181121939 0.05713573448093046 0  0.02081478307034028 0.05411273866138277 0  -0.07731821621820081 0.06076825067412309 0  -0.07623781099653931 0.05823778601331185 0  -0.07417733319059408 0.05979451595191687 0  0.0246625918719102 0.0637931312236497 0  -0.03667787809133487 -0.03620325123249724 0  -0.03592387260466574 -0.03791879389718571 0  -0.05287406891927491 0.04040319570466847 0  -0.01488462383609428 -0.05312071362993498 0  -0.07871160518505878 0.02014458936370748 0  0.04140408503164687 0.01430209476169996 0  0.0431815756386342 0.01312613619757768 0  -0.07845098369233015 -0.02397846585278203 0  0.01051148278798011 -0.06617037542485397 0  0.01184633612537809 0.06227188320952812 0  0.05293290329334575 -0.07028734006397917 0  -0.06196115327741861 -0.01033583093788338 0  -0.09153981717541575 0.01687679914126806 0  -0.004827233721654599 0.09134507639168589 0  0.07110168118331053 0.03562499443679498 0  -0.0616205465566643 0.0317266322483625 0  0.04674471940397933 0.008315826076042695 0  0.02135841702916303 0.05170869368891438 0  0.02371563777354713 0.05241240429779091 0  -0.005865139694538219 0.04428539195358613 0  -0.008287607075395879 0.04304227395290251 0  -0.04314285769259755 0.04495976788185557 0  -0.01597481567090265 0.05744040797516991 0  0.01345456998772652 0.09088347400561604 0  -0.009010575757554437 0.08923306669498436 0  -0.05241615276928217 -0.02045248777027241 0  -0.02769141697443337 -0.08789505789160848 0  0.03698220043893632 -0.07932534734414902 0  0.03537777310494216 -0.07772351158849258 0  -0.05898923571117068 0.01327956333626214 0  -0.05072881941223824 0.001541507319837991 0  -0.01548518256460795 0.05478472707103315 0  0.01496360818194464 -0.08265112844432031 0  0.06457286286344181 0.02517453696386204 0  0.06528758597880005 0.02811612657944262 0  0.05977483008580893 0.06162049686957864 0  0.06110617367131015 0.06280274239172307 0  0.05980430714795518 0.05989805275208162 0  0.07361099327923944 -0.06159828677317394 0  0.05345145541776802 0.04403792344280542 0  0.009649849116709852 -0.0459081748534324 0  0.008563904913758753 -0.04797617394868927 0  0.01125764382661362 -0.08676104310097325 0  -0.04591395440791473 0.01947312338898299 0  -0.04345527678060154 0.01982833406978086 0  -0.0431260305726811 0.01752534453565853 0  0.08564516708674842 -0.03726509740398545 0  0.080826421722367 -0.00959504864600742 0  -0.0422005371596995 -0.04724311440940515 0  -0.04060403663414504 -0.04920848400902104 0  -0.04396330944699785 -0.04915542957311857 0  0.09029795192360296 0.00213112423841019 0  0.05812943337431471 0.06977516485510118 0  0.0511051186654651 0.03085193226634238 0  -0.03509395005828812 -0.02591193596580015 0  0.06590220636528422 0.07349956884014433 0  -0.01984557504794562 -0.04259705146522379 0  0.01891400771864591 -0.08974055004568451 0  0.05077409011725425 0.02264217552754095 0  -0.0412277893185215 0.02035929980423996 0  0.02607266726722959 0.04566578548917963 0  0.003530014761599742 0.06972596723155244 0  0.000320672118471478 0.07038700934560942 0  0.002744203222586783 0.07192215653268427 0  -0.06714725386697389 -0.0671481012087754 0  0.07491072592257188 -0.03455890771239408 0  -0.06581934649290819 0.04396028693761279 0  -0.0552909220584016 -0.04406478409846263 0  -0.05364711573460013 -0.04274528341519377 0  0.03797802047493209 -0.0205279400140788 0  0.06912177551519672 0.05385858681334526 0  -0.05829101059772263 -0.04762839475280422 0  -0.01665970514170133 0.08328445494944782 0  0.05309385584461956 -0.03486237524677319 0  0.05001512130926555 -0.03498557100182215 0  0.05054515280688935 -0.03264632244834573 0  0.0458605541894399 0.04696719398538275 0  0.04805660535819491 0.04478191446545288 0  0.04367896635949791 0.02670102334014289 0  -0.01232168115628996 0.0713045706827494 0  -0.01619947621583107 -0.03835853798387245 0  -0.06736571610647536 -0.0191266947451284 0  0.07385353520770621 0.003626620112365021 0  0.07375195598559391 0.006726472719806417 0  0.001240182095663622 -0.07963869801215662 0  -0.002513137948647463 -0.08544364560548921 0  -0.0001843004633970834 -0.08698073747932096 0  -0.002809323552893662 -0.08858770327932869 0  -0.03198396702584753 0.0804078816221838 0  0.02301053681827643 0.07631577732664188 0  -0.08692709423839938 -0.02673688087720908 0  0.00643654949790968 -0.08625800864681478 0  -0.08522475582186032 -0.03731892234090762 0  -0.08427908362268154 -0.03428106780209431 0  -0.07347856554650893 0.05432836523652296 0  -0.04175872540607291 -0.02851497635931174 0  -0.06748384750249856 0.04690514109083597 0  0.01070207858787091 0.07737376872777577 0  0.01761107303593906 -0.06947108646740185 0  0.07930628217637206 -0.02281227730887563 0  -0.05161786906745106 0.04352657546065128 0  0.0026386160274199 -0.0877966689190801 0  -0.01476774416937687 -0.04481925960160525 0  -0.01780530250426635 -0.04552871192270446 0  -0.05519553812512239 0.07571883647679319 0  -0.003020730524589601 0.06997114981587557 0  -0.006240089896456922 0.06920869658942298 0  0.09670176587682075 -0.002583105869618668 0  0.02934798211884547 0.05494170705968369 0  -0.05074375353775757 0.009952809127965357 0  -0.05586212420279634 0.02420574066683984 0  -0.05271680941141315 0.02286950196766166 0  -0.05381091123730958 0.02517664256594476 0  -0.02491628276872014 0.048284007456064 0  -0.03949733700112606 0.07428226777663384 0  0.02689317809027334 0.06063665728680034 0  -0.06206858236017909 -0.05151258935096683 0  -0.06259272358707217 -0.05387594414508425 0  -0.01171558597657655 -0.05188446784819706 0  -0.04816235658509184 -0.004801552623493745 0  -0.02786696133098927 0.05916327409672815 0  -0.04200360920905084 0.04964988119221694 0  0.04555026445689116 0.03432111149204235 0  0.08404712936868237 -0.0489939647865262 0  0.04819820447233654 0.08044992995932874 0  -0.07401977377942276 -0.002449270798615937 0  0.06000343565881224 -0.07824955394380274 0  -0.05370554648434839 -0.009308467354342898 0  -0.05364859288947232 -0.005980804791135373 0  0.05813534706722095 -0.07974733004653253 0  -0.04270565259263918 0.0272434077993971 0  0.08816309026659976 -0.003635033292168319 0  -0.04916747000926262 0.01735936360285865 0  -0.06549925362761445 -0.004895373219440056 0  -0.008428315130617306 0.08354796088204776 0  -0.007625444938451981 0.0850958361748522 0  0.05032962462575429 0.03642183278432122 0  0.03663434393093885 0.0707738232330887 0  0.03767330350346672 0.06877662481867684 0  0.03442670624729989 0.06887088601437713 0  -0.01806993032878272 0.05149167447784623 0  -0.05413285636734231 -0.0221119178941196 0  0.01777097879600557 -0.08080566941163997 0  -0.04025694570310152 0.04663863845124111 0  0.06023161532738455 -0.04274929597923069 0  -0.02914852662699801 0.03288388994645975 0  -0.0279629213172342 0.03103522312010835 0  -0.02939693624210628 0.02949965419110755 0  0.01551826295136144 0.08311620686367729 0  0.0223055547371615 0.04484715633088414 0  0.02279026094065386 -0.03284899517433955 0  0.02451961756300239 -0.03381091027406314 0  0.04900194517142292 0.02604319548644828 0  0.01285820202860534 -0.06339151170134313 0  0.08237125662122903 0.04974989497723538 0  0.06063010814613105 0.006635754845831216 0  0.07514979696328818 -0.03119510222805945 0  0.07666905727814595 -0.03315998389215277 0  -0.01349704104936018 -0.08373026176267211 0  -0.03851224355314261 0.04395305342966673 0  -0.03801033420001849 0.0470547454665804 0  -0.04040594758944508 0.04478212896358516 0  0.05100789237384813 0.07340074371463311 0  0.07282042832157726 -0.0665609558420461 0  -0.06026480283502 0.02707978032137158 0  -0.03058558728490644 0.0683503470177626 0  0.0741848332031104 -0.04281243215351162 0  0.07216479731581854 -0.04187266733858778 0  -0.03133160489928757 0.05704044363132072 0  0.06035331676310075 0.01802030236451372 0  0.07869888045373893 -0.03146776545709359 0  -0.01282682322837286 -0.03786720327110189 0  0.07285887432920349 0.06522868661644116 0  0.05243851715993129 -0.04650000504858071 0  0.05084011275592733 -0.04592352456092606 0  0.07688394804142346 -0.05216204466215468 0  0.09817815504164319 0.004899041063465916 0  -0.06491478236009537 0.02975411735751797 0  -0.08648450830265919 -0.01162655561901027 0  -0.07267066913580565 0.0427444600790997 0  -0.03732244604777067 -0.07365396130477521 0  0.0409880137258119 -0.07912636026239965 0  0.09433656690208314 -0.03315185738274536 0  0.009962163315740151 0.06267836910569279 0  0.03005397636907708 -0.07519962152857554 0  0.009085419525644267 0.05500183437726877 0  0.007760185692115013 0.0578079291812018 0  0.006250332535642033 0.05691137271422213 0  0.01543359907202285 0.06071185486118965 0  -0.03280067117576214 0.09041577210313499 0  -0.08346790346003896 -0.04515393850799874 0  0.007047962507971512 -0.04904114382785652 0  0.004829967878520778 -0.05029763392173851 0  0.05167390307128096 -0.03980220143631025 0  -0.07814007447933881 -0.05996179338045854 0  0.06709566286866295 0.06461421188553346 0  -0.0348124093190221 0.07627856504028882 0  -0.03701710242165675 0.07503862320655097 0  0.03065581902048517 0.03651960631792654 0  -0.05351773673977733 0.01735117298663925 0  -0.05511396830701859 -0.03468226081415589 0  -0.02303685973972271 -0.08723416697114313 0  0.01645221713771284 -0.08734096593195097 0  0.01860351608109229 -0.08753459627628699 0  -0.01979375696627414 -0.06341247199065744 0  0.06403940270885074 0.05218535794344747 0  0.01624149355161184 0.06385127156718677 0  0.04069305211953647 0.06951444893013177 0  0.07802799334700138 0.03555589468883882 0  -0.03504468849934711 -0.07119737107555348 0  -0.07087766910877871 0.06024822711925959 0  0.006821090600519401 0.09692795165589357 0  -0.09802516933357948 0.008155514393293499 0  -0.01422853589790979 0.07159226903185895 0  0.02838747559967408 0.07051588803367485 0  0.03099573996734129 0.07171142594082434 0  -0.04788669169587424 -0.05782637281462661 0  -0.04652643046993934 -0.06059550651063308 0  0.01947452002747775 0.06432531655534247 0  0.008508400306478788 0.05021572989593966 0  -0.07213989703016896 -0.03572157487176202 0  0.06293217728878267 -0.06818040245571086 0  0.07636193720940461 -0.04419733724219027 0  0.08907019309728582 0.008366146510622587 0  0.04643509378617908 -0.07903710035428185 0  -0.08091259088805788 -0.02553040385238407 0  -0.06044113248133106 -0.05807280953950624 0  -0.08329900054436132 -0.01216227521141861 0  0.05203679863638055 0.02019607375421635 0  -0.04661356781343221 0.08068429243968206 0  -0.06383988005876756 0.05382813674802719 0  0.03432438271246036 0.05097845683775261 0  -0.00435292089434096 -0.04622236071196838 0  -0.002369236905993597 -0.04766367902835139 0  -0.003946035149611359 -0.04958024612682219 0  -0.08309508314590881 0.03671954829524307 0  -0.03032466645235788 -0.07238814621807993 0  0.02618049336603073 0.0550229083847153 0  -0.05010632193465651 0.007643688859259016 0  -0.006595812080296888 -0.04369350635372705 0  -0.09547465730928256 0.02293986862002635 0  0.06083670960228311 0.01243571752117184 0  -0.03806509942126463 0.07727740684138998 0  -0.04785283610570374 0.07774888531512586 0  -0.007994516483892914 0.05396817527520764 0  0.05465843873170126 -0.07713188523121037 0  -0.05412558916427768 -0.07864824835637035 0  0.08597754295173093 -0.0296673252573382 0  0.0581572950570891 -0.03346791549332004 0  0.07060285826558264 0.06002171605942432 0  -0.08056566541223036 -0.04596322203120781 0  0.01108391390806888 0.07047565996729278 0  -0.0481765063913082 -0.07764972785240888 0  0.01591630513993181 -0.05566723568461523 0  0.01408334295297611 -0.05381636889965737 0  0.06185192798719345 0.04049613208766749 0  -0.06971764084924301 -0.06734064827941502 0  0.06217771081748815 0.02764380340521555 0  0.03964400446406152 -0.03517699711941532 0  0.04179343646329941 -0.03767845167485628 0  -0.04258544087797893 0.03042616262411952 0  -0.03960561240427601 0.03202625728076266 0  0.05146890141661673 -0.02852338190821486 0  -0.03897644123551312 0.06548861477095602 0  0.05262240268792762 0.04105017642643907 0  0.02654577506400876 0.04085280764014212 0  -0.02109886414430431 0.04980907978072844 0  0.01212066346680708 -0.07857456614579778 0  0.04138975982009475 0.004237397599382006 0  0.01936366047256552 0.05890240390582528 0  0.01727359406364381 0.06068719901349244 0  0.02043682446053032 0.06167907120357573 0  0.05752597076243542 0.07711467301961521 0  0.03775225597810979 -0.07606224942979002 0  -0.08247364786056401 0.04544394462686938 0  -0.03874920721924663 -0.009846391094546268 0  -0.04783963046372798 0.03268282237121757 0  -0.04905560964011078 0.03053566937667703 0  0.001118833561234303 -0.06720844510978641 0  0.000123663677227832 -0.06914369290305222 0  0.003377879523100136 -0.06890132397939626 0  0.004770000207430627 -0.05497715746822459 0  0.003249770733558201 -0.05294389412734455 0  -0.04764693334685398 -0.006540412232011982 0  0.0536959011588564 -0.04481578376863865 0  0.05159323538180493 -0.04308657312719745 0  -0.06125256594279423 0.07538610620296959 0  0.08292268594536421 -0.04411425412539154 0  0.005212182032780935 0.08594237439743042 0  0.006151656390349201 0.08454151515962263 0  0.08626679882706893 0.009640573372027625 0  0.07002130279590164 -0.00482668428456504 0  -0.06233219957643141 0.02134065167930826 0  0.05301883211418359 -0.01213874593339979 0  -0.06698589899560388 0.04153948239515819 0  0.06049661678607615 0.05653966253817121 0  -0.07225690294864617 0.01831820008762259 0  -0.08375799645887859 -0.04222402716814899 0  0.04202268559411005 -0.03557573911948719 0  -0.0718409062972927 -0.02733907690506729 0  0.03433699277152467 0.03377333304874405 0  0.03139995021556206 0.03425930839904959 0  0.02953406312384718 -0.08279780541010953 0  0.02630988141313515 0.07467882214699713 0  0.04462738446064972 0.06892790902483747 0  0.04315532978133779 0.06606651351580976 0  0.04601888309997058 0.06782670875679934 0  -0.06692693598130341 0.02944852769200696 0  -0.04996285929208386 -0.04807368272720517 0  0.0653427265861883 -0.05281854758962144 0  0.06500463894277056 -0.05537038774699096 0  0.06284694867479935 -0.05290657699596119 0  0.03363517278437193 0.06397007467590829 0  0.09867142939329235 -0.01619822596093842 0  -0.03923871542124851 0.04094217713663283 0  0.07645016936224855 -0.02986628274483461 0  -0.07369350208723721 0.02753444197637503 0  0.02749606683435492 -0.06675330693051186 0  -0.02315387005221769 -0.05959027759195017 0  0.0467281087802602 0.05637365478363221 0  0.07520785072523699 0.03704149316297101 0  -0.07478133724166147 -0.06637910140357425 0  -0.007975620047586637 0.07067067902423686 0  -0.0180844219064315 -0.04892990259164426 0  -0.05879926687932868 -0.01004321759199466 0  -0.05766239684916022 -0.008760500553130856 0  -0.05554460278457998 -0.01099464411538722 0  -0.02867555931769476 -0.07281144845051815 0  0.04407110557107285 -0.06333317040155412 0  -0.01035428679424007 -0.07105705420465534 0  0.06521681794802782 -0.04371526634873229 0  -0.04165466006407213 0.001221922092798738 0  -0.04370734048524363 0.002147289996260026 0  0.08783026264912711 -0.02812815230954903 0  0.001809813494500331 -0.08985928927617248 0  -0.0009022451289372388 -0.0905219497820208 0  -0.07684301863996905 -0.05477247691549311 0  0.07399491543882201 0.01980908350767151 0  0.07219059731531674 0.003694636234829123 0  0.04828822166765972 -0.01337487964778638 0  -0.0881731439541428 -0.002849947893822413 0  0.06033620410980363 -0.004712517439092932 0  0.0456986328728592 -0.04558979368964362 0  -0.06405006657855335 0.002280142697793641 0  -0.07363636083191855 -0.02978018589912495 0  0.0444037119674966 -0.03568665278006275 0  0.01831288138876816 0.08357759662758737 0  -0.02325977255478195 0.07450806137933577 0  -0.06650027180407148 -0.05579630371256032 0  -0.03161712381031469 -0.08323622817732307 0  0.08169264538027246 0.0275012012042079 0  -0.09296761205206347 0.02532230944746497 0  -0.07844006720161228 -0.01247769429615009 0  -0.04488913069815701 -0.07795272464800983 0  -0.08451061740625586 0.008360110167976696 0  -0.08291688185165516 0.00777394254520797 0  -0.01003294586159365 0.09472132390324889 0  -0.01007088482742995 0.09761716176700079 0  -0.07062569675362897 0.04512138124612711 0  0.06191540350246892 -0.03790175014578332 0  0.0213562253969301 0.06486519810343459 0  -0.06172868849546018 0.01137132229027555 0  0.01032857186379105 -0.05570156568818636 0  0.09489403625483096 0.0006469128894022334 0  0.0004690082303781146 0.09220365697299797 0  -0.03436770177200203 0.04858616922962405 0  0.03452016210114092 0.02016955344616804 0  0.07346929530955464 -0.01572941847905342 0  -0.01540799323706528 -0.07489286826415512 0  0.02847900912994028 0.07604801725551977 0  0.05875830200390023 0.07129514816116288 0  -0.04526640129242513 -0.01028088406007019 0  0.07905712542024218 -0.002402988587881066 0  0.08089053215410784 -0.0005987000807796238 0  -0.02307349115001143 -0.04621403686346762 0  0.009574213449082864 -0.0833023038989812 0  -0.06117426322553689 -0.05953952407425026 0  -0.06844702743681269 -0.01474659335408543 0  0.08482596440601786 -0.04223336289356261 0  -0.07037029865292421 0.02119205783721672 0  0.08044590471791335 0.05103834020485697 0  -0.004852257642339135 -0.08101925459314556 0  -0.04228745549690715 -0.07272583248845543 0  -0.03915412491850603 -0.08460493130049035 0  -0.01503050519294455 -0.09013946478603437 0  -0.08593666786810467 -0.01008893164602404 0  0.0489314762924395 0.0681537319170463 0  0.0549045536269656 -0.07189796530169634 0  -0.05359056062091448 0.04580399354505282 0  -0.02426155473422747 -0.043300233312597 0  -0.02752561939541764 -0.04993672898532001 0  -0.08574883867539976 -0.04279785528049907 0  -0.08810265845101144 -0.04370215598409059 0  -0.0605857115703486 -0.03512018173885654 0  -0.01488289596244194 -0.09505730694387907 0  -0.06165819482470059 0.04605222528164618 0  0.01755676237674821 0.07241532048313253 0  0.01497859374304275 -0.09155797279389184 0  0.003795959498673255 0.04335904295112086 0  -0.01802778477628264 0.09657024010562626 0  -0.02948325076919973 -0.07556850022891859 0  0.002902712315524474 0.06622145822499426 0  0.03612126599511057 -0.04802970716089087 0  -0.05818023579710628 -0.03978323815254819 0  0.01891960839909778 0.08973000140462596 0  -0.05093100642887299 -0.05126028027813258 0  0.03860426524849119 0.05742384303250852 0  -0.06079215270810993 0.002785593601049759 0  -0.03827603987341242 -0.08946255340705195 0  0.05170631669264027 0.0699433547377022 0  0.03770963898849612 0.0882984186214474 0  0.02155725106018353 -0.07576140808441557 0  0.01975974290823294 -0.07793692646786264 0  -0.0450409871208974 0.01283016274941493 0  0.07448418261924244 -0.01096214337473764 0  0.05759362171109094 0.02718886791777341 0  0.06621741896656995 0.03489261517418512 0  0.06505273202117788 0.03369209323974874 0  0.05110595319001838 0.04609431009368477 0  -0.02729194040577138 0.06142047717124807 0  0.05993374210826395 -0.01515956035273571 0  0.05856487705889445 -0.03734772529757308 0  0.05765556917708674 0.02010521210684177 0  -0.02113207367353364 -0.0821974561322298 0  -0.04720068825154383 0.05445623810907384 0  0.01773343625150193 -0.07268766638301291 0  -0.0605143044105671 -0.06102682024074814 0  -0.06147189726855502 -0.06246706044445239 0  -0.01615209895232423 0.07424298956967282 0  -0.03671309150010833 0.03648729722250354 0  -0.0370929609837124 0.03370671485676534 0  -0.01842810336185285 0.08808567797353796 0  0.00888595505656027 0.06085816837635105 0  0.006711241371628799 0.06280660880992889 0  -0.06814605340212784 0.06456300556291394 0  -0.03363937805917319 0.03236592301076743 0  0.08291467080285442 -0.02836164076523249 0  0.02964492677033703 -0.0785177322887924 0  0.0185848080309623 0.09621388363203309 0  0.04256499854430697 -0.007920108286871537 0  0.08026249643917954 -0.01271784837691799 0  -0.0560071038997364 -0.0828350035646841 0  -0.009293670893370088 0.04527280823961782 0  -0.04225110866208634 -0.0581431913733365 0  -0.039210587230259 -0.05825833021306824 0  0.05776902818051343 -0.01665809326385797 0  0.06450820154622686 0.02176231860004664 0  0.09761871390118665 0.009843621445520824 0  0.06051952648841845 -0.04866917599984572 0  -0.02833707723300541 -0.08379721257813544 0  -0.02557953494231323 -0.08523998029192023 0  -0.07509253293318516 -0.05852057747587105 0  0.05446798161705167 0.07984472545204309 0  0.09358811138640498 0.006332106590075744 0  0.004441436473605441 0.06738615923018593 0  0.02891518258572079 0.04361870122388793 0  0.09255930124477624 0.03783132638271965 0  0.06329769614935694 0.03408744222575293 0  0.08089481535343424 -0.0387776861361385 0  0.06363764359707419 0.04579253623429156 0  0.06117315887744867 0.0443730354291633 0  0.06066108428559076 0.04674612885972508 0  -0.04709826442323493 0.02810141933130324 0  0.003226178619854157 -0.09520748357276476 0  -0.01226758969704013 -0.05880752341456511 0  -0.04687163344929954 -0.01178702214594771 0  0.06562240931175606 -0.01035831748286995 0  -0.01345391652700062 0.04292373231931342 0  0.09215535014750886 0.02444766961608884 0  0.09524701681453691 0.02476232427906955 0  0.09477730358268613 0.02642218997280748 0  -0.07497617670223732 -0.06034504412183207 0  0.01462116277689737 0.0738710761407277 0  0.08962183753632569 -0.006295323659821739 0  -0.02590435319015845 0.07420396556259981 0  -0.02308420056780181 0.07256425449369368 0  -0.02461065084526628 0.0717221099137923 0  0.01129835290820413 0.04098911001468097 0  0.05136028691647376 0.07957056432711397 0  0.05693543469989878 -0.07721838626549131 0  0.03508151553276975 0.08940726426043559 0  -0.06322233867366409 0.06753206744598222 0  -0.02449886155502247 -0.03592232365677637 0  0.009427087946220327 -0.04309732119075096 0  0.04043988069032387 -0.01025114169023285 0  -0.06997037791681487 -0.02014104500691459 0  0.03599835021638496 0.03340995358363553 0  0.07291322346312133 -0.000217520613176669 0  -0.07074808688797159 -0.05809676887989975 0  0.006296867404725766 0.0451147348617855 0  -0.06855887620936146 0.05798471140131129 0  -0.02962059472863026 0.08102556375867799 0  -0.02891215998749705 0.07953066335314973 0  -0.02623923859878519 0.08098414242833971 0  -0.02776894399493134 0.0828883110026039 0  0.03240425023467965 -0.05150230409802066 0  -0.04370457662938775 -0.001015261707494127 0  -0.01654157792982471 0.07142787845916392 0  -0.05754261979163131 -0.01890431496954741 0  0.03885202520005545 -0.01490769180029587 0  0.07560627918706644 -0.06543794044959286 0  -0.09560358217718753 0.0246105800103308 0  -0.03467167478357742 -0.07453116047310102 0  0.05073703105585387 -0.0125445013348344 0  0.006990726440793159 -0.05959287020206397 0  0.05975954507345353 0.01574011321426167 0  0.06544417904174876 0.008939551587917448 0  0.04138468741634962 -0.06748516818617206 0  -0.08739007380054747 0.0235161118116947 0  -0.01330814351359267 0.08374534630533213 0  0.04973442192215909 -0.05163889445755803 0  0.03417334460291492 0.08806820483431037 0  0.08067887033936398 0.02623681227462369 0  0.06650356636600317 -0.01636015947229254 0  -0.01175213460334184 -0.06383290555032121 0  0.08558090664611791 -0.02646059216198543 0  0.04890249708959748 0.04704270112022441 0  0.06808924205390664 -0.04515798847611599 0  0.06277403379748173 0.06212912637091317 0  0.08375022063044191 -0.01109093137039132 0  -0.03888471287909068 0.0202845767162854 0  -0.009045941565501758 0.08651047933022449 0  -0.01098282338368951 0.08375368528606926 0  -0.04136142372763774 0.02229287898382848 0  0.02817173052633631 -0.09430016765220181 0  0.08411331737474988 -0.03904879176557605 0  0.03545726217365959 0.03665846256522941 0  -0.003105850809457842 0.03985983151565327 0  -0.002315779109141935 0.04164657271635163 0  -0.0108641560785231 0.0859643872899824 0  0.004951129341141678 -0.06437370429596136 0  0.0051562983989587 -0.06750685279564654 0  0.05239028543504352 0.004767604086710302 0  0.02252399683172533 0.08355398853684108 0  0.07073716884669631 0.004826735667728075 0  0.08030281123784905 -0.05958097020102544 0  -0.02404537283229692 0.0874359321206661 0  0.07659376148330151 0.04772002630070681 0  -0.08347328251466193 0.0275345928792425 0  -0.08510734279919047 0.02719452598537197 0  0.06090791327363446 -0.07297271148095778 0  -0.04840045295708591 -0.03264162964665021 0  -0.05039982645389123 -0.03486636090428792 0  -0.005735967905524634 0.08600362468950702 0  0.03231605320049305 -0.06588351707236061 0  0.06845782239990254 0.05980048864519204 0  0.07084236924348844 0.02751102272409498 0  0.04690580453576142 -0.08444728013790725 0  0.05839203579163819 0.03033037423180939 0  -0.05160917845222832 0.06483505938167787 0  -0.04935014167998503 0.06536056392376643 0  -0.05032402356992526 0.06780521355112466 0  -0.07398889036306951 0.03149169626102821 0  0.02713390400200913 0.07252387909385233 0  -0.0988664373141659 -0.0149619876888467 0  -0.09743751934742945 -0.01389795145102522 0  -0.09713846922530443 -0.01563423487205468 0  0.09695103009835265 0.01676614716730739 0  0.0006257621661996793 -0.09999020914323786 0  -0.0004245589151350592 -0.09833971871047628 0  0.001105475891167759 -0.09548372490794139 0  0.06969268559498819 -0.06892482480017266 0  0.01915363447089108 0.06735122699462806 0  0.0216789583922226 0.06803574765845982 0  -0.0009855395632203164 0.05256208101082747 0  -0.07955080713710681 0.06058137161398654 0  -0.05534409074784435 0.006720047664039215 0  -0.03722774604904451 0.01457900551528555 0  -0.03935910051095036 0.0142030996041462 0  -0.04091353926954201 0.01498138987634169 0  -0.03930328804444955 0.01251059733864351 0  -0.04392129705935246 0.02412403610693158 0  -0.04400731577418297 0.0221500316602119 0  0.02782257108093375 -0.07726644173031529 0  0.0637825704639747 0.06499802359309215 0  0.035049660021318 0.07045705772678849 0  0.002486255550648268 -0.04601457494068624 0  0.01521871501880725 -0.04530739555824396 0  -0.03696924112897101 0.0713179233099932 0  -0.03944781453981562 0.08794047415327277 0  0.01261035476383281 -0.06616871591311196 0  -0.00848848203626091 -0.07053949833074515 0  -0.01132103500304581 -0.06883864500796254 0  -0.008606568922081372 -0.06835301559905076 0  0.05436999645919256 -0.04905622244149387 0  -0.03611581580792423 0.03498946122286126 0  0.01552307082281158 -0.05913486612010125 0  0.005874132003650559 -0.0419664454767884 0  0.09441126880541842 -0.01072699675034627 0  0.009166964424509936 0.05694808638894577 0  -0.04930443469655758 -0.06487496019313682 0  0.0009745108014001568 0.04232305273310851 0  0.06216490738787567 0.000212404973054266 0  0.06009239494738485 -0.001441822835490621 0  0.061101936931571 0.001686468083576419 0  -0.0522837683495745 -0.05879705722803833 0  -0.03888067156889781 0.03891200617580072 0  0.05249350122349312 0.03385371335550343 0  -0.04994472593925774 0.05276379238261261 0  -0.05076465950539148 0.05067822731871327 0  -0.0529033655677192 0.05146031224412109 0  -0.01427392965873333 -0.07611334831598827 0  0.09220247397824187 0.01954204799190937 0  -0.06041240577051257 -0.04894021616310718 0  -0.01701619022934197 -0.07504596366937219 0  0.06728206829594402 0.01978252997405995 0  -0.09391424977676477 -0.03432997511890352 0  -0.0927296431294873 -0.0329947343265727 0  -0.09219919680065426 -0.03453141777422253 0  -0.03735154632899481 -0.0875488062740396 0  0.06293186378544613 -0.05512573982005141 0  0.07955733851987883 0.03288292637826899 0  0.07924538084186829 0.03062963194901104 0  0.08194326788949384 0.03062313085853486 0  0.08991611793996954 -0.02912276259193015 0  -0.05208389611656819 -0.03395634990820474 0  -0.03064174559420545 -0.06698156488928501 0  0.04282287166275898 -0.05263275087893145 0  -0.06284944086074683 0.003670991359770488 0  -0.01710108916323291 0.06145926037123137 0  0.05062411709160067 0.03352103274936136 0  0.06544418976909951 -0.03192501032327171 0  -0.03641866048318582 0.05886563580467553 0  -0.05797702578409437 -0.002483043816989498 0  -0.07917663056084238 0.02934273928469844 0  -0.05729344040128534 -0.04993075874062097 0  -0.07890194462371881 0.03122795637788312 0  0.04786422043060319 -0.06413095490415023 0  -0.09535935036078923 0.007836871406442365 0  0.06967924991443447 -0.02713156177678237 0  -0.06365335129897029 0.02225673260953941 0  -0.04345992310083695 0.004038515131297962 0  0.03948072615994917 0.08470277999474264 0  -0.06444972358354628 -0.02177393148327546 0  0.01774569984448125 0.05879508745629879 0  0.009002255069462284 0.04692353521966417 0  0.01005997125796579 0.04894961268036746 0  0.04952570736035368 -0.06039167733549884 0  0.05197577695728149 -0.06032566777175331 0  0.05176385059949486 -0.06278171885308845 0  -0.02285592461000791 -0.04416640106469661 0  -0.01725173782731796 -0.06438229522895217 0  -0.06351318677538362 -0.002380237813308564 0  -0.06505220114137805 -0.002871202929359468 0  0.02687252594684282 0.06611156307059801 0  0.02764751888980275 -0.0612796634784048 0  -0.08414557708718423 -0.009660045200468537 0  -0.08303916255731447 -0.007168944898689987 0  0.02333217884988196 -0.09205111455685183 0  0.07821776601003021 0.04593476826465508 0  0.01912966354110268 0.03815908158518509 0  0.0553731307540754 -0.02546099286969421 0  -0.04980325039448393 -0.07813135782960638 0  -0.09274683861031849 0.02301028605950375 0  -0.03678809017805886 -0.06327991396972922 0  0.007621695297164349 0.09011034881685555 0  -0.09430440368340499 -0.01071766683989938 0  -0.09241105330407207 -0.01060023758801115 0  -0.04597234656492469 0.04241363693768165 0  0.03430879629403673 -0.08473385277621096 0  0.03650573614223689 -0.08242701764594021 0  0.006007662139995986 -0.09167753280869119 0  0.04820126175994019 0.0002216207213958592 0  -0.003016259135935087 0.05464514334256557 0  -0.05108711177050555 0.031501902261467 0  -0.04062234963073683 0.08140141943984626 0  0.005777892337172747 -0.07051332017092675 0  0.007263660396960224 -0.07333764955851256 0  0.05210930872865963 -0.05559266259272394 0  0.05654081756188035 -0.07006557133822 0  0.00430633336888058 0.07739233404125896 0  0.006383527149634506 0.07479996869406134 0  0.004740040524461975 0.07446397603573768 0  0.04880913807648703 0.02938443671016149 0  0.06906892224293226 0.04571458988319835 0  0.03583221175035387 0.03084002810400365 0  -0.00385492907120777 -0.05278025826946176 0  0.01764335282719163 -0.04725358842662057 0  0.01083213801200986 -0.05250940100104392 0  0.009972424020886926 -0.05047970404155367 0  -0.07332802864339916 -0.01262900801598564 0  0.07880690625036164 0.0065479666168856 0  0.07783422986980452 0.009757599878084191 0  0.07681379431965908 0.008041219910260156 0  -0.02686433635432842 -0.06452345207451173 0  0.03996131194267188 -0.001243392748629604 0  0.04156722872672709 -0.0005083152964087962 0  -0.01266236619365806 -0.07174148207321575 0  -0.01513924803174561 -0.07266071994487974 0  -0.01339840262499003 -0.06994121920351069 0  0.06763830953980268 0.05636504329107629 0  -0.08352246973408538 -0.01554702653893441 0  -0.04527868379642283 -0.04367751278822399 0  -0.02657043531166371 0.09192487294732335 0  0.06553884171266348 -0.003825031133455658 0  0.05194976179345633 0.01356213736180519 0  0.07203443028684713 -0.003308376721810035 0  0.03910813964726678 -0.08223481401970849 0  0.02593965282934821 -0.05695842842506089 0  -0.02768292772688095 -0.09445235429654124 0  0.0584407769391169 -0.01028549307707029 0  0.05746086761814525 -0.007211189597681798 0  0.05911405339728579 -0.007661066038076543 0  0.03956124564160726 -0.04356746063863645 0  0.08264508790216506 -0.04078277504408702 0  0.04357480050565923 -0.08619767087962361 0  0.08981377462875116 -0.04028988434541873 0  0.09049705441737288 -0.03872240142833174 0  0.0873121893098197 -0.03906771321021643 0  0.09122444274799318 -0.003089264685621294 0  0.0899638160750869 -0.001073984005218787 0  -0.02575195375353857 0.03058250080654763 0  -0.01996524344933601 0.09420074984759857 0  -0.04435415804245947 -0.0417817571937492 0  -0.04271629506241523 -0.04201552983970117 0  0.03465580516187641 -0.0720925090959454 0  -0.05179854060314934 0.07028755504828609 0  -0.05779531852152693 -0.03444603331234043 0  0.04689456045526204 0.08236757868016706 0  -0.07299784272988942 0.01148011511111127 0  0.04175936145313033 0.02465191370745118 0  -0.0775645106740022 0.001512175502390815 0  -0.04769124569002769 -0.07054106088322136 0  -0.04696159215310697 -0.07207717444735397 0  0.0180469491100962 -0.04505970922676151 0  0.07317749341608308 0.02624364202155378 0  0.07050732113175114 0.02477718286984944 0  0.007028559892523475 -0.08148838255815417 0  0.006867912710350929 -0.08414996047893589 0  0.09084308462621572 -0.01136126574698437 0  -0.08769611167701463 -0.004665275394892051 0  0.002462388183923202 -0.05618037862982649 0  0.06034920849492705 -0.0307000382510811 0  -0.003493694776555625 0.06448175279013464 0  0.01322095916833532 -0.04343527389619487 0  0.02478838551454127 -0.03136858972426648 0  -0.02721468015624543 -0.06776071861211493 0  -0.05955622248629597 -0.05477040152881166 0  0.08564037219452066 0.01540488064858021 0  -0.07524392131463321 -0.02180433011210179 0  0.03767426435417156 0.07686893208831684 0  0.05231511810771503 -0.06509070563544403 0  0.05031379221756967 -0.06590508622007882 0  0.05119561666202074 -0.06806600453203759 0  -0.07393227287062193 0.01670255804697666 0  0.04041750066120275 -0.07643178452033612 0  -0.07908753670189124 -0.004367871704719568 0  -0.03406363770109634 0.03540983579320636 0  0.08163770228913766 -0.05125128200031132 0  -0.04063270199068476 -0.009185736737793654 0  -0.04261247430880621 -0.009240080625658528 0  0.008933866631990322 -0.07917039421942343 0  0.01067919416621848 -0.06038950503363876 0  0.0247016406972824 -0.08912936622259193 0  0.02460041216204617 0.05746348788807306 0  0.027507500539831 0.0570960220309765 0  0.04780237193130264 -0.05675906646340732 0  -0.05893215923523468 -0.01417829114589441 0  -0.02955330008008244 0.08764438408662428 0  0.08503360676347298 0.04086511678749375 0  0.03914392883386652 -0.06900520580886246 0  -0.08889395475353232 0.04578535039806997 0  0.005284088732056237 -0.09634879148245055 0  0.004187560036287198 -0.09832805642462139 0  -0.007395250915077456 -0.09539483961173705 0  -0.005556047799057834 -0.09813791224180222 0  -0.007959504252129938 -0.09797484536079096 0  0.08382320090086845 0.03005374513823562 0  -0.04509482554454727 -0.03225068400433358 0  -0.06996674993757185 -0.05951847107348079 0  0.01263509782531184 -0.08200345413873791 0  -0.07012737421633961 -0.04434676487774486 0  0.04124996666570408 -0.0393845181390519 0  0.04854404356232973 0.08741801494781112 0  0.04675961138377505 0.08645127971794866 0  -0.03466111505182445 0.05187860981058483 0  -0.006742571201454065 0.07788958461061356 0  -0.08276247614379778 0.002486237885185935 0  0.0928916257353357 0.004128144031255509 0  0.09162781452067613 0.00703335268182775 0  0.09077081318909093 0.004798954720633613 0  0.06368815547785858 -0.04666783122670366 0  0.06125484049604478 -0.04673549979276685 0  -0.088328857903341 0.02672237305993612 0  0.02674604842116459 0.03192631615428016 0  -0.0003840374618760505 0.07704135707390793 0  -0.001784957689793707 0.07884131837552467 0  -0.01939805304354833 0.0846904546708252 0  -0.08865085857708335 0.03123437051679168 0  -0.05391048297496968 0.0822788829652913 0  -0.08396415963895935 0.03804082193765698 0  -0.0230852066574048 -0.06458569260375252 0  -0.02528149591003595 -0.06687383000847406 0  -0.02529111636508427 -0.06434989231167833 0  0.06205190806134735 0.009591002660474487 0  0.06312695644589296 0.006826112303261343 0  -0.01020993848845482 0.0465648283776266 0  -0.02041825650724016 -0.05286559384964114 0  0.05790827896593662 0.04491722212205664 0  0.02399584742448101 0.04928463535295494 0  0.07701553659574051 -0.01243037562844864 0  -0.05183669646528414 0.08345366523245275 0  -0.04694849668438531 0.0720081538811337 0  -0.07877412331245924 -0.001393741644995972 0  0.09655797082886657 -0.02598060376913613 0  -0.09671692286409077 -0.01100831208513296 0  -0.05565172258050552 -0.007109917315778938 0  0.03557442374870184 -0.02667624986232693 0  0.03242413719338484 -0.02606841415579746 0  0.03345447208798211 -0.02458718977926714 0  0.05423543529075907 0.005963762923790235 0  0.05475674703834632 0.007590489914074055 0  0.05362502836434713 0.008760654864154697 0  -0.07754521150203063 -0.007080189572417833 0  0.07881590442836814 0.01228514512998008 0  0.0818483749571166 0.0132769578954436 0  0.06333528251631731 -0.05827322824404235 0  0.06191106028716938 0.0585287778406164 0  0.03983545141796011 -0.08712480690272395 0  0.0423848245173579 -0.08882348362830446 0  0.04908634794565744 -0.02987072415003173 0  -0.02682391025404269 0.04699480242051829 0  0.03510009657785734 0.07261660779676025 0  0.01321190220092443 -0.04662753616677844 0  -0.03010577546756206 -0.08905386079598467 0  -0.01327659082298282 -0.0668993999620123 0  0.06908201988898106 0.05068552495363789 0  0.06853763635809974 0.04884361617827732 0  0.06596714929696842 0.05020772705544928 0  0.01621126909135164 -0.09711224009750495 0  0.002414521189108352 -0.07194028550324026 0  -0.05840629779515634 0.0763343348893461 0  -0.04322215971911462 -0.007677342841119645 0  -0.01876714408048308 0.07435983454202887 0  -0.02122705837142093 0.07619633686959662 0  0.01970466713552746 0.04660289895877423 0  -0.09539997566170955 0.006224163683485642 0  0.05335007469954311 -0.03325998065563278 0  -0.004016099476459326 -0.09860774402849699 0  -0.03097343289090038 -0.03620744288797233 0  -0.06110985454940223 -0.07160686236473011 0  -0.05433632408935195 0.0373042471034567 0  0.04938480707034625 0.07085605992110403 0  0.04512091163083437 -0.04340316622587698 0  -0.06713298633534258 0.01821135461743571 0  -0.0793020009209917 0.01215157589560642 0  0.04038206761966966 0.0879652043480654 0  0.03765886874692965 0.07378216122316282 0  0.03957373785883934 0.07465280968422167 0  0.02536347052621015 0.08402257057729015 0  0.02431341270012133 0.08131979686384214 0  -0.02949655948728328 0.0460475202867756 0  -0.0321172090337424 0.04606714915020559 0  0.02051856216896437 -0.0925445841469066 0  -0.06234415674477712 0.03975362153869284 0  -0.05137902237677556 -0.06735326853585409 0  -0.003636666919547107 -0.0448173539750826 0  -0.06458429040534254 -0.05108601479143093 0  0.007166530911385938 -0.06622837521663126 0  0.003581747115924742 -0.09365247536051124 0  0.07223674788273365 0.06913961063040108 0  0.07321625475081137 -0.02971360128784106 0  -0.04229547184454133 -0.04400125140972631 0  -0.08963669291190765 0.01067514595550441 0  -0.08645045177820332 0.01099361726298281 0  0.09464921936050716 -0.004496938050468062 0  0.06506117205680703 0.03129418622964122 0  -0.0914782636005123 0.01530803066479637 0  0.04570994118257897 0.06140089511919385 0  0.03389755438339 -0.05331720840910865 0  -0.08164289051995401 -0.05112639905495892 0  0.06501114927766762 -0.01873485539834523 0  0.04919330932041834 0.07864748150448456 0  -0.04536873212079666 0.04966715494433362 0  0.07686223277667238 0.01477642424083689 0  0.07668028923382379 0.01265401789238096 0  0.07415569624686907 0.01454497987689284 0  -0.05689140297255641 0.05525436256188553 0  0.04129201806858633 0.07275042491454724 0  0.04197699533165612 0.07048353210587738 0  -0.09122932814518472 0.03693126915521799 0  0.04720691086298018 -0.02598832250148866 0  0.04505060905672212 0.08120243674502843 0  0.04080495424030378 0.0174893400140828 0  -0.02719384948782649 0.05326378702550091 0  -0.02607753371070746 0.05438300794966047 0  -0.02434341078313935 0.05407228565039239 0  -0.06071291041424273 -0.06717652628382458 0  -0.07282934975427989 0.00913195640926931 0  -0.06251579780379084 -0.06868422512669181 0  -0.04494270847975673 -0.07391407906744943 0  0.05037873956139256 -0.04125550137769686 0  0.04815168319235887 0.03255582711178442 0  -0.01644094588406824 -0.08258738542818525 0  -0.04301903819836168 -0.004260218780619314 0  -0.01586210800898669 -0.08845219834108226 0  0.005471354680835625 0.0802242797498538 0  -0.03159409121486937 -0.07426232457356922 0  -0.02645475187510498 -0.0371480121608944 0  0.04519406445549327 0.07089002692805478 0  0.04398176368765527 -0.005141592778132769 0  0.04151231966185568 -0.002847192673319351 0  0.04131682274530749 -0.00489574919948139 0  0.03773002972090437 -0.05255640104296988 0  0.0321110054448314 0.02965428061324795 0  0.02891528062153904 0.02992310185551743 0  0.03075775292419871 0.02828893625396479 0  0.07040811685811409 0.04278986224960482 0  -0.01340760216328361 0.06495584172424548 0  0.01296481648266573 -0.08953925687194034 0  0.0501938976787825 -0.06288849633235478 0  0.07256118898217204 0.02466734987719531 0  0.001162106595659671 0.05186921990289956 0  -0.04758136127599636 0.05202288156765363 0  -0.06281965224170598 -0.005886825600809926 0  0.02556644013706048 -0.08404007349742695 0  0.04634076213275022 0.08860568417292966 0  0.05880831653002399 -0.03561723984224419 0  0.06110498889583154 -0.03536550883637027 0  -0.0334416933050446 -0.06575363429528314 0  -0.04259625731354257 -0.06965629623349048 0  0.003880808990756408 0.05809802512439638 0  0.004966810547330261 0.06086269245185306 0  0.002155526728385518 0.05951631550724687 0  0.05683842612112165 -0.04469209936626386 0  -0.06966742423173077 0.007845096174241305 0  0.03204103873597038 0.04982304788491314 0  -0.02736879014837684 -0.09041910655153543 0  0.0004572456250577465 -0.0727931277813708 0  0.03729645947530856 0.04972715633869602 0  -0.07880081453412581 0.05445389782779693 0  -0.07936315669749218 0.00424598886675719 0  0.03463430445186155 0.08657159120123431 0  0.09110648813571973 0.0326967311852332 0  -0.0008765532594630461 -0.09642733769007317 0  -0.009451225723708424 0.06612128316767786 0  -0.07716274687218869 0.02492571881701069 0  -0.08264326335875791 -0.04381820470597947 0  0.01127381724883925 -0.09371940528209682 0  0.02335907290007866 0.05457862260338344 0  0.04017832740412058 -0.03295225933851471 0  0.02258453952066678 -0.05993911185121108 0  -0.09430212130561486 0.003233303930565202 0  -0.07844934892162804 -0.0440975411937674 0  -0.05880008689873025 0.005250806991560876 0  0.01666223748386588 0.08622209692905888 0  -0.05867272290090269 -0.02633625153144536 0  -0.01383791213395816 -0.07762579305555406 0  -0.05306841977829232 -0.07162420938333425 0  -0.06506653926033611 -0.01508572659403173 0  -0.06659882112835604 -0.0168896372535893 0  0.007217908421545096 0.09407502703491966 0  -0.04486298204356542 -0.05374529694704974 0  -0.02074610848526797 -0.07656564038734393 0  0.03554809717137467 -0.04057983157771024 0  -0.02110848285797231 -0.07201260145124523 0  0.01309082678350106 0.06357463417087929 0  0.05776641565237473 0.06209484951090052 0  0.07363930285625304 -0.05713865256746564 0  -0.04447797502851896 -0.06305229063166899 0  -0.04231946576783697 -0.06306000300741008 0  -0.07264467123587712 -0.009690096803640403 0  0.06634648956406027 -0.04175766971837615 0  0.005064245196658931 -0.07273147996149457 0  -0.05994377775048058 0.05024855767474092 0  -0.09163519075065682 0.002707598065474924 0  0.04992441629961319 -0.03687122624077639 0  0.0291202171113028 0.07915035773075652 0  0.001734507739376531 0.06388780056772835 0  0.03220557835243362 0.07844377839087324 0  0.03749143010727499 0.04019736346020696 0  -0.08173719922291085 -0.03519835783056919 0  0.0001658221068565835 0.08205652225887232 0  0.06513660957618196 -0.07382107610769673 0  0.04535512832477682 -0.05094068367682866 0  0.01754308683572171 -0.0914660590232418 0  -0.06520400959016151 0.06532492962655573 0  -0.06537111233559503 0.06879964699770114 0  -0.0798868578272497 0.01709718124302483 0  -0.02668720755686154 -0.07151702784934662 0  -0.01727558515177198 0.08601799738844146 0  -0.06076461342466265 -0.007472270151810398 0  -0.08420859460433483 0.01076083849586257 0  -0.08168024501855688 0.01010513818698035 0  -0.06887597203934889 -0.03559262180670923 0  -0.03451659733118703 0.05654820595925275 0  -0.0346427868070503 0.02528389708623909 0  0.02227591778556962 -0.07881924130295569 0  0.03641104148344955 0.0844824269478797 0  0.03813601854786835 0.08261250626929342 0  0.006619060847026409 -0.06273863698059719 0  0.00843091146901419 -0.06134065491062991 0  -0.03540526990616081 0.08887439701553865 0  -0.05607012491841319 -0.02676915546653465 0  0.04661885059497745 0.02473905640339893 0  -0.0898590456091209 0.03396821204013054 0  -0.05567637271325165 -0.02392236671250226 0  0.002523198615774971 -0.06601135936382878 0  0.08498961001798014 0.03271441226338387 0  -0.07943922397264505 -0.03163712475320585 0  0.04644124264698861 -0.05930733994134852 0  0.04792774065356859 -0.05868701750338751 0  0.04620669194970523 -0.05604163590553404 0  0.04479867627516456 -0.05838460553599876 0  -0.0378704867228 -0.04376269051082991 0  0.05779646910250832 -0.01345349352687716 0  0.04013961064264505 -0.01594698087687334 0  -0.09986687687679849 0.005004038935846311 0  -0.09815644902364094 0.005836706786337638 0  0.07981743838498817 -0.05330784494997336 0  -0.06852628280184273 0.0008670032152213554 0  -0.01522000903589267 0.06873012774855725 0  -0.05717827429067224 -0.05790675989790894 0  0.05200790521682293 -0.01744734125215617 0  0.05115851407852851 -0.01482717233515713 0  0.06100257209905318 0.04213476869818927 0  0.04501268080460007 -0.01879504389369646 0  0.03484694610963313 0.0474424227015329 0  -0.02516070322719373 0.09518575240845324 0  0.05378338103023325 -0.03084067224723482 0  0.05171658994621025 -0.03049764185805174 0  0.05302964101436713 -0.02779688089893978 0  0.001187775464904413 0.0672757582217518 0  0.05165071431919927 0.008090255306054039 0  0.05206237350706309 0.03903421530270204 0  -0.0602235265939156 0.02402270087439264 0  -0.05110861760770777 0.004830453593306411 0  0.04237942774697331 -0.0440503991497627 0  -0.02451972686425792 -0.0409131735953243 0  -0.09058413605660984 0.02611109429209466 0  0.05599426895597565 0.06665397097981646 0  0.07764918034019949 -0.02284873646634946 0  -0.04888228887190051 0.08306680124448143 0  0.03606464693906267 0.02035158371862899 0  -0.05377065736196315 0.05990645700693699 0  -0.05277780553165699 -0.01703068174867706 0  -0.01782247805344684 -0.08583001504891885 0  0.007334934661965721 0.08761654278514588 0  0.01274164373264172 0.07145908031035438 0  0.05310911992970863 0.05144246554474963 0  0.05384118557271838 0.04944548745241037 0  0.0514549265425372 0.04883452176113934 0  0.0551204059946595 -0.03719226572456606 0  -0.06012125436880254 0.01885466408499805 0  0.02616401939599357 -0.03549156307817889 0  0.08850322567491581 -0.04299843543747172 0  -0.0249475494656498 -0.06206989956845424 0  -0.04935443383072224 0.03992125280117165 0  0.02986098162766776 -0.04948663371741387 0  0.07043370896798627 -0.006334180201301057 0  0.07252009608987794 0.03033704192260215 0  0.01644341558336547 0.05320006423538975 0  0.01894153211207498 0.05388069807410408 0  0.008009230145182742 -0.05113341297917895 0  -0.01048947850640964 -0.09637776327093631 0  -0.09433487308047941 0.01517253470786314 0  -0.09536774606605319 0.01325863577658344 0  -0.04792726085692749 -0.008063345528646428 0  -0.004954602499284562 0.04761502927700439 0  0.03053536624211845 -0.04689866142935319 0  0.05058380474511238 0.06302261495651977 0  0.05209689890500515 0.06024394848556074 0  -0.08437736690958321 -0.05074005260776463 0  0.08206017032961528 -0.04887161797903464 0  0.04701181041765456 -0.01627215282705225 0  -0.05800371398904193 0.03250335392675261 0  0.006075791090025049 0.04115126192283732 0  0.06418208962817111 0.04163940738072856 0  0.07565637041812082 -0.04805720135876689 0  0.0752940127351355 -0.04967142446245144 0  -0.08870717272850426 0.003026662413209078 0  0.08700464396074044 0.03220537057226215 0  0.07944496583867733 -0.03431019008275489 0  0.08126815341803018 -0.03570588983617125 0  0.07971747146618689 -0.03745936293150001 0  -0.04014681804762022 0.05670468765603057 0  0.0257746148197616 -0.05219879359951914 0  -0.09254069450595569 -0.02014880224538848 0  0.01999012379876897 0.05683843510453954 0  -0.04749036793847485 0.07474540628847856 0  -0.05573217041607662 0.070957439906788 0  -0.04993656258168727 -0.009870959670366412 0  -0.05230638233820212 -0.01068668474289152 0  -0.01380096538190975 0.05755351463341339 0  0.03776343995854171 -0.07092266580878637 0  -0.03244319252706726 -0.03464993780141936 0  -0.03371193208943644 -0.03736579474893765 0  -0.0897085212635632 -0.007462998467215194 0  -0.08254089480737317 0.03993887528962848 0  0.03507261130953255 0.05286569573730453 0  0.06967215830053923 0.05709491704094453 0  -0.0378663094417136 -0.08260135156859379 0  0.05418228424151376 0.07376075620344368 0  0.05720040762221826 0.07446064550305531 0  0.03842424213464792 -0.01104672322839779 0  0.04759085232886842 -0.04535472296955675 0  0.0908097543752706 0.03812160228173737 0  0.08958244894942624 0.03567680168137245 0  -0.003026269179484543 -0.09345707526474063 0  -0.002761994097868598 -0.09189560952375508 0  -0.004598250326120427 -0.07505695380896565 0  0.07965520702791729 0.009234977336244652 0  -0.03178187542346095 0.03421210405366584 0  0.05440802341332423 -0.05466615098716449 0  0.05321061104184183 -0.05752525143350946 0  0.01465708262617331 0.0660331032679591 0  0.007831800485045639 0.04493191057962865 0  0.05417797637491929 -0.02013037426350557 0  -0.08694085803138016 -0.0356358978572445 0  -0.05912478378273457 -0.01900309444245053 0  0.00107153310805897 -0.06081164788891903 0  0.002864743646679986 -0.05929210346184356 0  0.01652637601165651 -0.07057235659422265 0  0.01867774271400608 0.06915078215920047 0  -0.02899880171829569 -0.0517532683704531 0  -0.02022518115147877 -0.04555737968088379 0  -0.01867655156404264 0.05542831323976818 0  0.0525137052146054 0.003231704507683611 0  0.05395697758501609 0.002586912269601726 0  -0.006365427857261902 0.09156192240356871 0  0.04961238679917883 0.04082897888202602 0  0.05640136478759324 -0.02090836722155678 0  0.05510163248045911 -0.01805503049371952 0  -0.03024548263547661 -0.04097391155124925 0  -0.06038588669068189 -0.06403617431277761 0  0.04407893102858698 0.005979460640420533 0  0.04376390985339187 0.004001864440419892 0  0.02052026864187743 -0.04626655939855415 0  0.0550367599659826 0.05353093035426165 0  0.01386065164084054 0.09471361839276041 0  0.01205224744423087 0.0950760007782883 0  0.01357717802439817 0.09761529762438659 0  -0.01250853737157648 0.08109315897763456 0  0.05052833245585113 -0.01971387444442352 0  -0.02308373831049268 -0.05477429186304789 0  -0.0449784982548408 -0.02014454332955065 0  0.02358068597409901 -0.09553711375920304 0  0.08172852509642856 0.05307692771774465 0  -0.04801493965405066 0.008202449478600429 0  -0.03113223597891537 0.07747001342064409 0  -0.04880876605156021 0.04385882613955202 0  -0.05754960565212808 -0.05253719721927881 0  -0.04684145740859466 -0.03381797878861369 0  -0.05944043180157256 -0.04208331883676299 0  -0.02476876584205781 -0.04840553731560545 0  -0.0459491149718451 0.03120053319278658 0  -0.07641937696612004 0.0644865282590646 0  0.03140717383284782 -0.0545131922686892 0  0.08601730957331072 -0.01088526566104163 0  0.0881762031206587 -0.01305257925403341 0  -0.03618087918008331 -0.05211548478691191 0  -0.04726168079483146 -0.04958451445295294 0  0.06135883247433931 -0.06282288950840238 0  0.05820798917295381 0.06444929424917076 0  0.00784305321171647 0.06395043249270632 0  -0.07220065571229309 -0.05748696468230367 0  -0.02633026113294115 -0.0930066238237047 0  -0.02185302211403391 0.0927732556405437 0  0.08284267272185769 0.02122536473547742 0  -0.04796199306846689 0.004622351555052528 0  -0.0009983220140236402 -0.07902338009863855 0  0.09333966826480397 -0.009326323218145765 0  0.0160106605510456 0.05172678070602942 0  -0.0474922559239712 -0.04686209834708258 0  0.06743649876887745 -0.05337696939386222 0  -0.0522535104180183 0.03899914942376389 0  -0.08719631217590423 -0.03892762301454236 0  -0.09027118887288252 -0.03929724345822785 0  -0.08890593677272765 -0.03749571506194946 0  0.004469589405858445 -0.09068613996098356 0  -0.04520050023695647 -0.01454227307861777 0  -0.04755187210321839 -0.01426198861693518 0  -0.01539311071675682 0.07719360885820288 0  0.09268431286472355 -0.01602442338689191 0  0.001048105208195504 0.0566911836407669 0  0.02831943493895707 -0.03705866853321176 0  0.007481726229454172 -0.09060797767131173 0  -0.03530076908269861 -0.0780666430877897 0  -0.03803919257950131 -0.07777222543890909 0  -0.03779067539276141 -0.07617592660236158 0  0.02845064806610686 0.06263862034337794 0  -0.005872383214366266 -0.09344499844227316 0  -0.002496362713991078 0.04954809023850692 0  -0.03574258410897797 -0.08029874368278025 0  -0.03610623878542107 -0.08243395312819114 0  -0.006660634005763303 -0.07193472590143954 0  -0.008060071603287111 -0.0737566599267407 0  0.06809947510320941 -0.02195851826636694 0  0.08785632645731303 0.01122188298450326 0  -0.07341214798975625 -7.776862530693858e-05 0  -0.02251639701073391 0.05268164762780497 0  -0.0231109254752892 0.05043001026916673 0  0.0360251623839908 -0.02478413919693548 0  0.05632438494932401 -0.009178838836162212 0  0.06675650441356075 0.003558820990976481 0  0.003964992682511401 0.09835495787669693 0  -0.04576136564859296 -0.002963260927131544 0  -0.05248259532783992 -0.03130940415256238 0  -0.05013465315510592 -0.03156076946364941 0  -0.05018522461459834 -0.03335128793552663 0  0.009680391719450699 0.07108579223402876 0  -0.008678403674445547 0.05700990228734661 0  -0.08161805335521581 -0.01348927497370861 0  0.001864713184187144 -0.03993714214171558 0  0.002602154826117664 -0.04142620290513063 0  -0.0351226767184461 0.08408827644604003 0  -0.03393153695163972 0.08301480219131541 0  -0.04675892058407356 0.06022037387671772 0  -0.06081944713903423 0.02171078742667795 0  -0.03210566327547575 0.0855727541820805 0  -0.04217351753306262 0.04062420259473969 0  0.01833012868326058 0.07541704978908602 0  -0.05987581934939953 -0.07250997719793596 0  0.03115530726552268 -0.09343556138521285 0  0.03162359380917245 -0.09046930746858868 0  -0.05758186192462266 0.01929187682759228 0  -0.06702295838380545 0.001165661527304187 0  -0.06679680096694257 0.002754369032241945 0  -0.0432056245205274 0.04863619598119975 0  0.06283322240463469 0.06015424177344375 0  -0.02153692641806584 0.0559709893181601 0  -0.08634459339630327 0.03743675452591969 0  -0.08578271366612548 0.03541152573034684 0  -0.07657935492260814 0.007077381234870127 0  -0.03395051503823803 0.02736577401755297 0  -0.03331311252630406 0.02945764663488973 0  -0.03149221445122783 0.02705255608355185 0  -0.08135066036026484 0.03163552888873006 0  -0.01509269513434079 -0.04856558070268796 0  -0.03378136481728335 -0.03260346110816343 0  0.04749150793203138 -0.02017385125555534 0  -0.09107386673271597 0.04127934472770353 0  -0.08941424171891348 0.04132309057542323 0  0.07846517713072264 0.05628517242162422 0  -0.005709650155183162 -0.0514790984009741 0  -0.008608491267282796 -0.05244746093078768 0  -0.01250174856401423 -0.07330197749359706 0  -0.0115325872893147 0.08868455485239046 0  -0.05871362205028145 0.04408193724464517 0  -0.04652860730378897 0.02401222105695816 0  -0.04788166097220662 0.04755818126527352 0  -0.04712561614624441 0.01478638947938055 0  -0.04778871323396021 0.01215436368277582 0  0.03926398418294111 -0.03717268853044391 0  -0.09391424977676477 0.03432997511890354 0  -0.09278705075816671 0.03279619025359375 0  -0.06510824636272544 -0.06560533541428043 0  -0.06061072086380281 -0.05204371739441551 0  -0.03266951785464445 -0.03921439069202266 0  0.01209746883285752 -0.04455209269183417 0  0.01033510248647303 0.05867120775352229 0  -0.002267679235758789 -0.06674430718849923 0  0.04376881111874067 0.08324966075568979 0  -0.03456318281028701 -0.06283737731564037 0  -0.08910888121899797 -0.015936725024381 0  0.02756397413006454 -0.08906236217553117 0  -0.01357129894475989 -0.09234406786413497 0  0.03684075030513852 -0.07296544419049748 0  -0.09622523496233773 -0.02718708625873676 0  -0.08319743434887715 0.03379180061357943 0  0.03933623843602215 -0.05754347908169703 0  0.03110459394250969 0.06921990404370366 0  -0.01287372760880867 0.0932752302974305 0  -0.06272432745832084 -0.01312233105264695 0  -0.0477816040437165 -0.05265347634116559 0  -0.05649136329916558 -5.513173548640164e-05 0  -0.05846380041273613 0.0007081907507869069 0  -0.02179634884029974 0.03545214810160896 0  -0.04906984372590577 -0.08234777713746813 0  -0.05179150638429542 -0.08553404801155259 0  -0.05038276184829962 -0.08469102681890311 0  -0.03100573696167486 -0.04677531721299082 0  0.04955260227525003 -0.05401968302581248 0  0.04713725205543023 -0.0533701265742285 0  0.09496219193753971 0.003503655849678535 0  0.004747766005747891 0.08934998151690469 0  -0.03711075966610274 0.0602255723460533 0  0.0880297401951281 0.03718168059119335 0  -0.05642047964652246 -0.06720562870148365 0  -0.05622055985021727 -0.0702851694976966 0  -0.05501489697487569 -0.06798696166921138 0  0.03014468317696795 0.08486965548446446 0  -0.05776027023965275 -0.06559791640191776 0  0.03864726312948681 -0.05003115845718627 0  0.05692968121291239 -0.00418501216609928 0  0.05987964047741624 0.06854187190179081 0  0.06817795690121689 -0.01276316888754611 0  -0.05602690045206372 0.03483776249456137 0  -0.03062558853853589 0.09012167788800832 0  0.02206257723773155 0.07855362517661761 0  -0.04133815244689391 0.004164350836486321 0  -0.04109367948389217 0.006155044494423474 0  -0.01638084745497767 -0.0460890118609548 0  0.01837034906630218 -0.05757703287815253 0  0.06646539784914671 -0.00835236164120785 0  0.0565274119378528 -0.06160639933708568 0  0.05377093010971977 -0.06035266017931018 0  -0.09105232073730728 0.03184625438585081 0  -0.0674181670874328 -0.03602194771495202 0  -0.0983100378277932 -0.003616227589050921 0  -0.09845169300088101 -0.001506624392465028 0  -0.04945602876520787 -0.05855019988455044 0  0.06439530327270364 -0.02012901452598236 0  -0.03344056272122716 -0.07826221013624017 0  -0.03252994551522174 -0.07628440867140272 0  0.05538586800835685 0.03119663795631014 0  0.05602284412534329 0.0281376149975983 0  0.05456202598653248 0.02711342987350268 0  -0.03030016584201956 -0.06007940887652562 0  -0.06763749406492353 0.02613439937387247 0  -0.03950051089874212 0.0267033809426356 0  -0.03925600477766981 0.02462832205157838 0  -0.04208093248113791 0.02527187710407046 0  -0.03161790371243276 0.0510886867939233 0  0.0811602659380295 0.04690472676705702 0  -0.01497037459989965 -0.05853914912197513 0  -0.01309582397494963 -0.06095012344968898 0  0.0536406072925642 0.07779733482313719 0  -0.05574255164848487 -0.0321863681233927 0  -0.05459626203339179 -0.03021061898057314 0  -0.09986687687679849 -0.005004038935846286 0  -0.04561273489965828 0.008545435974504922 0  -0.04786808834899436 0.01057872354092411 0  0.03036482305687511 -0.05630361255693845 0  -0.06829001389884826 0.01641600664104195 0  -0.07038068268772643 0.01763577282307561 0  0.04523651229135214 -0.07165441143607892 0  -0.02908148155120716 -0.03885435462460373 0  -0.02963935106676942 0.0837709112972248 0  -0.03218207699621557 0.08292729207104126 0  0.07943193607557865 -0.05034116289353251 0  0.04292730631713979 0.03530176694223872 0  0.01293365106147357 -0.06020087769106652 0  0.03003834277669196 -0.08022229106289912 0  -0.07055270396156893 -0.009784742121667037 0  0.005582868089055059 0.05549328022058456 0  0.0010965065989048 0.08680186132757323 0  -0.06610175483261967 0.02416178569476507 0  0.06778084301123756 -0.03805611043038395 0  -0.07758049865660042 0.05601756349374406 0  -0.08061976204051639 0.05651690181090481 0  -0.05011636043804128 0.04129469198294783 0  -0.06805663902141021 0.004047128697946649 0  0.05011651385623255 -0.0846820698899145 0  -0.04458699210972414 -0.07086522810888338 0  -0.01816985144201962 0.09227720379257767 0  -0.01913512857016627 0.08942916886162304 0  -0.09019075865460408 0.02386641384204214 0  -0.06341207788648372 0.02750798108974956 0  -0.0834067260271837 0.04237427359866967 0  0.02997293795715205 0.05354349948745946 0  0.088287309040292 -0.007077299842111587 0  0.06597547395604446 -0.001404420513532434 0  -0.001913335536346669 0.05630032633791385 0  -0.03893182697585793 -0.05076317904991424 0  -0.07389220659154748 0.04184941579952096 0  0.09979642406704956 0.006253578673584236 0  0.02217878060836661 0.0372877435918841 0  0.04796144979125069 0.05056278637245282 0  0.04574041875726439 0.0484986678472229 0  0.08689084120357474 -0.01887507195234427 0  0.07883119387409986 0.04127803983977076 0  -0.008648579607274462 -0.06514099312963337 0  -0.006924884586857052 -0.06658253451184586 0  -0.02072802820099367 0.0688193387437091 0  -0.04349080026304142 0.0434455900690082 0  0.07156287631196884 0.05258493491282903 0  0.07412989059573032 0.05202371853108664 0  0.07234069708774456 0.05442103053002856 0  -0.04737303347564212 -0.07513166166185244 0  -0.07771614144652948 0.05188170390301833 0  -0.04199365581507433 0.06476240483296521 0  -0.03360115882327511 -0.08070623386727355 0  0.007894156560548196 -0.07130161389439771 0  -0.02172710969959379 -0.09760310551872269 0  -0.02081488746678322 -0.09638523844069143 0  0.01660243457485962 -0.06781627610457459 0  -0.02788566736954686 -0.03076185042129716 0  0.02457177988387669 0.07683545901783549 0  0.02702127389542755 0.07774071959778706 0  0.02443002315107936 0.07908930178236949 0  0.05759266559930593 -0.02682532170144861 0  0.05626436011978728 -0.02398898150555124 0  -0.002493661875855013 0.08627701625463899 0  -0.01780782159234021 0.06775383485244529 0  -0.03807744237151167 -0.03400838177962712 0  -0.01443136814635755 0.08486889697372467 0  -0.00725872852097964 0.0413935687415118 0  0.05351973748330729 0.05447377195182663 0  -0.07371612523817406 0.0612836554813453 0  -0.07496559808129895 0.06407859295345959 0  0.04602502474062657 -0.0216131557973192 0  -0.08440179629577525 -0.0006021775321971728 0  0.06603392648605616 0.03957919738159748 0  -0.07043656520189598 -0.007509628242771343 0  -0.01281587935004594 -0.05062323057634564 0  -0.06630598051303283 0.05396416775239517 0  -0.07403713515019519 -0.04706206503723206 0  0.0764008325400729 0.05507136833177539 0  0.07511155591098613 0.05744429450137437 0  0.0736050650788314 0.05587819284499504 0  0.02760123856890423 -0.0914847276395642 0  0.05576936889644682 0.05567835946787482 0  0.05238582406827928 -0.03748496790870428 0  0.07284487955112502 -0.05171519123238349 0  -0.003962284656702076 -0.06700478466541833 0  -0.06328906893889802 -0.0007794847534430863 0  -0.0319947219042972 -0.0495768858443213 0  -0.06959032237424648 0.07180264991381269 0  -0.03224271667243299 -0.07122651805491198 0  0.05281013996557394 -0.04840855291823455 0  -0.04222738177961147 0.08653376508620456 0  0.02380574471244734 0.06934902036397997 0  0.02528404352899814 0.07064369462322856 0  0.02249699190788927 0.071806391866545 0  -0.02412458981166026 0.03920386828565346 0  -0.02543206082349564 0.04196954369983116 0  -0.02605283014147476 0.03974731152705487 0  -0.08554576799883942 -0.006977375289103245 0  -0.009439787143205251 -0.09112700357254855 0  -0.01105437794319925 -0.09096532778585496 0  0.030178312717247 0.02622445269680425 0  -0.04193491381803981 -0.07470330324005199 0  -0.04227525452399221 -0.07721813616734773 0  -0.04011050254494178 -0.0749957970270826 0  -0.06124743247608333 -0.055236801927717 0  -0.06179712572150592 -0.05667432707094848 0  3.919319631100573e-05 0.08814564714793809 0  -0.06590981158396088 0.07519528070141018 0  -0.06420875920942208 0.07467661835018739 0  -0.06261406689469726 0.07242193470818099 0  -0.06109653641429198 0.07198426728465185 0  -0.09183377831997999 -0.005169177970693889 0  -0.05182813356981504 0.0485332496673174 0  0.0325851650385752 0.05451279456365216 0  -0.0486053047408755 0.0199173720933822 0  -0.05061482244813846 0.02041176291547951 0  -0.05062778769344677 0.01776996534416046 0  0.01012592877765326 0.08298593125563837 0  0.08689071915444586 0.04121826180430863 0  -0.0393137163514513 0.04781894596212597 0  -0.08434183906806443 -0.03968317443761877 0  0.04013575987457586 -0.06049364506884281 0  -0.04674700690677992 -0.0651118666671455 0  -0.04666328792532298 -0.06314619381707311 0  -0.04921079367042951 -0.06331611543178368 0  0.07663949950115587 -0.05034437002078394 0  0.08532081028641859 0.04376200403170485 0  -0.04267136431183864 -0.05038848916545616 0  0.0325608394103878 0.09454218761848085 0  0.03302751575397508 0.09274075115804409 0  0.03285763947844411 0.09094025748699329 0  -0.05802163758440421 0.07201447131354496 0  -0.06005724154975361 0.07378664392662718 0  -0.0884857617490216 0.02154661693383395 0  0.02551615988032931 -0.03268462719756608 0  -0.04840788497723535 -0.00948815438014986 0  0.02997706919085463 0.08223858348818018 0  0.07162771954697925 -0.06437507260200513 0  0.06990079294336139 -0.06523603507444761 0  -0.04936953015647726 -0.02532731914568402 0  -0.05146746633002423 -0.02325976825182316 0  0.057049415702464 0.04006152906042205 0  0.0553952657260105 0.0426127931160891 0  -0.0007901662134680381 0.04568309806346374 0  0.07830118257579932 -0.01418683570412069 0  -0.07131313744128531 -0.01459789901534332 0  -0.0340791891406938 -0.0402332151637146 0  -0.03366457142700125 -0.04454848899257041 0  -0.03151185954762126 -0.043643589604134 0  -0.03449217493741055 -0.04325968750035326 0  -0.05166784107785233 -0.01442405909192321 0  0.002439660332008033 -0.08500495861474007 0  0.0003620078269779079 0.05487194913492813 0  0.002486297509608171 0.05393442096455126 0  -0.04600110861149196 0.07494589820323276 0  0.05555627228177062 0.06411290760506136 0  -0.06469678960089492 -0.01067818476150859 0  -0.06043662406447224 -0.04581746615658445 0  0.04342505902218431 -0.02888580060860779 0  0.04671332816662714 0.07104556749567832 0  -0.04211809954505352 -0.07937709712285516 0  0.04125074243511177 0.05903450887831388 0  -0.04272673783617608 -0.0818676870952296 0  0.03612291652164497 -0.03054854476073665 0  0.09775422457655317 0.01396232171199529 0  0.07125025434282155 0.01820145653693515 0  0.07200343327754768 0.01682144706154022 0  0.01421424373660747 0.07033353556454378 0  -0.06031039452712832 -0.004728717388648145 0  -0.07271246131772559 0.0213715476459883 0  0.002695995132060998 -0.08000428480729238 0  0.0690766265356125 0.01745587032666269 0  0.07003405283834842 0.0153459840396568 0  -0.06958856349861756 -0.03128721867778545 0  -0.03840983202277953 0.09232073606064325 0  0.07817767135336146 -0.007309054973048955 0  -0.06426487315323089 -0.05631412570682919 0  0.04506735767252618 -0.07450250294347038 0  -0.05813375275543959 -0.07948822960770244 0  -0.05564508902365328 -0.07777685122403499 0  -0.05773524529667714 -0.07749087120362076 0  0.07063679833478301 0.05546630966535147 0  0.06788822212068549 0.05473563107539379 0  -0.03531800281158612 0.06401685325422873 0  0.05392122762554821 0.02216917498829667 0  -0.05411395014795004 0.06327376380079409 0  0.04884325984730373 0.02092486503356365 0  -0.06047077328515592 0.01443009963105851 0  0.06593331558328959 -0.0584675903603564 0  -0.04299125269934308 -0.01266811414574617 0  -0.05738477416656631 0.0153818201485359 0  -0.0551069793429663 0.01636949286207444 0  -0.0545053664088579 0.01439770669601121 0  0.07099991771025753 -0.01391469300057002 0  0.01449300168926542 0.04415466450714862 0  -0.0179877621702933 0.04215787848324441 0  0.03627729090103663 0.0379419860263929 0  0.06875082251421862 0.01942283537912801 0  0.02349202844274311 -0.08648258048507587 0  0.05955606713736857 -0.03850475412347679 0  0.04305698892520764 0.01627925169855637 0  0.09369029894675918 -0.02120946757997214 0  -0.07656233762456893 -0.01244046100777601 0  -0.07875317787602573 -0.0271423325792303 0  -0.0772668948814854 -0.02922043769598284 0  0.04969001519642461 -0.08070645665246161 0  -0.03580429050796229 -0.04121537812522378 0  0.06383155234153497 -0.07308430684078697 0  -0.08033458565059404 0.04787110420143859 0  -0.09001211148729862 0.04354599049734911 0  -0.00352500822534088 -0.05942590300669234 0  -0.001963799138658807 -0.06086566855440409 0  -0.004854620046932358 -0.0614684798681796 0  0.08900936427307872 0.01994105808395942 0  0.0896890511008491 0.01853639360718781 0  -0.0338060681074816 0.04099104213744545 0  0.04902981536575972 0.08348911643116104 0  0.03724005741281925 0.04552645664892391 0  -0.03241115054354202 -0.05807981857053891 0  -0.0320920601114711 -0.05510981905980155 0  -0.08030691683724067 -0.02870971113180855 0  -0.09019974825497938 0.01453158758374563 0  0.04065722284221146 -0.05107406548675809 0  -0.05945433164850769 -0.03721359888122577 0  -0.06334102461781602 0.01520964144377297 0  -0.06244421577937909 0.01683225059161275 0  -0.01868985638765969 0.08014829072920167 0  -0.06510608781187378 -0.03286992462895164 0  -0.08017109020481071 0.006099120021637088 0  -0.04905074769709887 -0.06724419465809575 0  -0.03737484076867879 0.09124018530220206 0  -0.03401451533881806 0.05514063299229661 0  0.06925367610906806 0.03587019970373189 0  0.02070574584730884 0.05959315609870419 0  -0.06874949608766073 -0.0008971361616662094 0  -0.04275346754109709 -0.06760132941423452 0  -0.04482386576486749 -0.06741486753699118 0  -0.06869244458519012 -0.02723395634225156 0  -0.07099729515028563 -0.02880663099807102 0  -0.0687168428976937 0.009936325123775356 0  -0.06665200807493478 0.008467667938752702 0  0.03727588756484685 0.05342583002924151 0  -0.09661043927471868 0.008680717096050655 0  -0.08248288275483079 -0.05652439787604935 0  0.09840306432520853 0.006793292465726052 0  0.005105334528833889 0.04865066261865728 0  0.005690492461262651 0.05091840262628074 0  -0.07072353646475328 -0.06080582368788102 0  -0.07257455056634594 -0.06068520828504404 0  -0.02705171604621462 0.07693828549492603 0  -0.08717452806014243 -0.02351553456214467 0  0.00765473639713517 0.06710615126413545 0  0.03422564431801162 0.03907244480486965 0  0.0324709533111611 0.03731329202900065 0  -0.006877993398655821 -0.09975533424135846 0  -0.06373038300135857 -0.06102753186137876 0  -0.04190086388859009 -0.03997314648082834 0  -0.06044841302253436 -0.02562313655216191 0  -0.0597991783520665 -0.02856873062032277 0  0.06557144062558797 0.06105922401070038 0  0.03338752609351429 -0.0560552187499088 0  0.03516611563864665 -0.02222959339520932 0  0.05485677109591187 0.04051783538709399 0  -0.0362342797077144 0.02790845188182263 0  -0.01908103522646411 -0.07699986102343875 0  0.06263142671603976 0.02622174375780779 0  0.08434629573122257 0.01461217366566765 0  0.08612712844274126 0.02776062609828446 0  0.08657268047080216 0.03006004529818156 0  -0.06490889418780904 0.007587107792693558 0  -0.05662433717342662 0.04507587408026083 0  -0.01994143200029712 0.0907333439207187 0  0.05828649623877947 0.04742725073171655 0  0.05600145968218459 0.04739700783974139 0  0.05640658516717172 0.0451134932171916 0  -0.03998065129167953 4.87890977618477e-18 0  0.07793851464293934 0.04994701938400822 0  0.06143126080705231 0.07046641460145042 0  0.0913619677897145 -0.01824135007026765 0  0.08995104743617299 -0.01758365664965265 0  0.05655054843468897 0.009976158643151467 0  0.00784657814517086 -0.07630393710337949 0  0.007131967114345875 0.04789380983005187 0  -0.07506499114400911 -0.0484629207571839 0  -0.09670649780184942 -0.008723999232730645 0  0.03964560619490225 -0.08433503050327415 0  0.03641324306959124 -0.0549447926674519 0  0.07821629750212185 0.0214447365010229 0  -0.009662962896797049 0.07687036998287149 0  0.04010768602736652 0.03417319871309174 0  -0.04272534944618673 -0.01879330747284432 0  -0.0713839327498797 -0.05491897772398505 0  0.03252809805076157 -0.07016721232134158 0  0.03014736074605908 -0.06846636115073394 0  -0.08104223543299338 -0.0585712350802027 0  -0.04500530434803327 0.06972957590086705 0  0.04767576820435405 0.0174185155677039 0  0.039357740210955 -0.04076493182033671 0  -0.01659422949016952 -0.03985824042922385 0  -0.09066262317122913 -0.01944052979729212 0  0.03023475815430142 0.05814173643649077 0  0.03229149307536273 0.06042644661486161 0  0.03235721356848258 0.05843500267032747 0  0.09211990407868509 0.009048146891357047 0  0.00802830337499888 0.08502008230363346 0  -0.07662720190074976 -0.001000429710462266 0  0.05807664822151756 -0.04049627855945241 0  0.08805613883729557 0.04451318632992528 0  0.04478155646217837 0.04016532118866007 0  0.04772559183331501 0.03929989949921159 0  0.04587316423351105 0.03786085738136227 0  0.01903192552184917 -0.05267422483956887 0  0.01723646274706874 -0.05441930820142385 0  -0.04976993878628549 -0.029945984371779 0  -0.04978000927907827 -0.02715709957137728 0  -0.05195580568686586 -0.02886973460688274 0  -0.02299788383241889 0.06727395951754241 0  0.04266551559842778 0.08882151838285432 0  0.08985722770811636 0.02332769513788325 0  0.08850520640565006 0.02262700410304208 0  0.08709349744940266 0.0240706381631632 0  -0.08167308414738361 0.003514390289896882 0  -0.08167937613025356 0.008611078089463769 0  -0.07808675818182613 0.007042845449734546 0  0.06315411293127506 0.05450114521925978 0  -0.03070938157926644 -0.08682302518899263 0  -0.03258642456173509 -0.08715833561864807 0  -0.04092567506030809 0.03278301082947381 0  0.06743224767845998 0.008217083617164809 0  -0.06851004783853615 -0.06264683647256231 0  -0.06721364743715427 -0.064059700681947 0  0.05094851975164775 -0.02311710475150198 0  0.04919716427020999 -0.02441013231359132 0  0.04931466117633287 -0.02144717554921824 0  0.05443655009510547 -0.0294555194003079 0  0.03624043588312533 -0.03328551564860207 0  0.03998442874608969 0.03984284708938648 0  -0.05173783012479265 0.01300177224920531 0  -0.05045897819777238 0.01219058756019271 0  -0.03199415683392871 0.04045150000888038 0  -0.05135386668475218 0.01911602709535756 0  0.003873892092646734 -0.04868785201687759 0  -0.03579108266122515 -0.04600370749416433 0  -0.05756123618616111 0.04920189521281992 0  0.02550699636999299 0.08234216592780495 0  0.0604155741056762 0.04934615398494996 0  0.05934017375857488 0.05134606946382134 0  0.06172661323899077 0.05192201164520709 0  -0.06151962377290751 0.05270494446821453 0  0.08871083876504554 -0.026167570700391 0  -0.06577941921800047 0.0001025661089385642 0  0.05741377524963106 0.0067240182453432 0  0.05268207227539766 0.03620611686776381 0  0.0506409440641543 0.03843330273296125 0  0.04394606984262125 -0.0380313153125155 0  -0.05918917576461822 0.03005892913089447 0  -0.03431241908333668 0.05952731123867927 0  -0.0349852729032715 0.06167898400056503 0  0.04044144877452491 0.06530185230230719 0  0.03905971555934329 0.06695190010787819 0  0.03751497204709843 0.06505793644901672 0  -0.03671049093242866 0.06492957253136708 0  -0.08707906916362966 -0.008647428030806752 0  -0.04696986404699504 -0.06730857794232259 0  0.0267347355729398 -0.06486965086384955 0  0.04529893942160366 -0.06458729004475747 0  -0.09799379518640081 -0.01989094285756277 0  0.002304054729876479 -0.09640677555955102 0  -0.004106538574534673 0.0933640113838534 0  0.07697417743491931 -0.02478921141392049 0  0.02462140247253957 0.07210055661754086 0  0.08100495505092579 0.03912333708181968 0  0.08050890053301246 0.04157883974412342 0  -0.06271006997612806 0.05079450377155066 0  0.08046833196083336 0.02297687419480703 0  -0.01568817541219819 0.09727076404415012 0  -0.01490523713828394 0.09551982320465831 0  -0.01764526824141004 0.09509613543279717 0  0.088339710742635 0.005243389947515611 0  0.08617772385133306 0.007050041181225456 0  0.08552455108649659 0.005119254155159714 0  0.06793314091215527 0.01470559369436748 0  0.07118382226958693 -0.04340846860854005 0  0.06996601760329349 -0.04195008499239685 0  0.05315626786958252 -0.06713281529902938 0  -0.07722764497294837 -0.05758916205387149 0  0.03918942547033962 0.04759584529741871 0  -0.05525716082366863 -0.07190270711149759 0  0.02714911602868951 0.0889623852149701 0  0.02579466333090293 0.0881015903935146 0  -0.01706955670683269 0.0563769070359783 0  0.06557573927724851 -0.04690193296011107 0  -0.09115513493660758 -0.007798878674849518 0  0.02825134543406977 0.04619691918135624 0  0.03087387220442386 0.04696829848822041 0  0.02906942909943323 0.04878719025741441 0  0.006185508187481899 0.05249960023985881 0  0.007067753011991924 0.05467985509796353 0  0.00293413461736546 0.08445869618668979 0  -0.002408708017809823 0.0716290433372052 0  0.06116591213539736 0.03337474846044865 0  0.06801893343510905 -0.03501620313020241 0  0.068499404149891 -0.03207730059506683 0  0.03344074759376808 0.03193014967058778 0  -0.04033919994005795 -0.07975487182235984 0  -0.0405123002914719 -0.0818802535541427 0  -0.01485502755881713 -0.08732329368674149 0  0.05988705805969222 -0.06804974578527166 0  0.005448740450967756 -0.05167900533193513 0  0.0387152201096827 -0.08061810054361011 0  -0.05309701352492974 -0.07408072941758058 0  -0.08367445824122724 -0.02398548610026069 0  0.05637628476248583 -0.06858903203218958 0  0.02765110435796119 -0.0863050976823507 0  -0.06049766820907816 0.001335707673698219 0  0.03438374173196797 -0.08271831224438095 0  0.00599642016472668 -0.05410477785723809 0  0.02152389889618867 -0.05331595434222415 0  0.0234227580271602 -0.05378815183084732 0  0.0223755650871758 -0.05613127450228659 0  0.02425888967894128 0.09037645042716329 0  0.09377874119730302 0.0114999232316936 0  0.04641644909907894 0.08376793599626102 0  0.08507662085945054 -0.03092465402746141 0  0.09106229157348084 -0.03124894481455637 0  0.01067199425480507 -0.04017420497043784 0  -0.02367095154256083 -0.07192598563112582 0  -0.06509524651273027 -0.05856641681039493 0  0.05330484906308618 0.064963800579979 0  0.06150437375126962 -0.05551331862502869 0  0.03314161845091264 0.0450257482553553 0  -0.0264840788694368 0.05858158982716762 0  -0.01733499683498166 -0.07649155728604977 0  -0.02671552033037054 0.0557603570281493 0  -0.002041449406868626 -0.05789358294959995 0  -0.05484568162849189 0.05258491317307732 0  0.02314141612915014 0.03422599820298553 0  0.0236072922828075 0.03690557585310043 0  0.08604912372068048 -0.04422110867367345 0  0.04710646393968737 -0.004651713559933636 0  -0.07308814843757777 0.001906081972004288 0  0.01427731197430546 -0.0688020781585211 0  -0.08511026325626481 -0.02490534449687639 0  0.0187335881412021 -0.06357418047903746 0  0.04148411038102897 -0.05537474498579511 0  0.04178775457402047 -0.05732726172103732 0  -0.06297730362878856 0.03761816832609936 0  -0.06395619645277122 0.03560391387847372 0  -0.06136008645886537 0.03505039080186143 0  -0.07578749626292862 -0.05368639554366302 0  0.09581016168927509 0.005327313019824343 0  0.002412613275600298 0.08977325391049261 0  -0.02472727781081773 0.06187695018353667 0  0.08348356120054388 -0.009125898295167034 0  -0.03972030926472803 -0.06954668657441192 0  -0.03771514412946238 -0.06890090576568322 0  -0.04015359009012989 -0.06723332741834151 0  -0.01324769533420252 -0.03931352742604276 0  -0.08612525768443416 -0.02160565977308429 0  0.06136780674922694 0.03643311835499819 0  0.007818468519696 0.08213976266860919 0  -0.06602689110661641 0.03616491779481058 0  -0.0653546282758741 0.03820231298280917 0  -0.06796389992947195 0.03680709683846024 0  -0.08575101597019483 -0.03419585791443177 0  0.05861574985048737 0.05884640468669954 0  0.06840650974552631 0.03393354851496584 0  0.07030920775901976 0.03309484762699554 0  0.03130792916308057 -0.03718679404301731 0  -0.0517915063842954 0.08553404801155259 0  -0.002683680156149277 0.06639060391315506 0  -0.001849506742556841 0.06851137334050916 0  -0.01738775950368737 -0.05292264342932382 0  -0.01557639368009994 -0.05546489870789994 0  0.01360290563417042 0.08655617652777421 0  -0.08599204930583251 0.007955253949159148 0  -0.04947414269329844 0.06262648695914017 0  -0.05146545449558373 0.06042452540895989 0  -0.05163727718163558 0.06248747172608678 0  0.03950131793089646 0.07842459045314379 0  0.0383805278928091 0.07990197076344023 0  -0.0357527671277082 -0.06797911668484991 0  0.03100485637900158 -0.06172159329676991 0  0.02269425331346425 0.08612611941771983 0  -0.06816678295853155 -0.03259808386377207 0  0.06567522946004378 0.02666028136326573 0  0.06600112288611962 0.02480555992804075 0  -0.006456185883774754 -0.06367979500014205 0  0.06141402335669626 0.01508222576212156 0  -0.02762840649099313 -0.05908223546792542 0  -0.0263925900185772 -0.06157500960992731 0  0.04988891301632018 -0.04707630932120538 0  0.01746731438833674 -0.06116557696082268 0  0.04336558438938835 -0.07411185876655287 0  0.05593981127571723 0.07214506501276211 0  0.003691853660692102 0.04748786396613042 0  0.05114963292352167 -0.07876877312280327 0  0.05012638418371608 -0.07596794343803791 0  0.04927116063707084 -0.07756974869935476 0  0.03831190557037484 0.0856631820843948 0  0.06898044009597842 -0.0583123178067205 0  -0.005444221050924079 0.09749256576272833 0  -0.04409428949081114 0.06691146294375648 0  -0.03716227060762175 0.04328430186017245 0  0.03815398673591416 -0.06611971571085307 0  0.01389518727800095 0.07583442520140167 0  -0.07007731244017959 -0.03405464968873523 0  -0.07106686159265412 -0.03121205576036831 0  0.04397279187719813 -0.008351534934123453 0  -0.06460151752915069 -0.0238822189505622 0  -0.06351172833849661 -0.02662838264550919 0  -0.06256093408462346 -0.02478003895800766 0  0.02157446086225717 -0.08720445264892655 0  -0.009950275840383107 -0.07810130724104707 0  -0.08575446572174751 0.02586033972971365 0  -0.01862688221442678 0.0501150822255309 0  -0.01805879931153413 0.04870857306486225 0  -0.04370595339139549 0.05159678420850496 0  -0.08156822129421115 -0.04097583750725701 0  0.0751889212155107 -0.05542500449969923 0  0.07554082297260112 -0.05280463089931892 0  0.07751770180770677 -0.05463922801517952 0  -0.07889245047645045 0.00877243173015747 0  -0.03973632229921845 0.03506857887663694 0  0.04048434658873288 0.08181753457205956 0  -0.002644059802390036 0.08203905155566116 0  -0.005240136427507473 0.08309777748573813 0  0.08061684559577419 -0.04623856402861413 0  0.08242949155708104 -0.04624137651052879 0  -0.05526026685680412 -0.04820978444606538 0  0.08978427428741736 -0.02340322899328767 0  0.002208401119334691 -0.04337214651174694 0  0.06800016868378285 0.02696435734823312 0  0.02112809372829298 -0.05085437719662662 0  0.02372897002093462 -0.04929518862733827 0  0.02186793364162146 -0.0488258246384579 0  -0.06755453610799762 0.02092583488076424 0  -0.06148961455719382 0.06951955336478934 0  -0.05971098517654683 0.06855009226635034 0  -0.06072792535261949 0.06667363345160233 0  -0.04471764813284482 0.0483431719017248 0  0.04934071666132042 -0.06409410054379475 0  0.07649052750642768 0.001606340088475403 0  -0.07450788648213816 0.03936334289456983 0  -0.005586816214842827 0.06614165622505838 0  0.05980199661685617 -0.06508430170972281 0  0.05873485360238197 -0.06228775041874535 0  0.07642614815013481 0.006621146055335781 0  0.07635596887793952 0.004449511049629775 0  -0.04448845111862455 -0.06519352233876277 0  -0.009745599000239255 -0.0724115000019345 0  -0.0869264614841976 -0.002044879100512984 0  0.07609665729035126 -0.001356689820518279 0  -0.04970532620547023 0.07048636654303314 0  0.03760709333481934 0.02221770603001156 0  0.01399549000862173 0.08948822701631312 0  0.01921937139332007 -0.08111926780430316 0  -0.0005280890180219172 -0.05932296309065645 0  -0.000600247619453471 -0.05639217513435601 0  -0.081435080238421 0.01915091959467461 0  -0.002315658521385533 0.08020820643157066 0  -0.00111997894843548 0.0827672369576664 0  0.03215868279249916 -0.08047789418167832 0  -0.05417433216940891 0.003620011821288143 0  -0.06746865026547567 0.0137234354781783 0  -0.06797736071823915 0.01146045312723903 0  -0.01764635688310047 -0.09452143926922206 0  -0.01796353921296188 -0.09682493651389738 0  -0.001120933395228246 0.06314018262398204 0  0.007576125451825573 -0.07855298984306024 0  0.01015432377555552 -0.07722994480800119 0  -0.04081481512011509 0.01166806888058138 0  0.03791903747439176 -0.02711094935786211 0  0.06326582881295041 -0.06482783052466819 0  -0.07569921044688101 0.00187558019013876 0  0.04643369660480708 0.005477875182919352 0  0.02038268320015696 -0.08322398220321177 0  -0.04295735137674679 -0.02175127626352455 0  -0.04505564514430718 -0.02301209128452591 0  0.07255897736183728 -0.03728881790479592 0  0.0611763298495062 0.05373037344355184 0  -0.04201230575303867 -0.0863070099480262 0  -0.0429818319109345 -0.09028286453351637 0  -0.04142189015017939 -0.08935803505637592 0  -0.04032937942212962 -0.08806746649761887 0  0.03881422333911325 -0.07386969148963296 0  -0.0178883892133775 0.0627596041958683 0  0.008962366871227565 -0.09282473697710311 0  0.01188862627815686 -0.09204122494763579 0  -0.06590981158396089 -0.07519528070141018 0  -0.06416505231230522 -0.07472747502644096 0  -0.06270191841295954 -0.07325039009444775 0  0.09095936755991522 -0.02778538768968179 0  0.0450390912107517 0.05852706182459869 0  0.04727580020689452 0.06000065079751641 0  0.04434697926844895 0.05981848605151126 0  0.06202610126936916 -0.06150485872173658 0  -0.01066659328889911 0.08222526241339959 0  0.08514163182052406 0.01717740682393416 0  0.03144130487846586 0.0819704095055889 0  0.009240038223895857 0.06570123592668999 0  -0.01261565313577525 0.05336763048213748 0  -0.01403129923755462 0.05186436447521099 0  -0.01166038329850647 0.05062724398776636 0  -0.02466855244417769 -0.08168618538838357 0  -0.02826549503653644 -0.08034347698132488 0  -0.0002133678409530534 -0.06237076706441479 0  -0.002706352154784222 -0.0641599059135205 0  -0.0001044639994256767 -0.06455110343530192 0  -0.004083298486067412 -0.0776612290692997 0  0.0839145706180919 -0.02397025334841558 0  0.04320726677085132 -0.06631163535098376 0  0.07676263992137804 0.05837562840331843 0  0.07866236060317681 0.05940642277823558 0  0.07971280769863304 0.05779648855980157 0  0.07885773745818246 -0.05928803018808747 0  0.07656086757279512 -0.05751430355891746 0  0.002841410975604452 0.06080928646926195 0  -0.02515990629916278 0.05125448362955848 0  0.01409017615213281 -0.07185367588412614 0  -0.01847137522683855 0.04653024760433103 0  -0.02211320365858684 0.03693293919919267 0  0.03461721094480881 0.06574442560377598 0  0.03166791979696329 0.06539873974055152 0  -0.01306473325025862 0.0634346005783186 0  -0.0471039861524329 0.07054127711815106 0  -0.04488786626073996 -0.0403791572905316 0  -0.06699838750338517 -0.0374456775937012 0  0.06960097215019558 0.01259085849530078 0  0.06826733045221685 0.01001689992426356 0  0.06816606287551163 0.02270191899798071 0  0.01973526489827653 -0.06000815101407335 0  0.02099697698712778 -0.06555267715504198 0  -0.09612673335438678 0.0179362069508563 0  0.05706172747768672 0.03797184039413262 0  0.05709935736449712 0.03640792366771815 0  0.05496249362265753 0.03596571070131093 0  0.03523766265787275 -0.0666783823025902 0  0.03677364706070384 -0.06507868874850727 0  -0.04458112280000798 0.07363999922041235 0  0.01757939992555886 0.06286876804070819 0  0.06311485748477003 0.07329827274287004 0  -0.09557839395932877 -0.002018910997089736 0  0.09140095377479679 0.01832005604686126 0  -0.0707693448202346 0.004959628736279104 0  0.02791100808641465 -0.06893718493313426 0  -0.0001445686613158975 0.05117309375813411 0  -0.0596151606054294 -0.04020287030917759 0  -0.08060680007162714 0.02902684914798353 0  0.04079559718107893 0.01895553416544086 0  0.03237087697131218 -0.04174773555615199 0  -0.08980975588364183 -0.03490952893656468 0  0.04941070416198411 -0.05617722180284514 0  0.0394115722740824 0.02653321120067934 0  0.04070691498601672 -0.03157329750149718 0  -0.02174995456145497 0.07066526370038048 0  0.07250289232996705 -0.04542831223020609 0  0.00424531399264855 0.07943664163514447 0  0.06250628423255153 0.03278870924359385 0  0.008307580378825338 -0.04176947318096554 0  0.009179201198158073 -0.04014131358435399 0  0.06901333660985429 -0.02989593164164006 0  -0.04231961053571125 0.01452369616167081 0  -0.04369801126500061 0.01526219583979074 0  0.06075176512683282 -0.006120833783477212 0  -0.03942381199022293 -0.02251086787415893 0  -0.004650287337221816 0.067339473615297 0  0.04409788390173208 0.07185075418160232 0  -0.01061813610479544 -0.05391459929796515 0  0.03395020217784033 0.07558337996204113 0  0.02345202667179729 0.06645057173889676 0  0.02248617023596658 0.06383640494972312 0  -0.08099510516579987 -0.008201901678394005 0  0.0391270116912513 -0.06324601528872589 0  -0.02146092403402692 0.04725669505192979 0  -0.08519920913528596 -0.003088966461475835 0  -0.040974572307033 -0.01987588140515885 0  -0.09746522355514861 0.02233749538650204 0  0.03896175361704522 -0.05333686882997867 0  -0.06404493443650175 0.0100346485536396 0  -0.05492188424631856 0.0413664647797458 0  -0.03537830428220264 0.02998413558544432 0  0.07700795604380233 0.0533420487310028 0  0.02355761598569588 -0.05882081903786077 0  -0.0157465811231302 0.04943857465800792 0  -0.01642975666641065 0.05166027148250289 0  0.0009121312353527377 -0.05782122130682886 0  0.02587521802064355 0.09405324205883604 0  -0.07286335501787528 0.04938811328947822 0  0.0425877256001377 -0.0258386926637228 0  0.06388568422323258 0.01169760617353465 0  -0.00914220745656793 0.05008989235269919 0  0.06342605860031517 -0.01256538722452202 0  0.06500844353449488 -0.01507900308720871 0  0.06540670951030174 -0.01284816996482649 0  -0.01179110601328605 -0.04151554702494234 0  -0.01440807021710531 -0.04161163188970731 0  -0.04032832060199524 -0.05363568862571016 0  0.03842424213464792 0.01104672322839777 0  -0.03839141390910009 0.03681487962052422 0  0.05970222495012503 0.07605024694591615 0  -0.02333381059917064 -0.06672569534010481 0  0.05622823049546938 0.01732428998075038 0  0.05458456306354333 0.06874326515292925 0  0.05664460322633773 0.06965403329911841 0  -0.05139798327486747 -0.05453411024300484 0  -0.05035495927842108 -0.04550263218784774 0  -0.0483178478912433 -0.04454902893646773 0  -0.0880049784938156 -0.01175430109758937 0  -0.05514956250686751 0.009577451403939757 0  -0.05319447944605273 0.01189465339202169 0  -0.05273551212930658 0.01017062669755032 0  0.07115347027520541 0.04472647176438899 0  -0.05401214090115249 0.02209875280950793 0  0.07044463188125666 0.06888436544767559 0  0.06866009441064198 0.06702343184741767 0  -0.05564273545302854 0.01111094560819707 0  -0.06694988838068465 -0.02108653543736611 0  0.08456853262989833 -0.03398945495147543 0  -0.03960346824585301 -0.06247746676165532 0  0.07811296067856204 0.04353171214712102 0  0.08038763022208291 0.04379101705997981 0  0.07316665544621401 -0.03273412843511968 0  0.0853253753319846 -0.002362757433754662 0  0.08691181507789902 -0.0009701721146687292 0  0.03028423230721272 0.0413280347030083 0  -0.04659330057669258 0.08301106140600863 0  -0.01414921282837445 -0.05618898681456105 0  -0.03638938630883839 0.07265544878654619 0  0.02032140695288803 0.09188273804459127 0  -0.01561234741142207 0.08681046106912969 0  0.05824920784832837 0.008144998205765365 0  0.05942503302859953 0.01010172935085456 0  0.07740614659683037 0.06122276918903607 0  -0.07690063762079612 -0.05013838454317512 0  -0.04505353034579834 0.08588641751211024 0  0.02017839379244149 -0.03630703153637282 0  -0.01997079888678106 0.05820221740725729 0  0.01593785151534714 -0.08872235838564252 0  -0.08311845997975889 -0.01070686750454826 0  -0.06419135747618737 0.00528726328776413 0  -0.0111491501174962 0.05784751384796063 0  0.06334470442084703 -0.04241003403211584 0  -0.02563605969284689 -0.04559402557040622 0  -0.02813672982654416 -0.04694955109619438 0  -0.02677734219455186 -0.04820277990649621 0  -0.08027908067573183 -0.02249568498561638 0  0.03314071846529323 -0.02738206327841847 0  -0.07434876051881999 -0.06471554715017802 0  -0.07335258802739014 -0.06288066851039258 0  0.07394468036189136 0.06730986368263432 0  0.03556156281083534 -0.0290579974123776 0  0.04824328855968713 -0.07480914795173943 0  -0.04332020421498665 0.01034321013929931 0  -0.01923179400154248 -0.039628874568668 0  0.007332464249260319 0.07265406106992871 0  -0.05362260033985786 0.07319782016931618 0  -0.08191187754141924 0.04289504237531658 0  0.0242041394667415 -0.06615057446218436 0  0.05009703164792079 0.004850248333978215 0  -0.03062315488409828 0.033098458826109 0  0.06824889930103029 -0.04369484702156977 0  0.03937443057575165 0.05996487024597765 0  0.04024741816236348 -0.04190763337075137 0  0.0359190830204603 0.04314594062979458 0  -0.05824851429566078 0.03533947624766996 0  0.08656300316972777 -0.009535396054104018 0  0.002938814919326343 -0.09076496858595119 0  -0.05657758556064461 0.06478648108933262 0  -0.05557090780737532 0.06586123862092426 0  -0.04556671515788257 0.01425163162469838 0  0.05521499762882485 0.004896029464639762 0  0.07907711940962263 0.005118798730693892 0  0.01675805149892062 0.09377689028229513 0  0.08499258486992665 0.0377567076264298 0  0.07299255914937974 -0.005911296576853123 0  -0.08666091491928628 0.04243428363516699 0  -0.08732662299590806 0.04005542419634667 0  -0.04597299418436567 0.02181203853260148 0  0.02185180075561802 0.08052583557806509 0  0.03892312475850256 -0.05516759188668335 0  -0.0536179897528514 -0.06529406398106927 0  -0.02222775541483239 -0.03917235816914098 0  0.05941752318729158 -0.06030748191481093 0  0.06084230089460457 -0.05999114522567399 0  0.004861720863833972 -0.08344109860827718 0  0.005074652606739493 0.08300008520475069 0  -0.045599519702103 0.01006912449628251 0  0.05765937365534773 -0.03206596162127729 0  -0.03409254272749834 -0.08277782110467152 0  0.05482154450504459 0.07696362173022975 0  -0.05239248092531773 -0.04752634612625967 0  0.06414728001131753 -0.0271194941357768 0  0.06235085904840037 -0.03928750488235944 0  0.06718308100237941 -0.06411102202483615 0  0.06428405768339913 -0.0637803996979821 0  0.06882952016667544 -0.06347676467143508 0  -0.06380126092534198 0.04797031337921591 0  0.0164829298491422 0.05779842356618898 0  -0.06275442317515943 0.03075216785282904 0  0.03319945237572056 0.02227664336607152 0  0.03469529852442281 0.02247304081146481 0  -0.08185126660650416 -0.05482770933386725 0  -0.0796829401367932 -0.05348149027591445 0  -0.07889084326560802 -0.0522228962136842 0  -0.07742043668257638 -0.05229221505049735 0  -0.07897492318201881 -0.05538269285046021 0  -0.0222223889224981 0.08585902814804641 0  -0.0210383931149041 0.08401382232741 0  0.09740763179399119 -0.01492690872485208 0  -0.0445291401462679 0.01704613715877804 0  -0.004867316106351772 -0.05875618080611596 0  0.01075729023881101 0.05270554485390017 0  0.01109455682281494 0.05125828809758442 0  -0.04648953892540833 0.02679215826211865 0  -0.006873291344142563 -0.0409488763881801 0  -0.004693563238818172 -0.04126380385245672 0  -0.0192772972190836 -0.09811635600002788 0  0.02202253778994797 0.05900415271452314 0  -0.06813606804369457 0.044667599778486 0  -0.0686756857686296 0.04255269265260156 0  0.02072790721093148 0.07006753703596219 0  -0.03706423478042234 0.02263524750790228 0  0.02069032895664595 -0.08546196721893499 0  -0.05247228016982161 -0.04361413781192629 0  -0.06534280629911848 -0.06999096011540407 0  -0.06762116655099053 -0.06962467064645241 0  -0.06747580457604264 -0.07185751512207032 0  -0.07257811114407065 0.004307337797022695 0  0.01203854386184533 -0.06868414286923964 0  0.01070341326294447 -0.06958357582705277 0  0.01265905194582831 -0.07167983586142825 0  0.01235157859091477 0.08517619786627038 0  0.01095073039169726 0.0858062745586574 0  0.04609847119333766 -0.06854396426437384 0  0.03824115942633738 -0.02513626702387142 0  0.04590075136891918 0.0533907187642691 0  -0.05284770210972038 0.003036871604451635 0  -0.05167236808180373 0.000420874515068308 0  -0.07291066425333335 0.06616239192191226 0  0.01587484174091442 0.08921215287631168 0  0.01456684882025259 0.09180516147886897 0  -0.05513829704790291 -0.08150215823939939 0  -0.06977973779694428 0.01901628801468948 0  0.07965824489826534 0.0006883556798691447 0  0.02694287951821234 0.08593375325398699 0  0.04180865216584395 0.03947729622768825 0  0.09487548326582879 -0.0266291576804007 0  -0.05831635373206788 -0.06211231345341686 0  0.07477658237844413 0.02781638233574293 0  0.02900321249957346 0.0673862156592714 0  0.04346142510041825 0.001901430954680391 0  0.04393436036851733 -0.0003661969422364323 0  -0.002604934808224829 0.045697206839126 0  -0.08380735917257696 0.03007041599646186 0  -0.003663098432383281 0.07396410599408158 0  -0.0008374056809038479 0.07327292447521064 0  -0.002012063877268195 0.07465659224402912 0  -0.05205298807603632 0.05346206278252481 0  0.0754996951377261 0.01525326521149879 0  -0.0442886401132128 -0.05669380750480679 0  -0.05623192772087233 -0.04118893714483692 0  -0.03901636726535509 0.05760568058390578 0  -0.02570094897854667 0.04493783696980672 0  0.08536141121919294 0.04925368779270553 0  0.08407540354410292 0.04739690211097843 0  -0.02120523328329738 -0.07361352516542703 0  -0.009400770336013433 0.09602335973796101 0  -0.03806905621287153 0.01896624111619245 0  -0.05121215773823302 0.03356736638579286 0  0.07826466140576267 0.02602341874325334 0  0.07758210223829606 0.02869142448594391 0  0.07630769099124457 0.02626175235063554 0  -0.04542625471279765 -0.0117761250675048 0  -0.04953908118316809 0.05491841628552856 0  -0.04933030930233923 0.05736682031667276 0  -0.0516830563087523 0.05640543652709599 0  -0.02011429590828457 0.06709721762455162 0  0.08252257687197476 -0.001838253618057763 0  0.0270393998420174 0.09307126365987152 0  0.02876421599876948 0.09428579181242902 0  0.05447228595958933 -0.007548631710061849 0  0.05171793065379759 0.07664265404630775 0  0.05315450105400131 0.07478718696884226 0  0.02511286595978449 0.05206469109918541 0  0.01038176657110008 0.08081376094987749 0  -0.03040529717899204 0.04202164477853923 0  -0.04383190452306508 -0.03019127715233989 0  -0.08028473430952204 0.003143303250634337 0  0.03938167743317636 -0.04620061595139063 0  -0.01264634730603989 0.07692909374313089 0  0.04175286694619686 -0.08389248797563963 0  0.009836960523428702 -0.09396811093841985 0  -0.09825381223239758 -0.006095314664866573 0  -0.0997103375631071 -0.007502138751604781 0  -0.05833162258413319 0.01648698478761852 0  -0.07348361456237672 -0.03521079171288897 0  0.02486160241476474 0.06522239216310774 0  -0.01827884188326729 0.05391928225737356 0  -0.0795240359555229 0.01555937464528557 0  0.07220899682577266 -0.05554026743567813 0  -0.04693815926497348 -0.0382799331624753 0  -0.07292225027396304 -0.008267627895363078 0  -0.003518907243367057 -0.08733725185396425 0  0.03319945237572054 -0.02227664336607154 0  -0.001439959435576531 0.09234093317236444 0  -0.03527382561268038 0.06716095555978641 0  0.03316346220646699 -0.04612590443292555 0  0.06594698045971378 -0.06527005577285692 0  -0.09687558032386459 -0.02477005126582414 0  0.04170169872674951 0.045628928719863 0  -0.03260851126141862 0.04817528379244619 0  -0.0008962057717657578 0.09850972973936169 0  0.04144748794769196 0.02148051349897291 0  -0.02470966737036303 0.03465382302050258 0  -0.0198906318486769 -0.06623768411541364 0  0.06363319013386437 -0.06683870278083552 0  0.0610585521092579 -0.06698446576764278 0  -0.0992099610140979 0.0124826735268639 0  0.03546847119306303 0.08339065835369952 0  -0.07679875884566555 0.01677442184231659 0  -0.0491187581037957 -0.03820007051468235 0  0.03029644899067797 -0.07372806192649704 0  0.04206346184781086 -0.08609457744204226 0  0.001330276365839993 0.07168409608568672 0  0.0001868293148973722 0.074308133907311 0  0.0009567244852347676 0.0756093064138818 0  -0.05900227259507752 0.07096495043829182 0  -0.04328151876738724 -0.08388051548772515 0  0.01061796980876348 0.09942681841403396 0  -0.03982556364616569 -0.07234729249269646 0  0.01060265988933499 0.06513645865503297 0  -0.08103186508915894 -0.05624284102538987 0  0.05851311789145123 -0.06760102105535971 0  0.06169687963151698 -0.02440273006200362 0  0.06188219081512411 0.04983460195614382 0  0.05663422613206409 -0.01572534186274779 0  0.06575611328368419 0.005830141244214805 0  0.05869459296723462 -0.05133623211859466 0  -0.04238942521290465 0.0474482339597922 0  0.009128543200893914 -0.09563378648174256 0  -0.01189124171955706 -0.04708411239829983 0  -0.03810244647925708 -0.0802403095579793 0  0.06212282924314754 -0.04395726261684207 0  -0.0945440537277845 -0.02779284008176103 0  0.02312258020544601 -0.06134560681488978 0  0.03738864860539176 -0.08846262344320081 0  0.05794179577093369 -0.07243088889760299 0  -0.05806291675444016 -0.08140719379000882 0  -0.08793406458557573 0.02830850636498705 0  -0.003357479234149176 0.06150608673549057 0  0.04721081791844137 -0.00897707323126804 0  0.03618987909257062 -0.06983013733634599 0  -0.08581898713363005 0.005981555425138067 0  -0.0348061982058322 0.09017367013709317 0  -0.05246862361304348 0.04672661727160304 0  0.07918885126905585 -0.04564396768732396 0  0.08502945910548507 -0.04686325709086669 0  0.0732376392523517 -0.01026061138103722 0  0.03336453370923024 0.06700255250490551 0  0.09267246138745054 -0.0282924936649918 0  -0.08465300406704272 -0.02773651632957319 0  -0.07247174336753071 -0.01739987246830172 0  -0.02820679196893429 0.0680709592667198 0  0.08263987764870276 -0.006556344756243936 0  -0.05669009698788707 -0.02805701763112289 0  -0.06882313337566048 -0.01910817218121457 0  0.06724889813007874 0.02953608206990046 0  0.01109012371944653 0.0556880834386473 0  0.01215347154250935 0.0576866266343543 0  0.05870402236682603 0.04243683714934678 0  -0.01617730889028386 -0.08118294436103304 0  -0.07097587831477495 0.06281122281153886 0  -0.06865630073881156 0.06209481551961756 0  0.004733262016386532 0.06393304418839789 0  -0.07427667527530066 -0.05620914525226134 0  -0.07384344405438241 -0.05449936739472183 0  -0.07166554250058993 -0.06490504855491415 0  -0.04360437200245286 0.07739482479372488 0  0.03008844554989569 -0.09060173659332232 0  -0.07430059984220649 0.0493460236938124 0  0.07476780304856061 -0.04008831817507765 0  0.0781316993215289 -0.02834606639131625 0  -0.02925419078049638 -0.06749928155089409 0  -0.02959467084772319 -0.0697340550428576 0  -0.01045782067196173 -0.04901657109619992 0  0.00985951269393151 0.09821792567645911 0  -0.03603072867859164 -0.06545441720627533 0  -0.02605393887592891 0.03206596075980353 0  -0.02673082163866582 0.03399097672862298 0  -0.07774335852331662 0.01332765577964671 0  0.02357484381296139 0.09336288454259782 0  0.04539163401655616 -0.07590394854770788 0  -0.01838084230870163 -0.06150805924996517 0  -0.09588066124003065 0.01093901093314327 0  -0.09787551740513052 0.01128109829233972 0  -0.02834733863890725 0.07485237164018235 0  0.07867503886273665 0.03927967221051366 0  0.0361587802659719 0.06367464395228382 0  0.04967364305200477 0.03056704258251107 0  0.01886274173412624 0.09469499002150075 0  -0.01332996316065871 -0.08065481837785167 0  -0.05927441801188894 -0.05064940438278287 0  0.0463121593760195 -0.03860477886729182 0  -0.03482784746420429 -0.06978141553596412 0  0.02001596063858996 -0.04136381357984224 0  0.01388450446898202 -0.09063560214589589 0  0.04350643938172012 -0.05095534749718186 0  0.04541988797846 -0.05319410328607987 0  -0.07630145623067207 0.02994889749071519 0  -0.08351132573812033 -0.01779433620383164 0  -0.08376145243847198 -0.01989042026411389 0  -0.08567495908614238 -0.01966306210781415 0  0.01852762359581857 0.06595557151493403 0  -0.08777636618800494 -0.01917968183992591 0  -0.09047103328873973 -0.01008144372178309 0  -0.07054312913025414 0.02660087007455819 0  -0.06943374265615024 0.02480748936575735 0  -0.03491927371934841 0.04720114479516423 0  -0.07092082513011848 0.04372552871540906 0  0.05558306000582099 0.05871960047331726 0  -0.045748892225308 -0.01844736277312034 0  -0.04999615406710479 -0.07120131044091024 0  0.003234344966710231 0.05601382083068062 0  0.05454732772565348 -0.02801665632125833 0  0.06518892042683838 0.05508801181332169 0  -0.03568149804620883 0.04536136375640977 0  -0.04177208024884276 0.06663631473283183 0  0.04050290611466788 -0.06528918980195729 0  -0.09235014835471195 0.01258845645747061 0  -0.002489374406332867 0.04311910249048298 0  0.02983609064257266 -0.03105236160180131 0  0.03607811217852618 0.07374282585285484 0  -0.0139483111966772 0.07634652220510335 0  0.08974261301188174 0.01242629992450235 0  0.09222646142020155 0.01124174013455167 0  0.09246814097234561 0.01269618680610614 0  0.08991356857386294 0.009563990926854138 0  0.03193545502058823 0.08591448643415374 0  -0.08016856174027671 -0.01576545248933127 0  -0.02752280418516917 -0.03970567645365784 0  0.04511668418221127 0.07401580608758546 0  -0.05660087481679666 0.01825235641583908 0  -0.04448249085894323 -0.01284626713901622 0  -0.05675312959360362 0.05383263347832121 0  0.004942240133262304 -0.07585023423723244 0  0.003862287552038149 -0.07358431422363257 0  -0.03932680734604215 0.06217655840121002 0  -0.05873990380944543 0.06190200014231038 0  -0.03058735656351429 -0.04541538356267225 0  -0.05206325774582796 -0.05037894372126057 0  -0.04081991474719527 -0.0376425433326513 0  -0.06343504438062759 0.05961666321887902 0  -0.03673920204717715 -0.02281110574911546 0  -0.03676927533695139 -0.02481399631389516 0  -0.03464796225744546 -0.02265850114887413 0  0.04657320944018854 0.07776517530566218 0  0.05937482932278042 -0.03991538120488011 0  0.003128320699817736 -0.099943219441822 0  0.0557210859322814 0.0003322538013259206 0  0.05668392251695515 0.001929195661849664 0  -0.03518399750867186 -0.0758599997966935 0  0.03218314951153704 -0.08258857760841751 0  0.02984296994572073 -0.08420949749952605 0  0.0320347168695401 -0.08461863347107193 0  -0.06786636269328924 -0.01609958760612143 0  -0.07374811824977186 -0.03120659088332211 0  0.02896352934152202 -0.07245369519403441 0  0.06486168111408974 -0.06074373897851724 0  -0.053748862954123 0.07923126703033313 0  -0.05308946109331433 0.08052241196632555 0  -0.07708247960669146 -0.02358463508870376 0  -0.0498212547679461 -0.01635982081716896 0  -0.04929641268122493 -0.01374949764347638 0  0.063554363931678 -0.008673220239036562 0  -0.02044210379520715 0.0610875751081506 0  -0.03806210407737427 -0.0122363683709671 0  -0.02913782386369936 0.08239735257718531 0  0.04442584023750831 -0.02043515933566405 0  -0.008438551812224816 0.08786411285100681 0  0.04742933969387141 -0.07052173890273977 0  0.08069923793017358 0.03722535046011129 0  -0.04656323347161663 0.01608897279873493 0  -0.0578013412524413 0.05284603150352443 0  -0.08525935218785266 0.04595147728568479 0  0.05596854477409067 -0.06029317963856855 0  -0.04207419105445865 -0.03164014190232207 0  -0.04045033062682901 -0.0300124134386851 0  -0.03504821561056857 -0.086826783323629 0  0.02047955504036001 0.03612244161354958 0  0.017082152744136 0.0911536414828823 0  -0.03858751717491814 0.06941185983687805 0  -0.03839989060339501 0.07226196259227662 0  -0.03992102512675508 0.0708277575894508 0  0.006895944975666217 0.09834461539452916 0  -0.07104947904379498 0.05335592891156231 0  0.01759868444965888 -0.06260281267818098 0  0.02615171039282232 0.07940274281745259 0  0.02735258538676157 0.0811286642448167 0  0.04565732952334682 0.0644567056665812 0  0.07320557830561822 0.04427088052862121 0  -0.006505479816290675 0.06260952605179942 0  -0.03556469817448885 -0.08507997389828835 0  0.07971428191914456 0.0481648479603567 0  -0.05870855019575862 0.0214041337211448 0  -0.07207111895094497 0.0472808348768699 0  0.08748729742702099 -0.04570052525332891 0  0.0865403481591441 -0.04711014522361959 0  -0.05995008085848013 -0.01219384005837278 0  -0.06294434290270833 -0.01624828332960565 0  0.02548668421883182 0.03263214458610494 0  -0.01166896498732447 -0.04302181383674605 0  0.0314142124576865 -0.0711382091788261 0  0.0260254477513665 -0.0543326907950853 0  0.02735549787325422 -0.05668243720918183 0  -0.01251081014535826 -0.09621474493991286 0  -0.0152024468522236 -0.0973228366366027 0  -0.01310669210509944 -0.0976510880743036 0  -0.03192812654988017 0.07893218101897628 0  0.05721593662714528 0.02581023176126521 0  0.08296261855018661 0.03565084594641281 0  0.08324426567719839 0.03757321651756584 0  0.03181327274002674 -0.07394900104419609 0  -0.03369510502428585 -0.06715993538682664 0  -0.07341590353411669 -0.01933918952968972 0  -0.08041369345012013 -0.03836229115129444 0  -0.04501024505412295 -0.0694838999856586 0  0.06408766687796653 0.04445203654794899 0  0.03211624539910962 0.05588952824940574 0  -0.009372714193755106 0.09955192480027333 0  0.0459509577486909 0.08524715882946216 0  -0.04791761322204952 0.08611752332152671 0  0.04918945547209988 -0.008775137546170042 0  -0.09021100364852025 0.009384132820787575 0  -0.05795222038598118 0.06746904610568311 0  -0.01016751882202937 -0.06122711920439011 0  -0.0837439774297464 0.005306145958455953 0  -0.04542268493213893 -0.08108683906308556 0  -0.08122149809222161 0.05360508836900772 0  0.0960569984454169 0.008920354993041838 0  -0.06847620431238931 0.02320680593814189 0  0.09520763589549024 0.0192094091566373 0  0.02349793199219708 -0.05520324372085766 0  0.06961145556101135 -0.04751698076495654 0  -0.09038144778452702 -0.004960188031471472 0  0.06952005779302041 -0.01805293613323094 0  -0.04723901724016702 0.0396627861824643 0  0.02360621394268521 -0.09353333864568641 0  -0.04416283269274861 0.02716741137772405 0  0.02547676921685696 0.09111202150518688 0  -0.05801909887418989 -0.003968857327390718 0  -0.07303771309116196 0.06346887856620631 0  0.07722050320229409 0.06352501387628015 0  0.002037381880765572 -0.08254373326941122 0  -0.04293597529740075 -0.05507500057396359 0  -0.06184780011437013 -0.03793040248513705 0  -0.04913945384790826 -0.01887954592878693 0  0.04317007815806672 -0.0309500224586063 0  0.0430812040321544 -0.0330480194905944 0  -0.05429703723847427 0.01919088023324876 0  -0.05298905647005425 0.02041921564840838 0  0.0571406924971017 0.06748807771671912 0  0.02324622852302062 0.04195341028257388 0  -0.0846477905958142 -0.03141116468436252 0  -0.08366469769623018 -0.03264615972023328 0  -0.06148216310409782 0.004015133255379411 0  -0.06026755542907863 -0.02309375538840154 0  -0.05980324572847968 -0.02169877854156866 0  -0.05742347105438195 -0.02242818289593774 0  -0.07352319605718734 0.04485478251380125 0  0.07624293819245383 0.03025214700850999 0  -0.09220981890713607 0.007257944551813187 0  -0.09488599254796554 -0.02374826560398877 0  -0.08198812213708029 0.02538822983317392 0  -0.05391619705639192 -0.08421090901880475 0  0.03242240345734502 0.07187792722160848 0  -0.009667913898092018 -0.04030093349605503 0  -0.06109577009210162 -0.06874527223942928 0  -0.0601663803709782 -0.0698479841891135 0  0.051414660583527 -0.00425494289694746 0  0.04914071513969834 -0.00442865624818667 0  -0.04734017460557381 0.06769888680133215 0  0.08343918470364242 0.05126502590213734 0  -0.01058329098658469 -0.08840223967900622 0  0.09215968206941696 -0.03266383038912257 0  -0.04926879982892766 0.0723545863599873 0  0.02545562116828535 -0.06123662543770208 0  -0.0006435796364647436 -0.04971507067449359 0  0.06007695064310064 0.0324537660737252 0  0.02435135019889084 -0.07106287555667369 0  -0.02038006282869737 -0.08576221940217983 0  0.04282226771275281 -0.005952537997321834 0  -0.06184267330932155 0.02452916660464587 0  -0.02941952627476926 -0.03192724487267058 0  0.0003172920061233916 -0.07579237719146914 0  -0.00186014083767273 0.09370318987878962 0  -0.04601038479339245 -0.0090723405502232 0  -0.06002516559871695 0.07814687174519118 0  -0.05830553907123071 0.07939346888371224 0  0.04466260662496071 0.02029992786180546 0  -0.07972778504988622 0.02325387290118731 0  -0.01082241549521408 0.09243183102408956 0  0.01965426241716174 0.08061741413799768 0  0.003121409878771789 0.04481872838029445 0  0.01261034152663105 0.05056353392813567 0  0.04256082272963804 -0.04745813823460254 0  0.0407518592864585 -0.04652949587679878 0  0.07915396273795031 -0.02544270324128853 0  0.06976119517041343 -0.06074517490330841 0  0.04693515154383088 0.07519577690239081 0  0.07883668177355307 0.01477643350725247 0  -0.03286564682759505 -0.08871696167197965 0  -0.05391619705639189 0.08421090901880478 0  0.004807069801972654 0.09136394386266027 0  -0.02003135524942032 0.07746568422390639 0  -0.008028397556747363 0.03916627771920238 0  -0.02966658584820957 -0.04786182378232352 0  -0.06223670149432468 0.006702825804250243 0  -0.06393686041613139 0.00860038930079346 0  0.0963388970271412 0.0005975965868786283 0  0.03335752785549025 0.06980144681046627 0  0.03688152142712151 -0.06816621924339393 0  -0.08226122884573489 -0.03242593819777571 0  -0.03141167943618611 -0.08080533405838203 0  -0.01962724770057075 -0.09128342685767514 0  -0.01945392904840483 -0.08840580878992642 0  0.04728145401453535 0.06853797675569955 0  0.07174813823665355 -0.01237017343709067 0  -0.06490751339458493 -0.04073565277900196 0  -0.02737075440641529 -0.08202528370230548 0  0.000289081615952765 -0.08969739645541323 0  -0.0630804014935179 -0.03083083883379246 0  -0.06026813132281912 -0.03049927702281884 0  -0.01361911660742632 -0.08998222502843324 0  -0.01831523872374506 -0.08722645804868005 0  0.07248209093691217 0.009361686510009848 0  -0.05733269695886755 -0.03865662844241658 0  0.03318139247781973 0.03458398831413737 0  -0.01914603763263447 -0.05082593167128781 0  0.03744815629485163 -0.04751075615573744 0  0.03701074588068569 -0.04502591165190423 0  -0.02012529943345341 0.08682445097785073 0  0.04516722840955815 -0.04050911685746264 0  0.0379691471536298 -0.0578532280722457 0  0.02859513846570974 0.03887421061405907 0  -0.05431841719406578 0.06163613578676957 0  -0.04485424223242836 -0.005736999843531068 0  0.06370833177917888 -0.001230445915094325 0  -0.0506637781509342 0.06945880598332545 0  -0.03793483839303362 -0.01909805638156932 0  -0.02247873821418927 -0.082690506192198 0  0.02316942809507063 -0.03420281763130587 0  0.03414945603551562 -0.08055830375827466 0  0.0198496482295379 -0.08824079515751448 0  -0.01927729721908356 0.0981163560000279 0  0.04167601460284338 -0.06298885684370507 0  0.02334531355156836 -0.08503688026938383 0  -0.06011570384568263 0.04381963150157325 0  0.06230874589494587 0.03072181881427413 0  -0.01539911821188472 0.09213904434897577 0  0.02742715419939362 -0.07426625885801635 0  0.07593226483453168 -0.00584571980078604 0  0.07684306380998161 -0.003182631590922185 0  0.07496043745291597 -0.003970762659708039 0  -0.03685651536115681 0.02402322538228416 0  -0.07555978980539686 0.05261322282973874 0  0.05158612558078712 0.0007067643447125789 0  -0.07024119102595186 0.04820856598439275 0  -0.02537933372287335 0.06753625712238319 0  -0.01085963512150431 0.06636467586288297 0  -0.09074113715920323 0.02751359209588371 0  0.06313602998583717 -0.07124061520784135 0  0.07839488255927256 0.02416387045457476 0  -0.05628260330288316 -0.06346153362870907 0  -0.07517607336375309 0.00682653832017888 0  -0.00538237138370639 -0.07061403845817769 0  -0.04453359396034112 0.03987972945211359 0  0.06316547187770194 -0.03070917012866773 0  0.06203139226765738 -0.03262999031229609 0  0.02848957098662414 0.02804989880026271 0  0.04811518560777296 0.08607936541054 0  0.02086307043482259 -0.03856135782137377 0  0.02192802802207692 -0.04087939707961111 0  0.04634076213275021 -0.08860568417292969 0  0.04634291113543117 -0.08717106255421862 0  0.0450184164603013 -0.08779160339168098 0  0.09414431229058778 0.02385953312614306 0  0.09383772725177156 0.02105283087054508 0  0.09266393356709617 0.0225538405464149 0  -0.03616910499485675 -0.03128513352687962 0  0.067278949224159 -0.04922313434917123 0  -0.03673639142290286 0.03925069228301862 0  0.06810372176290315 -0.05179299045603156 0  0.0701955689548777 -0.05300771011967578 0  0.05502743284551558 -0.06481019116960499 0  -0.009383947740450647 -0.0753470089124658 0  -0.008594347448460037 -0.07662900884829443 0  -0.004529733159717933 0.07989391383834699 0  0.0452643907586619 -0.007758241872065384 0  -0.00778415815456231 -0.04855272834420707 0  -0.005333787613628883 -0.04730998575997516 0  -0.006563213630955686 -0.04613654031428897 0  0.02847166718057268 -0.05553930532308037 0  0.07781741053814541 -0.0005545104087841639 0  0.08099870533055059 0.03582071977024163 0  -0.0753045107888225 0.05031810382583082 0  0.005941523148051808 0.06574699681180794 0  0.0711727290392167 0.0205568904051303 0  -0.005577914116157462 -0.03958963692457468 0  0.07703675813401244 0.01712708271867177 0  0.06800078472266385 -0.06707415394554812 0  0.01412824352305709 -0.06649258452393488 0  0.02634832308227695 0.05011087461672797 0  0.0500419552470954 0.01068023403854481 0  0.0498798518845893 0.03508659865490528 0  0.04195955361924908 0.03808491755992992 0  -0.01648778270415137 0.07632343672853423 0  -0.005192264295721516 0.04300844147925594 0  -0.004367460977954987 0.04118522320517035 0  0.00694677064805535 -0.09445473740204054 0  -0.0279352148442104 -0.06543805392131838 0  -0.009367153724868484 0.06885865058012533 0  0.02537582443128127 0.0967186695381501 0  -0.0158114977040704 0.04771989807940803 0  -0.02081280516143932 0.07908408300545411 0  -0.02341071584672251 0.07982628525090579 0  -0.02157340330892713 0.08122510957883242 0  0.04626983524713926 -0.0008354595456650574 0  -0.09753181854531089 0.01526562491532418 0  0.0804363979164331 0.003421796798289237 0  -0.08705252868982485 0.04620670861954145 0  -0.08559080928160748 0.04376624327885482 0  -0.03517514988235021 0.06986563350824805 0  0.03525231948988708 -0.06187711378286032 0  0.03381945893597126 -0.06238123618087254 0  0.03628541032411427 -0.06364713210750464 0  0.08610646547653888 -0.01297323606071764 0  -0.06549668760694513 0.07377455194483465 0  -0.03634145807399477 0.07806353553952815 0  -0.04454665959262639 0.0001317082836746085 0  0.05443563694862889 0.0105146400322221 0  -0.04411285765438282 -0.05067987142024241 0  0.0531524839806123 -0.02397092066159713 0  0.08390657974637175 -0.05175453384590741 0  0.02829975993097526 -0.09286405853251867 0  -0.0373420458563356 0.03079807601962233 0  0.03113673999230935 0.05095870641058219 0  0.07390810020514399 -0.002416350441390784 0  -0.009358232405080788 -0.06339936607012185 0  0.08295001376433937 0.01698015790883801 0  0.03980670938993742 -0.00372536780089479 0  0.0313766815868936 -0.03888972668731213 0  -0.0332114338106735 -0.05202865621874586 0  0.04882354967500771 0.05296953862247181 0  -0.0799297741169349 -0.006859047070015139 0  0.04902666409813298 -0.01823367100346528 0  -0.05634086924459518 0.07831812370182446 0  -0.01374514512147907 0.04093303191583171 0  -0.03813733224147414 0.01606359554998441 0  -0.03945523790122493 0.01743771139942822 0  -0.02375012042954918 0.06966282338670104 0  0.04222617416658005 -0.01766058264754145 0  -0.07498690373592522 0.02220696806145261 0  -0.002741600275249779 -0.06969261461972064 0  -0.01744096766063729 -0.03771601499008456 0  -0.04169571296603693 -0.07141739749585697 0  -0.02468303453566329 -0.0914771347794857 0  -0.04160106173899764 -0.02411740383921172 0  0.04911456248611794 -0.002539067604607754 0  0.06406652642371558 -0.01770778797239701 0  0.06199813549677059 -0.0193634737492243 0  -0.008954222445949976 -0.08490257721870238 0  0.09960863085092603 0.008749523575660717 0  -0.0586699737960943 0.02373838382853924 0  -0.04691864976952658 -0.02676102934719076 0  -0.06129257816484514 -0.07540919417696322 0  -0.06222143047569616 -0.07647439728091819 0  -0.06400702446434187 -0.07682144441507358 0  0.01620043461689933 -0.03980176749369121 0  0.01574458398831654 -0.03838480617532911 0  0.016299456446315 -0.03650726225371544 0  -0.08868076831615072 -0.04243143488873339 0  -0.05406401555704125 0.03276498422920424 0  -0.03678902983540665 -0.02778718170627268 0  -0.03609023055168972 -0.02943347617157097 0  -0.03863090041700504 -0.02986260113794512 0  0.01619303097332777 -0.05269732041708507 0  0.05610861772823263 -0.03437112084604532 0  0.04211085047178503 0.06084164676985703 0  0.04196949113396287 0.06361975880627968 0  0.04050835063756827 0.06182884061064862 0  -0.0460849610095501 -0.02938681583252792 0  -0.0227968602276081 -0.06258577855938743 0  0.09213590204537216 -0.03552762559534427 0  -0.07161790095723354 -0.0005401985842968363 0  -0.03443456456830334 0.02297200436026705 0  -0.03387619375322921 0.02123336936288138 0  0.08048495013094348 0.05492510705786623 0  0.07664055191045235 0.03724738135596816 0  0.07866109581107292 0.03727889465183677 0  -0.02969372537904379 0.09255267194807736 0  0.06981925995099997 0.06429800980376231 0  0.04675810170728344 0.07244891671423416 0  -0.07948994356736594 -0.05050523355505277 0  -0.02175763766224216 0.03354187951003129 0  -0.06496360253625287 0.02506010086644474 0  0.02299730236554332 -0.03661350569606447 0  0.02496175649923232 -0.03620114786880644 0  -0.02689145145359638 -0.04490712170036592 0  -0.09431262651203595 -0.004588095202371207 0  -0.08162959801874357 0.01271322393858124 0  -0.08389427847975833 0.01258543573303918 0  -0.0389900285269235 -0.0734747083432039 0  0.007187586300966109 -0.04762846586261886 0  -0.08245347833902014 -0.03905917671811824 0  0.01190656379627976 0.05367735630816952 0  -0.06253371815911225 -0.02932015678241894 0  -0.04648240256042861 0.07753504908165351 0  -0.07610198294174081 0.04599110267015995 0  0.05518435956051145 -0.03275470525017737 0  -0.05599090830606047 -0.01496536379334714 0  -0.05933488894592685 -0.06680115493725432 0  0.04180903939517107 0.07929030434519495 0  0.04304819190717095 0.08039361084629282 0  -0.06081653289990376 -0.009440463820274156 0  0.04520842033188292 -0.005808061463380873 0  0.006806448235992836 0.03939701435537502 0  -0.04649626252207262 0.002037178654560727 0  -0.09248839460195596 0.03419676591127312 0  0.04834200170881281 0.0139761812657159 0  0.07487396588156374 -0.03813687189751822 0  -0.06086590650147086 0.05995790336205475 0  -0.03351561201020121 -0.05654462469672432 0  -0.02382778527195801 0.08448535307849632 0  -0.02267091493593599 0.08291815267536363 0  -0.02430462363665564 0.08175124544709172 0  0.08647469594065864 -0.03614472193081551 0  -0.03718967590919781 -0.04108076414783961 0  0.06199539628226672 -0.07045262119032726 0  0.003865446849760899 0.05325575921874014 0  -0.02658436559360051 0.09639349048967408 0  0.02467691002343998 -0.07684022467839327 0  0.02261530437361994 -0.07665879576060942 0  0.02266576241374543 -0.0749271515084854 0  0.0103539545241342 -0.05898659245420725 0  -0.0760202485831165 -0.01375597023126484 0  -0.05133943551194078 -0.02132553722387729 0  0.01673143118599033 -0.09578902906847635 0  0.06500805888306571 -0.0003876389505906964 0  0.06038670957558897 0.07328385725088286 0  0.05856931401876955 0.07421777801699501 0  0.06137659633334039 -0.01058122257341622 0  0.01332832802288444 0.06862317344339867 0  0.01712186888104375 0.05088982387217696 0  0.0809307545812902 0.01110831477385296 0  0.02489031200528644 -0.07875157920096282 0  -0.03810013456680039 -0.04608688029125771 0  -0.02733185394730735 0.03582909631347941 0  0.008892628782661078 0.09640871267854632 0  0.07058653426794165 0.06616828925564106 0  -0.02458118560571955 0.07900248558632636 0  -0.02386031039327462 0.07711673645019212 0  0.01343250664215267 0.03967814453575415 0  -0.02760344208727322 -0.02892235230131583 0  0.08136413993096056 0.00677537814860883 0  0.0817776999701523 0.008432834079470914 0  0.08486201530417105 0.009576950768498384 0  0.08403633844954599 0.007589445476553705 0  0.08263853881059907 0.01040372961918653 0  0.02271561385890135 -0.07332505478822995 0  0.07949444544259217 -0.003865090388078331 0  -0.08248288275483079 0.05652439787604938 0  0.07068934282239239 0.01408591446855125 0  0.07236080153609101 0.012152194926944 0  0.05524463240319846 -0.04017554527443661 0  0.05675279184711625 -0.03864662831582363 0  0.06342126261375043 0.03806608316239668 0  0.09346089332631558 0.03133107440029521 0  0.09347722043429882 0.0355027148634383 0  -0.07580157726892149 -0.04343530079181694 0  0.05056437551056801 -0.02961312574866764 0  0.05439427140523435 0.03850941172521252 0  0.006300717620826219 0.07750647188202882 0  -0.04253996705787805 0.03434637359209663 0  0.09823507415060787 -0.01866289659784012 0  -0.0780095323944726 0.06255354792809778 0  0.007750135769418163 0.06007108598703577 0  0.01796003208832041 -0.06812359190687195 0  -0.04070573473605685 0.08336241728263535 0  -0.04684099268991145 -0.06945188265923215 0  -0.01317036733319767 -0.07527790919937631 0  0.01160468628621174 0.04432343097227138 0  -0.01481481257356293 -0.05125550997216957 0  0.005562440319815775 0.0962879068803088 0  0.01182635737119224 0.0881920275578401 0  0.07555015439157768 -0.01467159511762493 0  -0.05900430171019148 -0.06402526060132059 0  0.07352291298153285 0.02223641577316353 0  0.0742158849889521 0.02501045479729399 0  0.07496896037813439 0.02277784795901553 0  0.0398738435685617 -0.02286010509476426 0  0.02903200836480374 -0.03513961093476121 0  -0.005783502667573178 -0.05607780135890796 0  -0.03391462958950948 -0.05379134024636276 0  0.01853756998897386 -0.03542331120336961 0  -0.06211136241529469 -0.04109157778792918 0  -0.08171351960363456 -0.01993861291709849 0  -0.0795867494076207 -0.01812888304035463 0  0.02669060864044288 -0.02976682529443796 0  0.008125990288185876 0.09966143579456099 0  -0.0815656642203296 0.0505743135737921 0  -0.04432375600264589 0.04568094164986431 0  -0.006604596803201244 0.05007702639230614 0  0.07228192450860307 -0.0403761652000619 0  0.0594954366832835 -0.0272893148589631 0  0.07282881086452009 -0.05429878372751863 0  -0.01739135316667877 -0.06585540511990944 0  0.04338378478875792 0.06821385575479474 0  -0.02564879137260821 -0.07400081887795244 0  -0.02410799846505482 -0.07464323489604367 0  -0.02499260514066904 -0.07676874068327515 0  0.06838808945841983 0.04405466498141398 0  0.06580677743533642 0.04399412082955399 0  0.06594573411171621 0.04252821458979394 0  -0.06352029730548474 -0.06771617253623649 0  0.03811952514088573 -0.07853516184313485 0  0.07565739011083183 -0.03586085856328722 0  0.07802576535874199 -0.03453845067339718 0  -0.0309792917999602 0.02527322609560944 0  0.03372533101608791 0.02715859169905146 0  0.03152871497475398 0.02657389917679351 0  -0.04405874509008836 0.07132011198188497 0  -0.04270930103589667 0.07102410030010528 0  -0.0896772110787 0.02929075239812904 0  0.04464644011900274 0.0387911735411868 0  0.07073065090689623 -0.02522685184403798 0  -0.02923766277975014 -0.09246682810072913 0  -0.04135168526684523 -0.01852876536762473 0  0.03051630665547981 -0.05343392381311627 0  0.0356610466758578 0.04079298460455836 0  0.07400635040342224 0.008093753456346773 0  -0.08784310826263378 -0.01312389359579531 0  -0.08675181243695082 -0.01476021119876185 0  0.0563531218324191 0.01445577134235648 0  -0.05611124468773543 0.08097326542718301 0  -0.05600710389973634 0.08283500356468415 0  0.06448311338973846 0.00153192930676378 0  0.08857786276615616 0.03471609348963323 0  -0.07862100740775659 -0.03052892780399444 0  -0.091073866732716 -0.04127934472770349 0  0.08268458658971442 0.02404967740013157 0  -0.01398263261303045 -0.0477415992031183 0  0.01499380774961866 -0.0779647968972778 0  0.03532276848198893 -0.0920602214917874 0  0.03491702874249194 -0.09369756990761867 0  0.03302778604099558 -0.09044823160115451 0  -0.09522166964023229 0.002167735097565336 0  0.05976584701270959 -0.05736653633023918 0  0.08229737924911644 0.04400703579286341 0  0.08334701567574059 0.04492840767623627 0  0.05428635088819928 0.04514155838406788 0  0.05105787437281671 0.0212397046307096 0  -0.05588243151096842 -0.0292245529381634 0  -0.05420815611645662 -0.02701373345565006 0  0.01713410612895225 -0.06539064500157288 0  0.01579083950437694 -0.06388118643179129 0  -0.02758250838962639 0.08568063533420912 0  0.04722300435803649 -0.04830536696647294 0  -0.01437282377355013 0.08939693982738155 0  -0.01362886842561224 0.08764584747813492 0  0.09758105262096038 -0.005028268640518913 0  -0.04524400182798392 0.07872410599494425 0  -0.07977564567948546 -0.04462390940617991 0  -0.000965620460952275 0.0582709023178395 0  -0.02432810334808408 0.09248981503434332 0  0.06709111976644194 -0.0695440634831616 0  -0.04968476866795741 -0.01199454217981051 0  -0.02259979989438291 -0.09592273877899668 0  0.006454977284500602 -0.08861170837704394 0  -0.05670941448321323 -0.01778144251650127 0  -0.04046594259031498 -0.08401446534096989 0  0.01634619519788332 -0.04266234339643017 0  -0.07763046376842879 -0.03386047517048714 0  -0.02771071357705794 0.03789541758562995 0  -0.02928025287064135 0.03561547959729852 0  0.01799386435305556 0.0557493030932947 0  -0.09178248443301064 -0.03192709931779111 0  0.07263328769284744 0.0200046739035683 0  -0.04846242924538403 0.04252168373345153 0  0.04449398802951064 -0.02377785374251748 0  0.01579394095976533 0.08175056795443528 0  -0.06774617796131949 -0.007183155983966329 0  -0.06610559763662875 -0.008367865217827238 0  0.0919071618477954 0.0002001362763874144 0  0.0936881360125528 0.001344579048552024 0  0.09448434878451024 -0.0007075737177939539 0  -0.07893809174629539 0.0593281583077512 0  -0.08564048173149125 0.02984350196482252 0  -0.08861478687769195 0.01693180818173243 0  -0.04801798704846329 0.08069069388042643 0  -0.07724275898020601 0.002990514050629747 0  -0.07539479637138036 0.004688149562796674 0  -0.055460881722655 -0.03602174075058675 0  -0.03041048654992667 0.06621928252124451 0  -0.0512510637864431 -0.06269460641749756 0  0.08861737102021253 -0.008955824687570006 0  -0.0958386087625374 -0.004571718290969844 0  -0.03468602348210829 -0.04966989323515 0  0.01801199385376172 -0.0374291558296613 0  0.009486826222622317 -0.06710607736262253 0  0.01741356299107528 0.0395563064770682 0  0.01603084707023253 0.03817034953297325 0  -0.0840113552310562 -0.008228403970156912 0  -0.03179104981331801 0.05560018460157713 0  -0.03348189408633693 0.05777420300614338 0  -0.01526678396548921 -0.06642667966528532 0  -0.04467846919377925 0.03850326759787657 0  -0.04589487611391874 0.03774242319870097 0  -0.007611414017213336 -0.06930327966136642 0  -0.01387351964610642 0.04676005499637731 0  -0.02888179989140714 0.0639385767025803 0  0.0416579989246792 -0.02073522750836403 0  0.01757241655104461 -0.09009162116517495 0  -0.05033083693543971 0.02388650430072678 0  -0.04381337379455839 -0.07707087529830869 0  0.03702896025400119 -0.04312248054496667 0  -0.04111476443090892 -0.0637220429729434 0  0.04737560323051979 -0.07677932566884368 0  -0.05944464890631207 -0.007037540743691185 0  0.04983553671664832 -0.04845515475296627 0  -0.05677553860736366 0.07385461314784839 0  0.08004023144953019 -0.008466814627191878 0  0.09109124462117819 0.02141924552082777 0  -0.02607007542014464 -0.0519877336287293 0  0.0307067067748695 -0.07642889017807634 0  0.05390124303080609 -0.06258606592937729 0  0.08255110530448644 -0.05391309759641899 0  0.03437632042513142 -0.07446120249973302 0  0.06800289973355528 0.01139787578664094 0  0.02237968158533731 -0.0427149487327801 0  -0.03421578465932474 0.08071999765025577 0  -0.08884687362627895 -0.01827709864987231 0  0.01627840888241821 -0.08541091411284098 0  0.08287403352910386 -0.01796835047715944 0  0.07316779888307298 -0.008478406378647867 0  0.07551731905683337 -0.008554331942661175 0  0.07546620998228996 -0.01000606344628818 0  -0.08084676116580398 -0.03654525380290033 0  -0.07937349982288168 -0.03423463757187761 0  -0.05545673350519713 -0.07920891952255146 0  0.07677886289113231 -0.04550446355242801 0  -0.06847781244596848 -0.009610663747350966 0  -0.06698376655358854 0.03205328950165253 0  -0.06630446864980866 0.034011598099101 0  0.09007375306562131 -0.02635302993215102 0  -0.02361347441770118 -0.03698541789476252 0  -0.008515464090090939 0.06466293807743376 0  -0.06533438481670098 0.04552184457978742 0  -0.06292403440141653 0.04389844261363709 0  -0.02321534659033036 0.05778686598217706 0  -0.03094698603917213 -0.08444059433646808 0  0.06971411892160539 0.03091872636629353 0  0.09377392567701658 0.01677051021740773 0  0.06386447606542932 -0.05612729813362043 0  0.03176855335699678 0.09337577333191216 0  0.03956230781700921 -0.09183276813310873 0  0.03961479899300317 -0.09037292960410594 0  -0.0630044636553021 0.07398401530432383 0  0.07130017389392534 -0.001488999067112933 0  0.04020411743530579 -0.07797309271742421 0  0.0856815483659243 0.04585869028954927 0  0.05009429369814518 0.07593763430943132 0  -0.05382313612107097 0.0008923260318694586 0  0.0533053895043811 0.08059939215231496 0  -0.07092768960401892 -0.003891037254666644 0  0.02919949831743457 -0.05071600495237358 0  -0.006119372658726713 -0.08375973642975607 0  -0.006301312816382862 -0.08140155476228159 0  0.00954657200088352 0.05338520529870856 0  -0.04916842859198275 -0.0214113316509125 0  0.04099139263877596 -0.07518509535385624 0  0.08837536574681676 -0.002281008358428514 0  -0.01327295323030348 -0.08508590633588896 0  -0.05314033823874142 -0.03250738933933328 0  0.01728697138927626 -0.08313432340328018 0  0.01179237190600497 -0.06730547669915356 0  0.06573049450044036 0.03249551043645631 0  0.03903668494843859 -0.008636533213229911 0  -0.08494435607823503 0.01691563007004057 0  -0.08072840970745181 -0.0122649639971699 0  0.09300923853378536 0.01409358172316841 0  0.09177064379644591 0.01659495795582896 0  0.01716647734326979 0.07615448161344063 0  -0.09422880940333847 0.008607066727250477 0  -0.09609470475891113 -0.006650784355620459 0  -0.09820197326484782 -0.008443749158466662 0  -0.08890727599220785 0.04265129505908268 0  0.05684550928922313 0.06061554803095405 0  0.05490033586864709 0.06142367949177508 0  0.05438666449254559 0.05941232262126449 0  -0.06935435114928847 0.05102588337912462 0  -0.06845228952613502 0.007170624645410234 0  0.07443488536514072 0.03227566447769362 0  -0.0396715957541955 0.004961548953963128 0  -0.06054677845328554 0.04199620086836976 0  0.06817813588141849 0.02480610032483609 0  0.04578912226112385 0.04252775325692139 0  0.007715615561208175 -0.0867699252840148 0  -0.03679435789744533 0.08899600288863856 0  -0.01003580528147767 0.07321720353110367 0  -0.006379303788285844 0.08231235467499366 0  -0.006668608216912402 0.08013602848282822 0  -0.04832877481595753 0.03722771920922478 0  -0.04810536743650475 0.03574518259333827 0  -0.0505216097328993 0.03530928441886234 0  0.009856660709007059 -0.04907138025035566 0  0.005050502673408529 -0.07817012637561671 0  0.06373091104212014 -0.03623522882337932 0  -0.05169533785602749 0.0362584482264638 0  -0.012957968597918 0.09736184028091469 0  -0.008366122283896696 -0.06008971287092928 0  0.09453093684474909 0.01030866883844694 0  -0.002399521448106476 0.08343526533052531 0  0.01199188654610151 -0.09554345722568364 0  0.01147598862082723 0.08271895590615001 0  0.02412786898442677 -0.06350368508746633 0  -0.02473122336467165 0.0569101440963914 0  0.01085448310126239 0.09124747534871251 0  0.05768033707474432 0.05022660111619675 0  -0.008422095231539858 -0.05629674550332772 0  -0.01048138349664241 -0.05634153647036578 0  0.001227442383145877 0.048845117616125 0  -0.01188156522194044 -0.0859815459938567 0  -0.01076959306731091 -0.08397236490608609 0  -0.02629632956529535 -0.03851070772718356 0  0.02532061764098279 -0.03817739265983024 0  0.0870881684834357 -0.006333551508620161 0  0.07402333762506494 -0.02305414358102587 0  0.004396745226537338 -0.0809844946489067 0  -0.06438822955507023 -0.02840047496630151 0  -0.06614963531648743 -0.02773753738171177 0  0.02672101123626575 -0.07128017222432 0  -0.09207855519513558 -0.03898683336683639 0  -0.01620263676247345 0.07878573507889364 0  -0.01812746207200768 0.07834111949856613 0  -0.03207736119190738 0.03697015998028243 0  -0.05567381566799372 0.001359965040541173 0  0.04046512109497341 -0.01881539254122365 0  0.01822921778416051 0.06165717449564127 0  0.04738600025042898 -0.01093615538628936 0  0.04692494184254983 -0.01370298114594749 0  0.0456544801308112 -0.01221629297230931 0  -0.03108733654027615 0.03156561496022259 0  -0.04420790954936078 -0.07510068440750127 0  0.04144261797502752 -0.0492024499276718 0  0.07276977216369296 0.01465294687791151 0  -0.01434297747798577 -0.09895813508682896 0  0.05534110115746443 0.02100076130980914 0  0.001420044568743373 -0.08706287179832831 0  0.04012638663827657 0.050626075826181 0  -0.04588286189033659 -0.0750717953100188 0  -0.09612878698363178 0.005022074225871868 0  -0.05195834126901603 0.05482331355062293 0  0.08337082074163944 0.03321094440911341 0  0.02987283336193011 0.05156465320124155 0  0.0543348874968561 -0.03544275042687576 0  -0.005489352191965043 -0.0916412009070624 0  -0.006868881686493399 -0.09249494144035442 0  0.04093379534049778 -0.01328621278958556 0  0.03941819654928678 -0.01197967056323739 0  -0.03588957166744972 0.02045994939729383 0  -0.03668913924009862 0.01898006320651658 0  0.04558064936588022 0.01647429654879752 0  0.06900737104840622 0.06248582278706674 0  -0.007604830209270066 -0.08505896946167338 0  0.02475891167353288 0.055178595935366 0  0.02211507140959501 0.07310975654631512 0  -0.05947611687407422 -0.05340519845697138 0  0.04182982468330452 0.06636742795758714 0  0.0186447721244169 0.0785689829980062 0  -0.04195362518055 0.03569966179147258 0  -0.0236167968345041 0.04885718684223596 0  0.003842891825341829 -0.0825371123792689 0  -0.02437390123580338 -0.06794618303830842 0  -0.02164246559413283 -0.06799842561507209 0  0.05984203471431089 -0.02090231027355903 0  0.06061842272540111 -0.02206910616353424 0  0.03797677696749434 -0.06245152404616654 0  -0.01374396544647182 -0.07266656824568828 0  -0.04777468660726674 -0.01832334416190831 0  0.02086711670308879 -0.0788078872494123 0  -0.03350299777247681 -0.07176475771899476 0  0.0657666520289809 -0.07129509573041992 0  -0.06738541853089619 -0.02550829819871541 0  0.05706222907649276 -0.001320258688836198 0  0.05927789698347468 -0.002608079665388717 0  0.005734987289850005 -0.08065159283818549 0  -0.09208290379041974 -0.02664022092383793 0  0.07193413705817979 -0.03449719860568325 0  0.03445286681703946 -0.04779956905992385 0  -0.07808938301056591 0.03582661796845167 0  -0.07947079436986165 0.04502487874253389 0  0.01487786203737763 -0.0730124606512887 0  -0.02493588902101395 -0.0864473923144666 0  0.02567560524135674 0.09539533952264673 0  -0.08375982834813993 -0.04861992869539465 0  -0.07521257955119857 0.04218935221158242 0  0.09750539837405409 -0.0001643017587691351 0  0.04981684442778207 0.002885383576349261 0  -0.06706449077653567 -0.03012915125647517 0  -0.03458890996511158 0.03917806407246279 0  0.03023777565488932 -0.03278946190273217 0  0.004028274893930211 -0.08810895856184937 0  0.004849749431323053 -0.08924888683549009 0  -0.02139955549906881 0.08848461676902711 0  0.01415449525854448 0.08327152382154561 0  -0.04005672563583768 -0.06115064906745479 0  0.01306362942846819 0.08165744653417682 0  0.01464194156949682 0.08051785527147351 0  0.06574079951183814 0.03623338401056357 0  -0.08224933659436788 0.01655082179043233 0  -0.03315987975473171 -0.06909246713739867 0  0.057122557488291 -0.07879294934906826 0  -0.02208645107210054 -0.04528353599587361 0  0.04575218183408844 0.003611933927338985 0  0.04772271512651651 0.002898489175718198 0  0.04781768421326802 0.005255298977247315 0  -0.0435040244915863 0.08197798562492943 0  -0.001877188469291548 -0.09997454509147743 0  0.04368551454476544 0.02828622052658869 0  0.04578819405163671 0.02903328419242074 0  0.04605684670824699 0.02700955566816863 0  -0.06137678916979159 -0.02068049582148107 0  0.02141525380585043 0.08277284091236707 0  0.0009375485053507468 -0.09834741618407426 0  -0.02760344208727321 0.02892235230131584 0  0.03412963763520949 -0.06800074354299179 0  -0.002913568638833994 0.09856179918508789 0  -0.0006921822417953426 0.09714460447216955 0  -0.002478387962727243 0.0962083421910641 0  0.01264289203183669 -0.04957817592231889 0  -0.02995315692655744 0.08533980411486104 0  -0.03962368105959467 -0.0399649173449177 0  -0.08774459030599709 0.04493289062731495 0  -0.09446753582936046 0.02786417060649581 0  -0.09622523496233773 0.02718708625873676 0  -0.0932492484749247 0.02726858948593617 0  -0.03928639720608728 -0.007418320043811351 0  0.01080109440218688 -0.07524242857553949 0  0.009345602952006949 -0.07451610461262287 0  0.01169505371048585 -0.07300537983554664 0  0.06720843547470211 -0.02858556158620527 0  -0.03982107009371398 0.06654601584796092 0  0.01090184352534036 -0.08950292528429768 0  -0.05500071590851328 -0.04272849016196518 0  -0.05857726172945352 0.05020310398123653 0  -0.05982480054873324 0.05161064302428448 0  -0.04899959203928194 0.01278272015924309 0  0.009385040129124734 0.07403935279582891 0  -0.05173344026659997 -0.03704563244115208 0  0.01809900287099984 0.08858840641045221 0  0.068343911992665 0.005511087515303985 0  0.08183308864988331 0.01858223025883182 0  0.05714964922322154 -0.04742274289166441 0  -0.002371601988921881 0.04818416139152187 0  0.04104184735634547 0.05648543786251213 0  -0.04523363937551268 0.07244308682363639 0  -0.04211876935276179 -0.006467907080874114 0  -0.04058132930255573 -0.007029848834147444 0  0.03828943963196694 0.0446559810141 0  -0.05398675949858243 -0.01634008680319306 0  -0.06008234745046856 0.07992837435878619 0  -0.007981254972819651 0.04804093725554247 0  0.02302229965912318 0.07495995247554102 0  0.02176464318947733 0.0757808488669342 0  -0.02825191749768132 0.0880429325584255 0  0.05255546517647697 -0.07635818651527519 0  0.03068995282633506 0.08782240804194867 0  -0.0494749507899396 -0.0685755685439907 0  0.003194748897410365 0.08160053610413752 0  0.02050380948024681 0.09786739650974086 0  -0.0009383116577485326 0.07998627194953321 0  -0.02752135718106432 0.07985685889467539 0  -0.08844921133492704 0.009493713720815755 0  -0.09001853754868043 0.007261061828201252 0  0.0924802917404597 -0.02555991349091089 0  -0.05716286399866673 -0.01188910628699527 0  -0.05738074258583999 -0.01327843561547708 0  0.01033719040807692 -0.09087268620502609 0  -0.03726912041681931 0.05326865221494868 0  -0.06509477070469985 -0.03028949631858837 0  -0.05440715535542684 -0.0378422839885849 0  -0.07306843424826499 -0.02118250950173296 0  0.08096923461315086 0.04977831357622246 0  0.05394845726511746 -0.02287238376893128 0  0.05536117389263909 -0.02281677824243619 0  0.02079579861174138 0.06701112978334881 0  -0.06667618418585611 0.005694136717509398 0  0.008689775674339175 0.08730771776908745 0  0.02625770746418304 0.0680994102429415 0  0.06774524856138436 -0.0174456494766082 0  0.09513680218259399 0.03078022698530786 0  0.05031907631040032 -0.04264214482172153 0  0.02669060864044289 0.02976682529443795 0  0.05230784345192591 0.07806317563387054 0  -0.06529986265993182 0.02040570146385146 0  -0.06390601241936308 0.01913423140191274 0  0.03693394065798337 -0.0897522478518278 0  0.081225131481886 -0.05265669262747205 0  -0.05415839934721172 -0.05464790238116367 0  -0.05617179772016466 -0.05275693774165511 0  -0.02634572308553063 -0.08798914158373633 0  -0.09228304467845093 0.02981847979712139 0  0.02756024461090833 0.05249211815553648 0  0.03018424749273938 0.09532756530035871 0  0.05466694333133285 -0.0462619255980246 0  -0.09450588023470122 -0.01733479847949761 0  -0.05073139458542651 -0.008781876138374578 0  -0.05614557722375899 -0.0729922436135427 0  -0.02604297164739603 0.08783381807241716 0  0.008473979611378236 -0.06461306389399844 0  -0.06072953564856673 -0.04257906433406797 0  -0.004280073734055244 -0.09399432522649971 0  0.04675617360046312 0.04514228196007898 0  -0.07795674300500875 0.01198958773688774 0  -0.05193408516598808 -0.06486437275089543 0  -0.02123235446076124 -0.09368609643906997 0  -0.07479969296430226 -0.02749915254812949 0  -0.0736518162237763 -0.02664638006931758 0  0.05490558629844541 -0.05166529499362474 0  0.05552683925201478 -0.05045364229147027 0  0.07135956702426091 0.06787113239822459 0  0.07287783396922091 0.0388553835418393 0  0.01071457224673313 -0.08016837777604045 0  0.008058538595814641 -0.08056743630860355 0  0.008995146997995512 -0.08201816050042511 0  -0.009151216359536033 0.05574873012012173 0  0.09645391934271109 -0.02145870154411968 0  0.0946905486109097 -0.01940395319883792 0  0.06061743406181779 -0.0531180391496831 0  0.07315826675671706 -0.04734961096167398 0  0.0871363545588663 -0.02236435776177319 0  0.05929982422621105 0.03966545284843839 0  0.08454667357769899 -0.053388139972686 0  0.04626268122376868 0.03165892955095217 0  0.01869652018993503 0.04107297636809727 0  0.01715032183883855 0.04248609031642508 0  0.01984206906746741 0.04254246084776402 0  -0.02594342444834436 -0.05888479619856953 0  -0.09371297945059606 0.03038238105012281 0  -0.09474410565180338 0.03196854621400561 0  -0.07014664285690417 0.0671596173645576 0  -0.003217256157827546 0.05189082894494298 0  -0.05720490482747104 -0.07539967170189153 0  -0.001812869137833465 -0.09412437756685633 0  -0.0005064858757666525 -0.09181776854618305 0  0.05326589439832539 -0.003360051349035119 0  0.04699839928696681 0.03024055401295497 0  0.05583244426191969 -0.08143552566242757 0  -0.09996083971717376 -0.0025028035948893 0  -0.07083851648061711 -0.02636355093461451 0  -0.03343677568848977 0.07649213307133966 0  0.04766191475703838 -0.0616880881287017 0  -0.08572240180848785 -0.0003255225357318471 0  -0.0392104290257386 0.02263125770738342 0  0.05652406357321932 0.07809568877408102 0  0.02829360472808224 -0.06247848282214024 0  -0.03816865586101666 -0.05299487673833532 0  0.07917825994618254 0.01851942362688936 0  -0.05411041546868424 -0.02893011373134298 0  0.04240899505074559 0.07501695539193944 0  0.04420323102526486 0.07577844616416556 0  0.04203036950703264 0.07729482959240776 0  -0.04476750042195177 0.04301600747905569 0  0.08176938350695054 -0.05539281276924833 0  0.07987572969886041 -0.05466183150754367 0  -0.05945761895355826 -0.03430303348170982 0  0.009008968548748698 -0.08456982790157098 0  -0.06916055891189742 -0.02849653079054743 0  0.04040085473148701 -0.03806500898107812 0  -0.003684268264467677 -0.08961233645482895 0  -0.02366849108701011 -0.03832941378628291 0  -0.02380083611349115 -0.03212433155733534 0  0.008964497964403127 0.09005651484578124 0  0.02203184863884396 0.06208502219281759 0  0.04944412669433548 -0.05904921969128002 0  -0.03990331260522013 0.002485582595078169 0  0.06717818625021313 0.04882932014363565 0  -0.06351008887752201 -0.0706990670084568 0  -0.01934739202077328 -0.07170053990635973 0  -0.02696515247362601 0.08398868329610315 0  0.01220803608215739 -0.0979908315550574 0  0.01388776495306071 -0.09599940061019277 0  0.04854904267684411 0.058458472617444 0  0.03643399174635589 0.089228189560251 0  0.03785805425722656 0.090907894767466 0  0.03725133910345261 0.09279424140428477 0  0.03956230781700924 0.0918327681331087 0  0.03566348795258259 0.09186706846570758 0  0.03198275305810694 -0.04934732604575379 0  -0.03768293996985556 0.06278655052433664 0  -0.01208017275598855 0.08997712090220675 0  -0.05920875323275065 -0.03137494746377026 0  -0.05562246657187427 0.05592597975487014 0  -0.05400452674679412 0.05462767341613291 0  0.003955292507438356 -0.06588341780889127 0  0.07832043186383505 -0.03586589789421783 0  0.04827722528558782 -0.04914349810952754 0  -0.08579748349312262 0.04858004733875847 0  -0.08474656879745088 0.05037582565672139 0  -0.0840383875547613 0.04769829649405048 0  0.03124922494816569 0.07478015386626716 0  0.07580138369421367 0.02048546524902221 0  -0.05822064169088218 0.04173319614019775 0  -0.06657911797909048 0.06020919427755855 0  -0.06482091308074039 0.06236594123349998 0  -0.06623199745176439 0.06252302617684674 0  -0.00708447314900798 -0.0790391580307301 0  0.0331888770947054 0.02883505134713862 0  0.02691055719206365 -0.07976535863507109 0  -0.04229354469389864 0.05096666031366744 0  -0.03281092436567182 0.03130732756880132 0  0.03256083941038779 -0.09454218761848085 0  0.07452430686944712 -0.0472903863441282 0  -0.04348545870328206 0.04091537928721004 0  -0.05598544506940032 0.02089354198767492 0  0.03920496115390508 0.07170377212814942 0  -0.07538282792070233 -0.01599687834882836 0  0.06761444212652606 -0.06134656882580389 0  -0.005258210913212573 0.07190169591338284 0  -0.00504870461752672 0.07054517707543483 0  0.04376019428403337 0.009935954409116722 0  -0.004552667748393063 0.04960603166976565 0  -0.08649127426607808 0.05017661784763053 0  0.04808760486417751 -0.04659922279853566 0  0.03223430844298594 -0.03085455106047716 0  0.02379279412347079 -0.04039843305698033 0  0.02565659121393007 -0.03987443213705735 0  0.02333414080211762 -0.03853249950987655 0  0.07512007564964936 -0.06418948396708347 0  -0.07808331652819606 0.03360859556444996 0  -0.07532439583021316 -0.02470464799444911 0  -0.06344466528984025 -0.04254579878222558 0  0.03280046673385544 -0.03486591936429764 0  0.06660049351047542 -0.02117999356819521 0  -0.02082812871562335 -0.06255983911975219 0  0.05347408295073511 -0.08136343159086636 0  0.04698774683298606 0.01881875664432043 0  0.014845225924683 -0.08790026548317439 0  0.08405522840025162 0.02865715533866366 0  -0.09716826356518408 0.002992904723543567 0  -0.0433772747419002 -0.02628679255106282 0  0.07357236894315893 0.03698085962319173 0  0.07351568894318768 0.03467762417941753 0  0.05062184570932974 0.05677559669011706 0  0.08156527115310851 -0.02547799852538706 0  0.08661136924205 0.04340451571389693 0  -0.05506706405230286 -0.07381505534461436 0  -0.05730426706272277 0.002723531270239592 0  -0.0166351474454319 0.05860647563770349 0  -0.05835563608108907 0.01062035110191529 0  -0.08750519034207867 -0.03276661261034788 0  0.0871125090589448 0.04909016467941777 0  -0.04044527150522758 -0.06587901226743031 0  -0.03845142353407687 -0.06014094307737268 0  -0.03709460168291193 -0.06152035517917313 0  -0.07348077697097896 0.03024137223715831 0  -0.07133331407999373 0.0318918195409264 0  -0.04545407545225371 -0.01711472827349287 0  -0.04213700104892294 0.05817065048028586 0  -0.02142023254623319 -0.07855739908550115 0  0.03372874026153588 0.08558545238285226 0  0.02511780799169992 0.03630683346843104 0  0.0881028094229858 -0.04015703000511777 0  0.02778553749936594 0.04823781965835661 0  -0.04999978788973226 0.07885648972036478 0  -0.008769112205736132 -0.09348924395262662 0  0.04195146872084967 0.01131221866704352 0  0.0893145082476734 -0.035570168725421 0  -0.03080044608693022 -0.07706444546018686 0  0.06323044045886839 0.03543251291635321 0  0.06834086661061609 -0.04708764449983095 0  0.03633198927555626 -0.04982226634064614 0  0.0351608619207804 -0.05066355743808125 0  0.0900959658248639 0.02650332284495066 0  -0.07408781371626033 0.04682912427665297 0  0.09394808088469338 0.01536458406811321 0  -0.05305922117543561 -0.03495127574869394 0  0.05220303465775099 -0.005886089525471126 0  0.02553665685969513 0.07589886643264307 0  -0.0688382774894791 0.03289864280328514 0  0.06695694263774805 -0.01343363137292042 0  -0.02098803264351313 -0.03969919228695026 0  0.06200174236960506 -0.00660861860652439 0  -0.08756985316073626 0.003791904521504977 0  0.06282541075221196 0.046954607375541 0  -0.04034171781862899 0.04010960095302794 0  -0.0412681119474457 0.04266616988088456 0  -0.07748160199644004 -0.04135948307425893 0  -0.07713845103247868 -0.04379800852055946 0  -0.07893031676108976 -0.04187124620134576 0  0.01235474179599165 0.0488071193692147 0  0.01407486616125619 0.04816042373359536 0  0.01290659403132191 0.04617697302836762 0  0.02581156627693086 0.06311102019587933 0  -0.05071891897294734 -0.002197277078504774 0  0.01640813359773723 -0.07290495092274449 0  0.07350610764895088 0.01138273929513337 0  0.06684586270957156 -0.03377901540294877 0  -0.03112546379818674 -0.03487867750013474 0  -0.03345228946179496 0.06811090868336939 0  0.05252715073188111 0.06224187850049054 0  -0.000561558482206786 0.06094446922083192 0  -0.02289238503662699 -0.06951657036139833 0  -0.007596564499249116 -0.04207261066663705 0  0.05819779702738952 0.003974250170861394 0  -0.04516444369696675 -0.08791215698912216 0  0.0501758817652254 -0.01098574396761419 0  0.0041042525696536 0.04621762561706797 0  -0.08816268402081044 -0.02087870385283951 0  -0.0149407975235215 0.0674162610264101 0  0.06595475137644914 0.05760235447851016 0  -0.06963910244262143 0.05719543309137241 0  0.06591624843151916 -0.005153546534002888 0  0.03903668494843859 0.008636533213229892 0  -0.05220271568310308 -0.06880831404572611 0  -0.05092622666142638 -0.07021603101235273 0  -0.09302554733789087 0.03666989289980164 0  -0.08040717912506858 0.0002210705560503415 0  0.0965551384585646 0.01972092884961153 0  0.09773716492036977 0.02111587308461434 0  0.0959437673040742 -0.008270069116239754 0  0.09810417051474973 -0.009695146490569366 0  0.09960863085092603 -0.008749523575660736 0  0.09835178126702405 -0.007697080617151918 0  0.05388974579889941 -0.01862682961308305 0  0.07508112378381548 0.008888293293573844 0  -0.01776903075725815 -0.04414137209558255 0  0.04786375207579894 0.023155188641324 0  0.04978858963554817 0.0235734471118283 0  -0.04303973618778888 -0.02905083675045407 0  -0.02977528563903672 -0.05373730491535899 0  -0.06978956469354497 0.02919162698223119 0  0.03495466730943514 0.06431516146073778 0  -0.03951655891406251 -0.05695144797890588 0  0.03724828138445743 0.03294021775719274 0  0.06169592079860935 0.02139095687914462 0  0.0480449141242191 -0.02301111028883632 0  0.02870711384324326 0.08689102798833974 0  0.06061047053130274 0.00526973086775284 0  0.07922182034480761 0.05441949265200743 0  0.07976746623950959 0.05222519756630366 0  -0.08112888408145007 0.04526169552640416 0  0.01825880333068556 0.04372144471228612 0  -0.05814492236631215 0.03671345173725229 0  0.001080105981070762 -0.04784451316969413 0  -0.05785433050147179 -0.07082439453078711 0  -0.05843364954031723 -0.07209890328206996 0  0.05562085831443181 -0.03006635938958812 0  0.05720946095020248 -0.02893481496453772 0  -0.06087245775180694 -0.03885593234009636 0  -0.07570693961502563 -0.0205004242825916 0  -0.07637047908123573 -0.01835452514048894 0  -0.07762201542110345 -0.01680927901668906 0  -0.07498094155717198 -0.01728229083834869 0  -0.05860408830681865 -0.0748063357045823 0  -0.02879907346330513 -0.04365337682432598 0  -0.03810327173976281 -0.04244607775005926 0  -0.06724869803536265 -0.01195045505538803 0  -0.06900694751960681 -0.01203502453599891 0  0.0492482482366654 -0.03220919611687215 0  -0.0385361557256939 -0.01450898051118533 0  0.04171956443150627 -0.07271517665907838 0  -0.06539437892512093 -0.007029466291465327 0  -0.06688299610297505 -0.004900568662981261 0  -0.03683560536785573 0.08005109863799087 0  0.08350139400053333 0.01192520048353243 0  -0.05073505571088927 0.07676597980547965 0  -0.05221140314753193 0.07531407078521669 0  0.0447217504203066 -0.07706952286871767 0  -0.09746522355514861 -0.02233749538650201 0  0.02126027812566394 0.09628020220300723 0  0.02083598941810888 0.09437877509632479 0  -0.02075793290872411 -0.06077479974235087 0  0.08304882226199257 0.004239976655798397 0  0.08117960339043234 0.004694141124787514 0  0.08166010409694942 0.002213105621631108 0  0.04944923322704811 -0.07324869709655007 0  0.04813253129195224 -0.07167366252178539 0  0.05002204835654885 -0.07070259513186257 0  -0.06382334190703941 -0.05455000846438909 0  0.06460908718594989 0.05093273362136568 0  0.005521904978690934 0.07183274764156913 0  0.004610572983392653 0.07285106134832697 0  -0.03117029210989465 -0.07922529464606826 0  -0.04078232668371223 0.02861758388077857 0  0.04402309196795735 -0.04843245844323073 0  0.05695927677766624 -0.075068181769 0  0.06711734871995784 -0.05991755983198205 0  0.06483467145966497 -0.03761431481856475 0  -0.09054114673675795 -0.01269926962868144 0  -0.04392004763103741 -0.04627226125009832 0  0.04220062171591701 -0.05869510956157704 0  0.042619520401697 -0.06078059001021262 0  -0.0589824354679293 0.06584730742174064 0  -0.005641029295971201 -0.0678158813196859 0  0.0160642471496436 0.05454305946300836 0  0.09249570523186701 0.02824849307778794 0  -0.03641645589461955 0.06139929085470595 0  -0.01516237691808476 -0.08218019454581786 0  -0.07966688406970091 0.04963354239912025 0  -0.07906433569613359 0.05206219305356191 0  -0.001877188469291556 0.09997454509147743 0  -0.0189851741726984 0.04775579514884876 0  0.05412089469443582 0.04765027701569753 0  -0.01304533622301405 0.07420123246798564 0  -0.01118065457828436 0.07530490745607071 0  -0.08992157970147703 0.02207938361850946 0  -0.03990331260522013 -0.002485582595078169 0  -0.02086902598639098 0.04557785068765799 0  0.06684579152900341 -0.07436446501964573 0  -0.04667300940384068 -0.04387275142462634 0  0.01641986439368229 -0.04456331728355852 0  0.04774186254113687 -0.0794082063325266 0  0.04747846867232712 -0.08183172862153691 0  0.01467029167513849 0.05409794000916524 0  0.01382476357471118 0.05627388023586337 0  -0.01299748125302172 -0.05544434061417507 0  -0.01355290643858096 -0.05339404568407506 0  -0.04221667942541035 0.0131853419017962 0  -0.04380056811481132 0.01230803798078869 0  -0.08171950632637495 -0.01803517082008131 0  -0.01566356125270315 -0.08626892572429441 0  0.09881624191729881 0.001843435861858119 0  0.09871992511479766 0.0004154594595722478 0  0.05425142495550524 0.01928094642095037 0  0.002431730365605866 0.08647718615746906 0  -0.02810771283439899 -0.06676466018909408 0  0.02049925868606288 -0.09117436029837514 0  0.04061628908171471 0.06817945575936318 0  0.04269805451627647 0.06936591510277106 0  0.08056898582729205 0.0201179527731677 0  -0.05818522037903754 0.075022776586225 0  0.08470033399624835 -0.005225365530792726 0  -0.02033569692060361 0.0521659306461245 0  -0.06547701990100292 -0.07381521271821866 0  0.02954100261100324 -0.08854647739538195 0  0.02983018376208807 -0.08627630167875655 0  0.05698857265416626 0.03232470363376038 0  0.01425417991771077 -0.04837373205471968 0  0.005194840330365894 0.0578034448076882 0  0.005137596250814018 0.05950082913087186 0  0.08038008523785456 0.04512469663290495 0  -0.03326275649282633 -0.04582630037168403 0  0.07269581235391573 0.0406505558366845 0  0.07132568784241607 0.0384200178685092 0  0.07073350001083421 0.04046559194497262 0  -0.04014283967356018 -0.08670534451126495 0  0.009834036087744635 0.05025648864978636 0  0.07034392535504363 0.0008153284512409322 0  0.07514034865070225 0.01257109446479211 0  0.07621574236457659 0.01091771813906957 0  -0.07452339797242942 -0.01336180926526063 0  -0.07486598421591464 -0.01071673396798759 0  0.07048355193817388 -0.07092603477550287 0  -0.07747922846433225 -0.06116813337793335 0  -0.08791764681045858 -0.02462276077262501 0  0.07235568639215091 -0.05301103702447235 0  0.05628485636149139 0.02328004295198274 0  0.06543475500353302 0.04671563901872216 0  0.06762702609891826 0.04704438602232983 0  0.06514688945249798 0.04834182897610292 0  0.07119832863734062 0.03044348530215855 0  -0.04362428713192318 -0.0727080923087866 0  0.07739903793514881 -0.01670568505490406 0  -0.03978210415515836 -0.04815109803106846 0  0.06869547576913516 -0.004774425180776804 0  0.005077724504831523 -0.08621258813431443 0  -0.06977904561120067 -0.01725234922564614 0  -0.07237322251614937 -0.04586020624782045 0  -0.07499578514718347 -0.04534103300561758 0  0.0776853085175359 0.00418419346079551 0  -0.01946015754125291 -0.09673036599257112 0  0.05005675981132235 0.07432742845728199 0  0.07474079952065102 -0.05413029382022364 0  0.08799749864042102 0.003918836428562155 0  -0.01295177486541811 0.05527380332977069 0  0.09407174203279592 -0.007132739622285291 0  0.003569360711216882 0.05141146859759559 0  0.003128320699817728 0.099943219441822 0  -0.02184988795491719 -0.05209714383364095 0  -0.04272393297716909 -0.08893985304520036 0  0.03915730414277312 -0.04486766062432275 0  -0.07824348499044484 0.01520114446070284 0  0.001864713184187141 0.03993714214171558 0  -0.07299513407476696 0.05177904612606193 0  -0.01658702709851045 -0.0784132566116023 0  -0.08889395475353232 -0.04578535039806995 0  -0.06257418540145337 0.03264462768650504 0  -0.06479087376412131 0.03111879220001944 0  0.0394985963810159 -0.0719105434514344 0  0.004050469150632701 -0.07010355956801032 0  -0.02436568629597791 0.04276568083889797 0  -0.07615261794085416 -0.03157859011089843 0  -0.05419259461517686 0.04025850127770359 0  -0.05703958093337871 -0.03246484218539849 0  -0.0640429278624501 0.05688729126517674 0  -0.09640859917877578 -0.0215056194164463 0  -0.05852824249865755 0.05765557652874989 0  0.08828770367630297 -0.03101072549408363 0  0.08794694150792962 -0.03370680791157857 0  0.08941381931354339 -0.03269598083654365 0  -0.0108959343804321 0.06865077375531414 0  -0.01324243023335965 0.06693900322710532 0  -0.01266544626578044 0.06894750982644388 0  0.07660780871451406 0.02155583272081074 0  0.05399036651339495 -0.03789651597856549 0  -0.01802662324130476 -0.08993816655333892 0  -0.03112341508449921 0.06267644987932072 0  -0.0320120809780642 0.06021271513852951 0  -0.03303999156071692 0.06220639155615416 0  -0.07504300830405522 -0.006462790489748611 0  -0.03622491366646412 0.03264328197513233 0  -0.004470307149546534 0.07618998320406495 0  -0.05070118319269369 0.08273998504453456 0  -0.02934813806601529 -0.02715030883369433 0  -0.0761465140244975 -0.02992446383827456 0  0.02879006496013244 -0.07562678598451494 0  0.06868619107882926 -0.07266801674656914 0  0.06742155234989099 -0.07225479062713971 0  -0.07220081945815905 0.03762913537153373 0  -0.0717279685913304 0.03957608418501915 0  -0.0702831172833375 0.03736233739641288 0  0.08199339861303674 -0.004795225279428284 0  -0.004954613175568985 -0.076353623093877 0  -0.04707519610348213 0.03834685998906256 0  0.02881436841110018 -0.05280024030203549 0  0.03766314339260779 0.01341417561741085 0  0.04161150402275337 0.0841054903805462 0  0.03204349558478503 0.05326748355735343 0  0.03139708866840897 -0.02894233307359237 0  0.03040294509434185 -0.02802631921698842 0  0.02848957098662414 -0.02804989880026272 0  0.07640261943058332 0.04147787157125753 0  -0.0704189481376913 -0.04157036827214162 0  -7.105734155834196e-05 -0.0704635475952468 0  0.001177928160148545 -0.06996128637398816 0  -0.0931987891239624 0.01933498499963688 0  0.08575220408501474 0.003799450913565622 0  0.08643859774953951 0.001818339894374451 0  0.05293184538726164 0.0562321915981448 0  -0.07384900535468682 -0.003790907162220561 0  -0.07563106585168744 -0.004892021910494795 0  -0.07654693730425613 -0.003326578487755624 0  -0.05969675224722304 0.07661775001480974 0  0.03435931881801332 0.02517398237718755 0  -0.05956232358033138 0.03672288410779437 0  0.04575831242499712 0.05054930617043284 0  -0.02342869342891351 0.03675438558672045 0  -0.02292248786151333 0.03419468062194822 0  0.05585097931887669 -0.004954013294156725 0  0.01152961280120392 -0.0478952694464634 0  -0.0781269897154986 -0.03184167662906313 0  0.05918919857582854 0.03822013293550269 0  0.06127906664785454 0.03790027127780406 0  0.02537582443128127 -0.0967186695381501 0  0.02575437797306639 -0.09356806363023826 0  -0.03268173812941086 0.08814015036085168 0  -0.03238625185219827 -0.02820365394245538 0  -0.0728286814142559 0.02291921499484821 0  0.07881978515800576 0.02724720893594882 0  -0.02530264916183618 0.06885606534883651 0  -0.09870493022153501 0.004319233125504282 0  -0.04338048764873287 -0.05941694095034648 0  0.06178167568908964 -0.003863095027536835 0  0.05890968551849831 0.001585509310846471 0  -0.0305063118200829 -0.06564805938930203 0  -0.02380083611349115 0.03212433155733534 0  0.03365221270141516 0.08368301149945749 0  0.06972749746142937 -0.03766350864334415 0  0.05892081396831433 -0.0425938841303819 0  -0.03871682753969279 -0.06474151733797477 0  -0.0623539464992806 0.06852404051550823 0  0.06936716692134359 0.02059774642909593 0  -0.0388751591052867 -0.02569169567731091 0  0.09867142939329235 0.01619822596093841 0  0.04478053662065576 -0.06581604400952554 0  0.04424940120045144 -0.06740595219681024 0  0.09087870644744175 -0.02101953615860353 0  0.07481463669747487 -0.04160228430322708 0  -0.01925202714449247 0.03662859981319857 0  -0.06525776176401379 0.02674575747396222 0  0.01657734962013244 -0.05684126197579558 0  0.05389874791895108 -0.06938962896572265 0  0.07417771984592234 -0.0517185284030364 0  -0.03794444430550801 0.02482235144261948 0  -0.04295607554314222 -0.01057956985093066 0  -0.0179450008714033 0.08282352334533499 0  0.0525911789005575 -0.05107423298439586 0  -0.08345755894862432 0.0231486491660171 0  0.04014603849225486 0.009417114348166302 0  0.03673558834155599 -0.01999470652854517 0  0.05052495798003433 -0.05057526716139071 0  0.014518380091655 0.09585570422348753 0  0.08470345281181116 -0.03634553245234255 0  -0.09206128009095488 0.02164666949861705 0  0.02778874215938329 -0.09605321083647547 0  -0.01171180647931122 0.04272471764743446 0  0.06173442519682315 -0.01263652802460875 0  -0.05377355447816159 -0.01912302055975705 0  -0.05796135339815071 -0.05903570920141471 0  0.08136970585746628 -0.01562760411483221 0  -0.07224672484064504 -0.0487778627675427 0  -0.07073684064876319 -0.04969886958131214 0  -0.07092484770029345 -0.04707312795647747 0  -0.03995970868840261 -0.02716608224948626 0  -0.03867018858414588 -0.02841948585632032 0  0.01558041192322472 -0.0987708675020106 0  -0.09503568954029659 -0.02652149009227742 0  -0.08606449416865344 0.0387415636653039 0  -0.04733478103958692 0.06406472385963444 0  -0.04470638808666081 0.06423680628870958 0  -0.0460814498143716 0.06546477384343814 0  -0.003250123981113151 -0.05568962396580471 0  0.03330847440803661 0.02436539894798924 0  0.0663908969128567 -0.03638842523117909 0  0.06523912732295332 -0.03486496950292679 0  0.09008754868917339 0.03079994715917909 0  0.0555905600884908 -0.002419010237219128 0  0.05421308589564782 -0.004665032497919846 0  0.04771820410257659 0.08358233502090781 0  -0.05405453835580541 -0.04875935875124294 0  -0.0661382689949281 -0.04299152916507712 0  -0.03484448457828701 0.03184230425391014 0  -0.06988235554284872 -0.05216930722365606 0  -0.06038838051607882 0.0379360406327354 0  -0.04726746095533859 0.05875814742432258 0  -0.001885510770228294 -0.04232553041748666 0  0.02582616204452349 0.05799238269101048 0  0.04003704263773605 -0.025297667984902 0  -0.05563055455880862 0.04986664238825716 0  -0.0257720556597031 0.07648793992853491 0  0.08011638879383098 -0.01830489770322427 0  0.04977191484262367 0.01643140770339357 0  0.04988166906753704 0.0187829205339101 0  -0.07272163459898959 -0.005881606372306579 0  0.01345757727500451 -0.07999096064078966 0  -0.07110030069474003 0.02391068992140071 0  0.03899918351219692 0.04889455818875429 0  -0.06777129968938379 0.07352199970899066 0  -0.04240340725801502 0.07360470270689307 0  -0.05772172150765471 0.02775209770730463 0  0.04212684584189855 0.08579018125893605 0  -0.02924031716864973 0.05929101368050794 0  -0.02910701136287221 0.05797732443240659 0  -0.03171273932043062 0.05836939133416776 0  0.07379465725155478 0.04306111179110405 0  0.07575191265476119 0.04485695094433889 0  0.04534191734505125 -0.04686429870372475 0  0.01333240693464354 -0.03925939651705365 0  0.01399828347311492 -0.03744997379856484 0  0.01357666533052164 -0.04061606204163476 0  0.09992168495550872 0.00375371528610763 0  -0.007878004184353634 -0.04634765397118461 0  0.03144589974144801 0.0846965038071418 0  0.03914176715798175 0.05152730261227816 0  0.09717801369194462 -0.02355561838893899 0  -0.01579558877913242 0.05972551267501836 0  -0.06661596673910444 -0.0404707313291462 0  0.07456174629834207 0.04113464669549018 0  0.01014164814848448 -0.09647737156424693 0  -0.02405961637224675 0.03347629433296943 0  0.02975696847121919 0.03818579463853555 0  -0.04235174697788134 -0.01409862803813505 0  0.05908494973559821 0.01358778100277165 0  0.02168259756830833 -0.08852138745874545 0  -0.06907704665595757 -0.04997751397477442 0  0.06629312568509843 -0.002711404257904142 0  0.09655797082886658 0.02598060376913608 0  -0.06921181073991081 0.07051291412084626 0  -0.07825275617948539 -0.008623286517544832 0  -0.07740521027361331 -0.009811227229960433 0  0.06063994553731242 -0.0506709849385125 0  0.03936965004918099 0.06976282567837311 0  -0.05779810505440544 -0.05119696685140102 0  -0.03120319354035672 0.03539491490015109 0  -0.02853715148432664 -0.0741870229850024 0  0.02946497244233195 -0.03931061130210796 0  0.03897631716180837 -0.03039169952341441 0  0.03687327133359319 -0.02928700907654925 0  0.09158338450065254 -0.04013623283521674 0  0.04522336119112477 0.0877644794176011 0  0.08539698535487193 0.0229207616231934 0  -0.06744455213081499 0.03066765414849391 0  0.0372498743987113 0.02853238308211162 0  0.03496903451550828 0.02984050768217883 0  0.02668052219521008 -0.045248072387237 0  0.02554774904926429 -0.04762695745733851 0  -0.02766247531517319 -0.05291610567024756 0  0.01104959280374158 0.07605299490330425 0  0.03536569470013128 -0.05761285542286718 0  0.03593213454748041 -0.05925436924567472 0  -0.004177346316365627 -0.08310739720193525 0  0.06318305984620949 0.04970464220674446 0  0.05815923334057794 -0.05841512054963476 0  0.05984500560903358 0.02193407383035046 0  0.08268854880347966 0.04846973141001383 0  -0.007270463579429454 -0.07678754794631427 0  -0.0903473182920758 0.03957355323133037 0  0.03804190495511928 -0.01769975559188582 0  -0.06203942356183321 -0.04381382974746852 0  -0.06802113171513123 -0.05327321017338395 0  -0.06868194303947554 -0.05449100644524661 0  0.07408716499665995 -0.01273167269949687 0  0.04730968923559959 -0.04301227892035109 0  0.03352494053349138 -0.04877070825037139 0  -0.04805813847301168 0.06962429848337134 0  -0.0376597040511619 -0.0503984652049119 0  0.04890213353182235 -0.06868560454138124 0  -0.002189507622541606 -0.0963354973494446 0  -0.002481324433978292 -0.09881495294914515 0  0.05916927615699415 0.07881601861874166 0  0.05907725950176988 0.0806741031097194 0  0.05732212782623326 0.08019506425658496 0  0.05758345257821808 -0.0189508328506673 0  -0.0450429063209804 0.001973656538941299 0  -0.04694398550357028 0.0001365735100776781 0  -0.09384105735922464 -0.02253650488152448 0  -0.09439567642716935 -0.02003116869842463 0  -0.002074668208604961 0.07596439937387563 0  0.06107794644118695 -0.01452982017994276 0  -0.06151002154699262 0.009103561605897596 0  0.04876533847637414 0.05431064955846332 0  -0.05015500310312058 -0.007195376652514261 0  -0.05279250547204278 -0.006992804221406556 0  -0.05212448992448587 -0.005633517382559952 0  -0.04912775104215815 0.02769181793419269 0  -0.04981692385593794 0.02883265477743946 0  -0.02705957903902756 -0.05459130755389913 0  -0.02569677046330986 -0.05461981434074148 0  -0.02562659925201037 -0.05686313384885722 0  -0.02378045545703732 0.05525404294603438 0  -0.01998159660447573 0.06431249362144711 0  0.069303771230993 -0.03466029872966028 0  0.03645560512595478 -0.02269671876465512 0  0.01546691112748385 0.09357082161086226 0  0.002393990046281818 0.06501689494860514 0  0.04941692445228045 0.03741814877128712 0  -0.04196190017685999 -0.08492149659316173 0  0.05364501421037847 -0.01599707094358404 0  -0.04175833503234212 0.03935059756452039 0  -0.04328626421116932 0.03795191554886727 0  0.04817358358369148 -0.03925025242255766 0  -0.05502545484110023 0.03841178753221321 0  -0.05558251269568375 0.03691881104937756 0  -0.0143385003580944 -0.06897047655149498 0  0.001551479918773893 -0.07744234618226956 0  0.03452016210114091 -0.02016955344616807 0  0.01356585631672219 0.05257443958851656 0  -0.02840520972782513 0.05610908273557561 0  -0.03017611318895056 0.04403824747997456 0  0.01761463429573888 -0.09277216995925666 0  0.02996354403022811 0.0561360065588529 0  0.02225861224729751 -0.07126162461465058 0  0.02963098710512285 0.03107474438995167 0  0.07030538723348373 0.02627135000484549 0  0.04529858662160354 0.02446313826376874 0  -0.06944590432755339 0.0398327967964304 0  -0.06804713763832906 0.03990310847156362 0  -0.06733982090991318 0.03870989647683196 0  -0.02184157058092771 -0.07583104594264151 0  -0.0618788044490893 -0.02747219393959846 0  -0.01717886447079782 -0.04172237768472543 0  0.02963799543955351 -0.0409471006695938 0  -0.03512104320987991 -0.05134671041658029 0  -0.06575702044269963 -0.06299557437711191 0  -0.06337856704531404 -0.06378295972797396 0  -0.06589692983950202 -0.06435644943953918 0  -0.0724061940218282 0.0254766947087479 0  -0.0997103375631071 0.007502138751604806 0  -0.04026847294128923 -0.03481924062707138 0  -0.04087875036399413 -0.033578649957496 0  -0.03892538300599864 -0.03245709786145928 0  0.08908614983068443 0.01557825344347061 0  0.03267047640803126 -0.07829678158462074 0  -0.05615740069548778 0.004658338401996732 0  -0.0579794528701871 0.006262731956267775 0  0.06581227918222445 -0.05977484828225351 0  0.03766314339260779 -0.01341417561741086 0  -0.07204969983231452 -0.05147560474974071 0  -0.02551002242594248 -0.06972378957031655 0  -0.02555577922071327 -0.07236425373145434 0  0.06642611561317015 -0.0309883359813512 0  -0.04349687555799862 0.006078584562246783 0  -0.05966796337460158 0.009141633950762647 0  -0.03999772317583416 -0.01039064681018492 0  -0.05061143931770819 -0.05673083707300406 0  -0.04899866901996416 -0.05578166078223208 0  0.04148061723921687 -0.03304476208944804 0  -0.04323929963158327 -0.04805420247795528 0  0.008760022779740634 0.08306652003799606 0  -0.06617475986831983 0.04657765200094589 0  0.06664518003473965 0.01129337383792644 0  0.0683652761265645 0.01307072624327492 0  0.06696992216199289 0.01381819473793819 0  0.02604667303827279 -0.04178213765787916 0  0.02636711145327634 -0.04376871715867611 0  -0.00971472171185662 0.08316966270237551 0  0.04908073858527557 0.04202750998602888 0  0.0729743092797609 0.0291150266793558 0  0.07789414699173056 -0.05686808447693302 0  -0.06812290144984849 0.04907941991059655 0  -0.06687759988827448 0.06933121673711683 0  -0.06805763470398669 0.06815240891603924 0  0.001924121320783277 0.07299051305678601 0  -0.01681540560570405 0.09856812688243982 0  -0.03181986475442027 0.08714382980463414 0  -0.01459242151792097 0.03904329849014455 0  0.05084860227644435 -0.04929787432111517 0  0.002344690172313841 -0.06373060515427166 0  -0.09055205247088183 -0.02912658613943264 0  0.01605769418110205 0.04091458796613466 0  -0.02898876545598837 -0.0956978838853545 0  -0.06131225906064034 0.02871033510042916 0  -0.03073997293865974 0.02960189567339751 0  -0.01205737268708205 0.03955410100177169 0  -0.01034017718631878 -0.0583551951673958 0  0.06982624412936778 -0.04476692396454737 0  0.07061626181217495 -0.04665355437849179 0  -0.02473576723139378 -0.03907004342017156 0  0.09118443570262132 0.01538193391120891 0  0.03561003769824676 -0.03445322488194119 0  -0.01694156432828637 0.03796531653459665 0  0.04602654707622458 -0.08540348915838077 0  -0.06621014793984563 -0.06146551377921108 0  -0.009825206067435685 0.05801567410572023 0  -0.01135097574628804 0.05596980352898527 0  0.00889537944223379 0.0686024033059584 0  0.006354979290266833 0.06920148699440279 0  0.03680809510379739 -0.03583378554973696 0  0.03836157142062752 -0.03495552417466508 0  0.0118079424815232 -0.0743119448675566 0  -0.02987272909910043 0.05267331099881786 0  -0.03065189860369801 0.05386212715358259 0  -0.03244641837670091 0.0530210218527698 0  -0.01978265751876861 0.04482214390901015 0  0.08554129775758904 -0.04106330621576746 0  -0.07490299563952671 0.02801892158840135 0  0.08665444904990377 0.02133806328570387 0  0.08009950498185624 -0.02891610393422362 0  -0.03934439455119471 0.03769818508428548 0  -0.07313746102088912 -0.05272006742494399 0  -0.07332086544742671 -0.05014506148628951 0  -0.07467058524391046 -0.05189905997718922 0  0.04855008654082042 -0.08594135265645188 0  0.08946004033999418 -0.04466916929117567 0  -0.008445237241543597 0.07562892177521335 0  0.03880672857845206 0.01524207922023751 0  0.07072717465586503 -0.05093960139033685 0  0.02948445899374267 -0.06526770692244931 0  0.0600019983371502 -0.008704549024970549 0  -0.08708986795213322 0.009853334108540493 0  -0.06746829131416658 -0.05119831083278868 0  0.06781024992111284 0.06948347735269336 0  0.0008543287021051554 0.09344446174238349 0  -0.03942668240482598 -0.04625368187135617 0  -0.0856995266322316 -0.04410734952554185 0  -0.08715091733479133 -0.04613798298696848 0  -0.02892954238911305 -0.03398627677710157 0  -0.02966522904736257 -0.03626963466617376 0  0.07449766905105525 0.002497878264652828 0  -0.09368253974002862 -0.003009734041370497 0  0.04966326474461843 0.02489368166498322 0  -0.001297958249725171 -0.08592230037763936 0  0.04410844363346615 0.08973783317548087 0  0.002996073396134602 -0.07636750229215009 0  0.002113617737524277 -0.07478304602529358 0  -0.07135344694996112 -0.02199110935677445 0  -0.07055114743882757 -0.02308440567088874 0  -0.07202746193299971 -0.02455680405583424 0  0.009311875819032251 -0.05485460143259285 0  0.007393207274423812 -0.05595154506898245 0  -0.03290910395069639 -0.02994813926643681 0  0.02426766551964303 -0.0422143520060412 0  0.06913970033776998 0.007293619473996446 0  0.06503781933263783 0.01021901502175659 0  0.002358389543607413 0.06917222782529527 0  0.05232776020883208 -0.007979820786648108 0  -0.0413958262958609 -0.04600996358433671 0  -0.04748778556896931 0.006246763995440427 0  -0.04557292582436868 0.004457257334157656 0  -0.04579194564728628 0.006434602962036308 0  -0.04416782912975858 0.05650552639837614 0  0.06323378807702998 -0.005013967890125438 0  -0.006827523593870836 0.04602149571045744 0  0.03535893991744306 0.06162282054558999 0  0.0335992153942737 0.06265303119721188 0  0.04763476814646628 0.001392835274756046 0  -0.05746368866478455 -0.07299142462167256 0  0.09702029897708238 0.002379925776828648 0  -0.06034809860383751 0.03424055830528763 0  -0.06777129968938382 -0.07352199970899065 0  0.05942596479862575 -0.01125830965447077 0  0.01635980121279884 0.06994853478676785 0  0.05007759221239415 0.03961970710428109 0  -0.02147127929804164 0.05467823429291983 0  -0.01957799011680446 0.053990707582368 0  0.04318491848472882 0.05483973762199462 0  0.05999638850818377 -0.06259528611721486 0  0.06629426450637906 0.05885520038379739 0  0.04278401347900697 -0.07083465641878323 0  0.01235277682161326 0.06695098971162197 0  0.01076078742241806 0.06780847636014979 0  0.05514561198924407 -0.04801929126193236 0  -0.06718857456743971 -0.04462952562430916 0  -0.06854218099704963 -0.0460629052241607 0  -0.06908694868169721 -0.04354883298581251 0  -0.01069834554086942 -0.07545875824877944 0  0.08803132756202522 -0.01486285922578015 0  0.01895339035016138 -0.08626715576680133 0  0.03539831067618596 0.08169364493952991 0  0.03339598233749953 0.08161153871097139 0  0.04268584563243954 -0.02454400559287858 0  0.04453848693305447 -0.02628417085557432 0  -0.03061865188954193 -0.0300414839086722 0  -0.08944558631889953 -0.02672568080337964 0  0.07689738743447169 -0.04178650441030377 0  0.0455540064668018 0.05580591880652681 0  -0.09404364815830318 0.02271100161122843 0  -0.093997271628873 0.02035220648772855 0  0.03797396283240668 -0.03944644830362346 0  -0.0446311614014978 -0.08536028724287498 0  -0.04394962408376166 -0.08649935591209437 0  -0.05346823736217407 -0.0138340122654209 0  0.01629945644631501 0.03650726225371543 0  -0.07904137838334366 0.04380097607934166 0  0.03702307900225618 0.03033558639241898 0  -0.007436403430789595 -0.06201457844751922 0  -0.05871606946686365 0.007983271506649374 0  -0.057052212095825 0.008747648747327632 0  0.01485745904600006 -0.06024670272735079 0  -0.0009156192652538745 -0.07764347516986575 0  -0.008369583717188303 -0.05116833054399617 0  0.07603893194743905 0.02752834615077935 0  -0.05055069255265737 -0.0361611734971342 0  0.04663040956913499 -0.02783113012850937 0  0.03777800278689435 0.06124255978183108 0  0.08925734285811729 0.01362529926425998 0  0.06841214685614426 0.05740736077328808 0  -0.006640556378591906 0.09497926851279878 0  0.003758050955016625 0.08551925080097085 0  0.005032852271181919 0.08727823737005889 0  -0.02519117330046943 -0.052939336824129 0  -0.09153482398133909 -0.03697796320825183 0  0.01218305794077714 0.07541869949308404 0  -0.06603718066076002 0.04973886009759789 0  0.06769121504586322 0.03822620346774255 0  -0.04072363471919492 0.04981953795964202 0  -0.01276785811605783 -0.06462889433647931 0  -0.0291270884689073 -0.07936412442424817 0  -0.03656631920874944 -0.04392438251677863 0  -0.04298183191093449 0.09028286453351637 0  0.05935785091463871 -0.03297841730583594 0  -0.01166477107923431 0.09509873416945586 0  -0.01811071898820241 0.06907036969024276 0  0.08775679505064048 0.02522480675954674 0  0.08294586973787536 0.04000003039546168 0  0.0822419843122429 0.04171197696849867 0  0.08446374324047266 0.0420895265882357 0  0.01141655430474573 -0.04124443978614432 0  0.03747512583699016 -0.05909486955733134 0  -0.006649086134950687 0.07582711309744969 0  -0.006352365929819734 0.07387846622762367 0  0.01466820492205752 -0.05093021047478916 0  0.01620855204669811 -0.05000833740243026 0  0.0688977539448295 -0.01991036148673804 0  0.06712457258095803 -0.01931697367952678 0  0.04322681521352321 -0.08143153779127435 0  0.0453007252975491 -0.08297739221168152 0  0.04323652546335526 -0.08340260155800971 0  -0.06087541949107634 0.05440625197263001 0  0.05609904547689027 0.06532763103814207 0  0.03541795898857243 0.0591265129066104 0  -0.01487181958615187 -0.07960184281491814 0  0.04179737590326679 0.05175187300693824 0  0.04205044969585615 0.05410948125926758 0  0.04389118109937067 0.05266616603249828 0  0.06351161941916755 0.04844360983736586 0  -0.0208727995388989 0.04847514039789839 0  -0.007687628503328523 0.07346805936890094 0  0.05423872667437184 0.06403077025990078 0  0.04607145343027712 0.07657748905461187 0  0.07038920118172826 -0.03944225537263341 0  -0.0458910354177311 0.06281512157487998 0  -0.0811983232658149 -0.03051041633743509 0  0.00377948286938143 -0.07838551108210369 0  -0.05254833884865683 -0.001438229521344926 0  -0.05312092030262751 -0.003262924375173403 0  -0.05421173148556217 -0.000916264014309575 0  0.01932085880557767 0.08277523191805368 0  0.05925773887411054 -0.07717675415656919 0  0.05063985548530137 0.08481083782934247 0  -0.06975738855665593 -0.04558653211576506 0  -0.07606555851198266 0.03993652231412114 0  0.04921268235512024 -0.02722902924576683 0  0.04846584750650282 -0.02870235588703425 0  0.02023422984419039 -0.06955407849058613 0  0.01890605702651094 -0.07002309271293394 0  0.02805493813784303 0.05991607618020565 0  0.02825928012084693 0.05815212795696331 0  0.05843083870507441 -0.04728446412786026 0  -0.006168891179267994 -0.05871379541015299 0  -0.04326422350390065 0.0628983255383167 0  -0.04198724406189018 0.06166675994908522 0  0.06119146496369991 0.05972696789431402 0  0.07254386259344325 0.06047285075808118 0  -0.05259089724638898 0.005931994547042841 0  -0.05227154856466538 0.007359803516579097 0  -0.038149734836423 -0.05743548854891954 0  0.08731560732333253 0.01355962181791061 0  0.08677096574155538 0.01476586948394528 0  0.05021722462276831 0.04351129960465644 0  -0.05511450347462232 -0.03335529580267789 0  0.06350842846486851 -0.02892516003908446 0  -0.01276797335472131 -0.09490217237427151 0  0.01923125736893293 -0.07196661655453944 0  -0.08221334975867602 -0.02574019053824497 0  -0.08242086786877822 -0.02822800508357383 0  -0.06480578755297046 0.02162402656362864 0  -0.07309643961495546 0.06823008147741191 0  -0.07181397094021195 0.06542407443777352 0  -0.07184758806467618 0.06792043230836417 0  -0.08360748577726483 0.03551678122222358 0  -0.009145884504604133 0.06349306909716991 0  0.01474069213486268 0.0583037721155308 0  -0.04671132438212465 0.04697035854175683 0  -0.04663667829923363 0.04938552133766697 0  0.03508195922750684 -0.04515481916851265 0  0.03657302011278969 -0.04624048774874537 0  -0.08433513899469279 0.01922821965721759 0  -0.08379192379081178 0.02118467998978777 0  -0.08612948346116182 0.0209272348715315 0  0.06868619107882928 0.07266801674656911 0  -0.05116939665285306 -0.04359621747891659 0  -0.07309643961495546 -0.06823008147741189 0  -0.01139136182379393 -0.07682427263275783 0  -0.0392712653148691 -0.03646581946047093 0  -0.09789749712968734 0.01259847788408287 0  0.06904849206924379 0.0682598429958341 0  -0.08915759202709207 0.01531664265865359 0  -0.0446145857002016 0.05901114449228013 0  -0.06578706546546378 0.04789654296471457 0  -0.04391154908798692 -0.02463420279338406 0  -0.04144676234779907 -0.02539614842126177 0  0.01353473987216323 -0.09788071123059766 0  -0.02898876545598833 0.09569788388535451 0  0.0157540632233598 0.04897950684254418 0  -0.02846430270508739 0.04846187114027514 0  -0.02980702689393901 0.04990973671805364 0  -0.02878003960980559 0.0510228155844874 0  -0.07478133724166144 0.06637910140357428 0  -0.07027277994813355 0.03545822130715527 0  -0.07212644126337912 0.03552116732355814 0  -0.07091541389834446 0.03331322376111696 0  0.009775432464812581 -0.09824650278765162 0  -0.004087419705865472 -0.09561234796596429 0  -0.07889709366565746 0.01802343025157663 0  -0.02413324845654304 0.08873548243419435 0  -0.0749677788089434 0.06085531947681255 0  -0.0483746400539294 -0.08610861775721243 0  -0.02280047453040002 0.08703291540280288 0  0.06093993618624957 0.04817292648020375 0  0.01804776505643171 0.09834994498862182 0  0.07217111069324472 -0.06170387046986318 0  0.07369432461052593 -0.06029843581858476 0  0.07129095785299799 -0.05976498310435361 0  -0.01641379701013982 -0.08387165939907729 0  0.08829497855016968 0.03230149770034672 0  0.04074023344458351 0.0552276845895631 0  -0.0408693545201531 0.009006874327193807 0  0.001497426686128065 0.04663464562236476 0  0.07672879757847152 0.06232675769119994 0  0.0533826391124994 -0.01340234505173331 0  -0.06267156071570504 -0.03377642635738598 0  -0.06501468735097567 -0.03472870080512429 0  0.05731007453878464 -0.04348992067814527 0  0.08398272865344476 -0.006312367890292818 0  -0.09305642263934645 -0.01323059528409367 0  0.08141138143214087 0.05582166136603596 0  0.0817689638874099 0.0575523244324376 0  -0.03744912220609022 0.06879005424564105 0  0.009752045526861777 -0.05684936144413585 0  0.07274485071466383 -0.02108299419348096 0  0.09242875720944579 -0.02248951633323738 0  0.09091973564865236 -0.02401727461742938 0  -0.05690038706605664 -0.00164449030279917 0  -0.03914292697164871 -0.07126007718648526 0  0.05804462939901619 0.05477116203363311 0  0.03629266736411414 0.0239413520404907 0  -0.02685436729248596 -0.08540701317852246 0  0.05571668409331335 -0.07466637884011672 0  0.04186146000770666 -0.02853014217303361 0  -0.04372141589115103 -0.02056217409515609 0  -0.08678624964912014 -0.007377370052772509 0  0.01454583029292058 0.06816631694761277 0  -0.06057248373109621 0.03249329949426515 0  -0.05869569174400344 0.03124691619497915 0  0.02851559621352212 0.09128562047853472 0  0.0933877372016915 -0.03228508980111552 0  -0.01805791625982102 -0.05691065525729579 0  0.08415021680706433 -0.01622051211618042 0  -0.08300673893948846 -0.005882153225686632 0  -0.09622511840090457 0.0005210869528438026 0  -0.09053001293011159 0.01769768190101905 0  -0.01203217459715822 -0.06739008096528389 0  -0.02337995823666965 0.06177766552967093 0  -0.0249816293891833 0.06317620493857889 0  -0.02248802961332544 0.06362006652881967 0  0.07566921548067923 0.04681994195002946 0  0.0888131651287562 -0.01104071173076226 0  -0.04677556330435951 -0.002157577538027592 0  0.05530758057462623 -0.0795839103987257 0  0.04313289279195145 0.01758088518035471 0  -0.08847486632258975 0.02422238034761354 0  0.01266862296871653 -0.04152156323753414 0  -0.08616640347782023 0.02312558574841849 0  -0.06016870266997065 -0.03323404915624654 0  -0.08097550158548877 -0.05375705527492854 0  0.0542095269391329 -0.03941182535721523 0  -0.07562096289974299 -0.002404252098630098 0  -0.002731222670496184 0.08948719390188993 0  -0.06568589849168904 0.00340045602676391 0  -0.06933235685623353 0.03088232439891678 0  0.08983963394560611 -0.02211332251897791 0  0.03613323182102914 -0.08743846784983388 0  0.0342357569113242 -0.08601392992169624 0  0.0355676576577626 -0.0849771639283167 0  0.0880418025559966 0.0004109603150433431 0  -0.05438411430001979 -0.06916584392779734 0  -0.05182386518070093 0.02715793320437931 0  -0.05079037451968624 -0.003488512529364239 0  0.09055008171026775 -0.0424159899691252 0  0.03915548778570296 0.08842864574493753 0  0.0396942382323299 0.09055732545076633 0  0.07407915096658345 0.05883718007992961 0  -0.07701212563930497 0.05927308237900934 0  -0.07721351250376066 0.05727133119916 0  -0.07856547181167578 0.05725042168923595 0  0.09431433251817435 0.02896708685825068 0  0.09587742484929991 0.02838930973207951 0  0.0540407862264058 0.001306084424835379 0  -0.003556872166495481 0.09114539435866122 0  0.08881670694932957 0.002918041966358215 0  -0.03505574408058255 0.04127663995526756 0  -0.006237148518636109 0.05843550268554314 0  -0.08171907407932028 -0.005484168848582693 0  -0.08520825602929541 -0.05232577383319945 0  -0.006750966134738689 -0.08262235616797046 0  0.07552965007019413 0.03296613973309674 0  0.07325108325666091 -0.02414065554230851 0  0.08772110827541568 0.0197636712554649 0  0.07322575300512148 0.01722007371079059 0  -0.04142148537614404 -0.01627958277670033 0  -0.04345408582129177 -0.01763950128646502 0  0.095127546790981 0.01318452248158231 0  0.07558606079794777 0.05210583659361839 0  -0.08340211858287197 0.02883388589132894 0  0.03278002226475805 -0.07659330270108328 0  0.02821986644001595 -0.04317027238860974 0  0.03175030041862279 -0.02429754928041256 0  0.02766694649900455 -0.05997253164983207 0  0.0609373516746519 -0.06569905965005945 0  0.06747132251486272 -0.05569967018538109 0  0.06614090503732281 -0.05599907599800002 0  0.06542407661757246 -0.05414139564305268 0  0.01999325607011894 -0.06126329186160977 0  0.02187196400895016 -0.06162210582638102 0  -0.01357603130215268 0.05065157186842775 0  -0.05472962739163007 0.07012945187438226 0  -0.05493661060261492 0.06831666829882875 0  -0.05696211331245003 0.06880969121518553 0  0.08080341838514488 0.03334106608811488 0  -0.03451045427769247 -0.03154585629822447 0  0.05432523191946553 0.03037685727193061 0  0.05898315318209144 -0.01402568398711378 0  0.05937861695404688 -0.01255610618835169 0  0.06493279760669361 0.006880794917513807 0  0.06882096758344514 0.002954848831650866 0  -0.02736053189448796 0.0670798968837143 0  0.07029066813774011 0.04732280113199289 0  -0.09846096401522837 0.01743192668608377 0  -0.03675023854128114 0.02666839692377134 0  -0.04522814551002317 0.08917874386041366 0  0.01179409039335408 0.06099420117292847 0  0.009931454010518946 0.05993071817091059 0  0.0163534571275003 0.0957405669221562 0  -0.02952296597249104 -0.05897920406592774 0  0.06880248384359368 -0.002118415528302735 0  -0.05296815860704746 0.02416330116705949 0  0.04414617156963006 0.07315026408535084 0  0.006422494568552846 0.07937183091192464 0  -0.04573229743941177 0.07620791836720364 0  -0.009007193954419748 0.09832667366063894 0  -0.0512898253384944 -0.0482978703569153 0  0.02131857790209166 -0.0452684964200174 0  0.05867808037546652 -0.07432126999630485 0  0.05996587017144808 -0.07210642480870212 0  -0.05609473752869536 -0.04723649981585359 0  0.01323917809911228 -0.06954430675493001 0  0.04489690927010064 -0.01494555784182534 0  0.04366802299792963 -0.01625646433653982 0  0.04233460871436485 -0.01497212839652689 0  0.01566349221497275 0.04643953215255656 0  0.01693458439079092 0.0451524414827132 0  0.0805081034218198 -0.05737589412368048 0  0.001144936820096898 -0.06429026289899649 0  0.001810570077558258 -0.06186161139667366 0  -0.03498730029739103 -0.03508785311454941 0  -0.03517711487268647 -0.03380329207900038 0  -0.03391148816977386 -0.03579466202185885 0  0.03885733400077832 0.02079964935353738 0  -0.06536570669308875 0.004788320341537564 0  0.006534879913926578 -0.08284631663087787 0  0.05829550336696288 -0.0596890290594616 0  -4.399811667013856e-05 0.06676083267769893 0  -0.06275713777755444 0.06159047102671149 0  -0.09712466888997975 -0.01801413342593556 0  0.05057335703645019 -0.05791011909685431 0  -0.05543117477741667 -0.01758291245860144 0  0.04410844363346612 -0.0897378331754809 0  0.02667614099845908 -0.07670563954617914 0  0.07373534019699449 0.0008184580200437587 0  0.002812862546621941 0.09141168719725921 0  -0.0498875848131206 0.006365938277410828 0  -0.05422232723371922 0.07656446423144192 0  -0.08809356283718124 0.007503128189111911 0  0.01636617590591914 -0.06644111289270181 0  0.01053759149545978 0.07348162403151563 0  -0.00102382741931864 0.04344551390763578 0  0.0002363052929881781 0.04124419133804051 0  -0.0006217715693413383 0.03997581616205521 0  -0.06735292862002408 -0.01409402680114167 0  -0.00798993175074773 -0.09664699014976776 0  -0.008863030663054544 0.04014052158385776 0  -0.03485849108641623 0.05314246222113784 0  -0.09551459497624393 0.0295870858538176 0  -0.06221548057830216 -0.02354754266615961 0  0.05205307043414287 0.009338390550564332 0  0.0516887089822084 0.01064291215647031 0  0.05265489265185563 0.01152110246035893 0  -0.05960540849952004 0.003251862159452058 0  0.04131584142050554 -0.07016405170506981 0  0.03991698081821424 -0.06793946734937961 0  0.05185000261052478 0.07244314720372724 0  -0.06084627283596966 0.06332738283015908 0  -0.08748293141202611 0.02074658399975971 0  -0.03163600386192719 0.08170273743206526 0  0.01079708161176926 0.0955951160615847 0  -0.008871470421026362 -0.07881983936574155 0  0.01670282151644167 -0.05963979917859574 0  0.06252433560130852 -0.02056259309477764 0  0.06732835217026156 0.06336089500876729 0  0.06931918832096799 -0.02240022735862637 0  -0.02496227227271338 -0.03264710753165868 0  -0.01615231897099211 0.05366555582433403 0  -0.01496027536504307 -0.09376628564386991 0  -0.05583153865494402 0.04405510810823769 0  -0.04454723569690345 0.061566906150588 0  0.05172926790038074 0.05896453177932622 0  -0.03533557629469732 -0.04003255010123744 0  0.06388762731171248 -0.006272248542839158 0  0.01769872940622578 -0.03990122845834215 0  0.05410407672370005 -0.02521079942219341 0  0.07051353718533111 -0.02188310348232287 0  0.0953532640604525 -0.02536197999677288 0  -0.006593627944273994 0.05614128469422561 0  -0.005156031642070303 0.05554230094167473 0  -0.0514803159230403 -0.01959005707105242 0  -0.01596835807912858 -0.0506401891949862 0  0.05282481974145211 -0.01087333015600649 0  -0.06981922492996899 0.04192872331566035 0  0.07766893867707711 0.04475489094946297 0  -0.05707911519767891 0.05990388843615334 0  -0.007395180033389862 0.09649450134504946 0  -0.0731863964861777 -0.03651969532008742 0  -0.08836047969952282 0.0003223783350896474 0  0.05729675926706633 -0.05642436311900836 0  0.05903550378705606 -0.05528404460088489 0  0.05778575355826231 -0.0539072188659063 0  -0.08878081737644947 0.0119464104838649 0  0.07322624349024498 0.03339271234771092 0  0.03682929027378522 0.07974566453916267 0  -0.04453665873192531 0.08470051790835616 0  0.03417558894330663 0.05645350349605911 0  -0.01041055572921891 0.07932666411165228 0  -0.001433478657353287 -0.08111760960257101 0  -0.05849681336015525 0.06021217144608125 0  -0.05725536948581677 0.05788681263917102 0  -0.04211417598255451 -0.06118817994730814 0  -0.04089612408361074 -0.05895704588906118 0  -0.01923586090796364 0.0696595232353143 0  -0.0311810263002424 0.0394359122286667 0  -0.04143048482338497 -0.07017097365831933 0  0.008145312753083941 -0.05905051164079406 0  -0.03234419221841023 0.07469378262638661 0  -0.01837050525148758 -0.08249995015894834 0  0.02381832566953386 -0.06922855031197801 0  -0.09585578316524636 -0.01581071018170644 0  0.08509432440715667 0.02539085594100564 0  0.08382927804350619 0.02605429862042569 0  0.08807151134167987 0.04172228794311865 0  -0.02124553081648088 -0.05024178869015662 0  -0.01897139945579792 -0.04792982049062559 0  -0.0768587247809583 0.04831539394876772 0  -0.07127555389379113 -0.03826457111579461 0  -0.07139313633773235 0.05213398079827824 0  -0.08779486258929339 -0.005974431958735676 0  -0.03199939933579023 -0.09293582221760269 0  -0.04225271621132078 -0.01163598485654974 0  -0.04034901704572762 0.07870400609518156 0  0.06851680947901345 0.0292587854125433 0  -0.08822620296270624 0.01882008750550471 0  -0.08974130379875804 0.0193326434532928 0  -0.002337278157445684 -0.07634566774707251 0  -0.001164885665657676 -0.07484712348652234 0  0.02528198064143379 0.04069297311717246 0  0.02444330156472978 0.03900800910212322 0  0.06668122614301916 0.05280551628047898 0  0.06704616631177467 0.05143712646627482 0  0.02298648775012426 0.03958162336778447 0  0.02196206173168081 0.04192245503268007 0  0.05311925248408324 0.03828717497580218 0  0.05338084564123764 0.06624030517413373 0  -0.08267618453931737 0.04669854282110064 0  -0.06245510251772902 0.01243441746405436 0  -0.04423417739063448 0.08838340769806052 0  -0.02184812216843842 0.06539355272386452 0  -0.02190978708610137 0.06792554687229752 0  -0.02540180187901197 0.05925238280535011 0  -0.02591867860985659 0.06131472819248651 0  0.0273293210550234 -0.03786068228003056 0  -0.03249059267219102 -0.0232983661555192 0  0.07959167440145878 -0.009908195234915622 0  0.05180201641554164 -0.0199974792694208 0  -0.03699409617670684 -0.07242613171857967 0  -0.08545656760760333 -0.01774618234424291 0  -0.001348832306165002 -0.05389315600902934 0  -0.0006098424246924724 0.0681044229416001 0  -0.04912776362807235 -0.08362430998885434 0  0.002077996309673183 0.08349120899261021 0  -0.06974259545468549 0.002804976975080145 0  -0.07961983213317946 -0.04681877356287446 0  0.02294700623998201 -0.09732352442970468 0  0.04809098391305313 -0.04059017995248945 0  -0.07870895467137176 -0.01371680941089066 0  0.08518803727696531 0.0201930454537003 0  0.04771468360489586 0.0094346838437229 0  0.04853998870346101 0.007046327666189164 0  0.04965662208169504 0.008696230511010573 0  -0.01961299542591395 -0.07929302034509876 0  0.0879401494176537 -0.02133820935683493 0  0.08815578982193009 -0.0188018617791479 0  -0.06781382014475219 -0.00351702859079318 0  0.0495291304652534 -0.06172257354017766 0  0.04738206704071405 -0.06292511724678404 0  -0.0520514511841002 0.06603094940865192 0  0.01974845587580192 0.09680371502191543 0  -0.01498848032217972 0.07840121286532545 0  0.03602013624530918 0.06658375516420803 0  0.03621470301216525 0.06788737365653147 0  0.05518746344726556 -0.009752336870545265 0  0.0554099660939107 -0.01184139133910687 0  0.05731423378770729 -0.0109792053172266 0  -0.01776542424774825 0.0717787108688205 0  -0.01721848414181779 0.04614081637492685 0  -0.07180471849960107 0.002200925213571629 0  -0.05596700169057274 0.0636764396850002 0  -0.09678259141902491 -0.003671216258466221 0  -0.04128140456225936 -0.04812760459438985 0  -0.03566863594595218 0.07522097770871941 0  -0.07015699788708817 0.05425382318583177 0  -0.03835366077227992 0.05995322618021635 0  -0.07343092277097907 -0.03304544927515089 0  -0.07131355502029305 -0.034513379504468 0  -0.07176932505517671 -0.03305449850454405 0  0.04571426847982842 -0.03217262730041025 0  0.0343864647007865 0.05394525805319453 0  0.006755554360316372 -0.07449986160788226 0  0.07924585069957271 0.01597629494707885 0  0.05431843344281543 -0.04190820123627459 0  0.09078353387765571 -0.03412094225167544 0  0.09384447207754397 -0.03101115613040758 0  -0.04477473009280392 -0.02767809147046648 0  -0.0390487276382843 -0.0904974612681593 0  -0.007194032004594313 -0.08631156963317728 0  -0.01742694293854033 -0.03598269219393867 0  0.05017606547680731 0.04886417903650409 0  -0.07144329731778709 -0.005077484328587645 0  0.008657264665039254 -0.09154981613000776 0  -0.01434297747798574 0.09895813508682896 0  0.08095975345459913 -0.01729393508318426 0  0.00412132920924818 -0.0596931343837493 0  -0.01182645327793597 -0.04446374145919083 0  0.06171472114186517 0.04320612702194901 0  -0.05348112994053406 0.05029798821816166 0  -0.09195082789170968 0.005427158194050774 0  -0.09285596890363335 0.003035623381646656 0  -0.09356282076761976 0.004275412487262034 0  0.05285799197732169 -0.08487912692130198 0  0.05277236358091673 -0.08355779305757674 0  0.05516093333540767 0.01493184163932496 0  -0.08794869907570081 0.005652035787759636 0  0.03507080588206735 0.09070854548734079 0  0.0516321555868318 0.02969994831265868 0  0.05235388335980703 0.03106505590227598 0  0.03894509578274858 0.06310367076920932 0  0.02496881454167477 0.06784733890080537 0  0.09533281467240561 -0.01686707752932361 0  -0.05467895223347283 0.007796311338787549 0  0.03743160912843209 0.01741224182125361 0  0.06341915802434082 -0.002460799526731655 0  0.0838507056052735 -0.003115373306559812 0  0.04391956655086947 0.04653229364119758 0  0.08030281123784905 0.05958097020102544 0  -0.07758398798940425 0.009719918588235149 0  -0.07971072042372204 0.01093922726743502 0  -0.003510783554327118 0.07268313046662749 0  -0.0280191004778128 -0.08667050197167778 0  0.09261088582823152 -0.006303272687274396 0  0.09325823546904549 -0.004685615932273465 0  0.09508691581351394 -0.005728820256537923 0  0.0493954875270288 -0.08363650884699053 0  0.07978578000201716 -0.05842074031521364 0  -0.01268793058961673 0.07819500971548755 0  -0.02940063509187082 -0.04913460683456852 0  0.03517736177309446 0.02128153187078363 0  -0.0513885982761957 0.07266597125785826 0  0.01080165637151048 0.03982587285537827 0  -0.05120154040971132 -0.01562014517475811 0  -0.04358430973968765 0.07610496937371923 0  0.01869381421467785 -0.04397349346893871 0  0.01756983747835721 -0.042265346774744 0  0.03333557037071032 0.04373519457868565 0  0.05933635192675984 0.06512355586794756 0  -0.04898691047832242 0.05003516845098431 0  -0.04906146941029635 -0.04264808475109298 0  -0.0802455711261504 0.02620315007763366 0  -0.07851440332880115 0.02686741985157905 0  -0.05551180126351864 -0.07543013738164756 0  0.06512108530504966 -0.03885793319923507 0  0.09037253192452789 -0.01372340063594575 0  0.09264222607091351 -0.01333378665799844 0  0.09260712934821005 -0.01206706920143639 0  0.08291532978307077 0.0008605487394327677 0  0.08546162731641505 0.0009479881805906957 0  -0.0432591788563166 0.06034527777398344 0  -0.009261321431505024 -0.04412384259057512 0  -0.00455417501598411 0.08203680180684286 0  -0.09356426514056883 -0.0253983260984244 0  -0.009425224830954832 -0.04286217853893802 0  -0.06924122823761668 -0.002058239760122718 0  0.06163617479563773 0.02507794217999035 0  0.06711729873862998 -0.0008042394767961614 0  0.06691932346989625 0.001279608242775502 0  -0.08685672557847146 -0.04342966674036838 0  0.02103432213819303 -0.03727820878813668 0  0.03342679895100008 -0.03869744925744938 0  -0.07754821567879172 -0.04502300656574149 0  -0.09236484972923346 0.02818364545322236 0  -0.02821058508663176 0.04589628100846341 0  -0.04586267212824653 -0.006546072887578996 0  0.06200350981228857 0.01087788322788545 0  0.04108490381034485 -0.08197076202063629 0  0.01322544687640959 -0.05476709042610245 0  -0.01061578817664001 -0.06584967462163471 0  -0.01019239160862594 -0.06826979199069523 0  -0.08422417608377757 0.04337111843096964 0  -0.02807263525327127 -0.04194592174604225 0  0.06790870181244103 -0.0393447117051044 0  -0.03637603803965481 0.08360012572451918 0  -0.0353208631789364 0.08134007428729532 0  0.06780744264591576 -0.006874941260535444 0  0.06769736002075036 -0.005590427250827141 0  0.0527571956770797 -0.04252230365662637 0  0.07875225396767975 -0.04355818790294905 0  -0.07181633500182572 0.04554311526219325 0  -0.05682884815484949 0.03296786537459322 0  0.01557239173987996 -0.07549121111046651 0  -0.06785844769879479 -0.04858753647087008 0  -0.07281572357386425 -0.03850267740372689 0  -0.02092209671023565 -0.05616466232381524 0  0.04934992419405853 -0.01534215112292922 0  -0.06612801678533863 0.01355321284286658 0  -0.007670656918718071 0.08248764343407355 0  0.08910048250921306 0.03327033690659401 0  -0.04171770711452304 0.07545660071465136 0  -0.07066520279040446 -0.05378766360805604 0  0.04543515029908041 -0.002562770461034188 0  0.03699318804144495 -0.05610341690830611 0  0.07605514300115568 -0.02709045400205814 0  0.05911266496610845 0.04441004050854065 0  -0.03085821055757233 0.07493010847290683 0  -0.03034769778650054 0.07305408895445679 0  -0.03160689627932207 0.07253071357431569 0  0.07722050320229407 -0.06352501387628016 0  -0.07234986262414757 0.007014414393120512 0  -0.02612564921147677 0.07089777917375777 0  -0.02552806559385732 0.07259368551891021 0  -0.02797211894257446 0.07212016913942926 0  -0.01724019913447888 0.09321329192293067 0  -0.04289919780756215 0.08901870451792351 0  -0.03261219817919222 0.07345794927251205 0  -0.01580403587038808 0.08908655920545998 0  -0.02645545826221908 -0.05071924674839717 0  0.007503336533043387 -0.08933468222499645 0  -0.07229782830427631 -0.02875135541624836 0  -0.05354239721561427 -0.05882767811531937 0  -0.05458468103174658 -0.05732987307401259 0  0.05084044425964476 0.05482010719543302 0  0.05011239332945946 0.05248448746638629 0  0.07088738169254574 0.05879723389461283 0  8.422513808207773e-05 -0.06647169448061933 0  -0.05922496043173526 -0.06118410070537716 0  -0.04483154886172995 0.02604578781161955 0  -0.07105092973470505 0.02922188400426927 0  0.05888143040743356 -0.01604294626591021 0  -0.03788523241067027 -0.05486763140553621 0  -0.09387925886750452 -0.03030138229601396 0  -0.07984632380431818 -0.0579966871819267 0  -0.01598879298822972 -0.09096395410984992 0  0.06333941699829 -0.04839149718260605 0  0.0600378763401177 0.02567964721329983 0  -0.05757991283655638 0.03788026955317083 0  0.05800026822962619 -0.02255736201989285 0  0.05998781603299775 -0.02320278241210655 0  0.07370422624355209 -0.01731727562768665 0  -0.02888302531310874 -0.06264581664401586 0  -0.045842962904292 0.05748309365481517 0  0.05637803760564598 0.07935257688721814 0  0.04850199529177712 0.0164538659735359 0  0.06724239941755221 -0.06541294737263265 0  0.0505058780262382 -0.02737604353171886 0  0.05071506955071432 -0.02587699052684413 0  0.04781710747588298 0.0115155633669203 0  0.0003923152426032507 -0.08457744194294062 0  0.008268377591238255 0.08095438748257057 0  0.003777038457369919 0.06847477365123625 0  0.07685979016504373 0.05061922731805604 0  -0.03912536123237483 -0.01709546182729208 0  -0.01615096526022291 -0.05320838153081051 0  0.06143820026422162 -0.02565094553053026 0  0.0620608733630852 -0.02678504047959109 0  0.06149139386616644 -0.02799967294881296 0  0.07601497120607999 0.0179262674680511 0  -0.08778207424596594 0.03351131637710618 0  -0.01686669351907476 0.0808000146960523 0  0.07984955681058198 0.01396682131695145 0  0.04500662742923565 0.01818381122649073 0  0.03794313779882313 -0.05110862339315405 0  0.03551325617369882 -0.05194678655428282 0  0.007064439103699042 0.08891103703606376 0  0.06953571082952861 -0.05520256688549428 0  1.115956922169339e-05 0.09540391996797692 0  0.0418484868327515 -0.09081375255216648 0  -0.07984634063557935 0.03552205037179696 0  -0.01590643420112101 0.0947233605180202 0  -0.01484404968960161 0.09405445810996022 0  -0.06580848558369076 0.02886139920422271 0  -0.07615905792707368 -0.05584279877317744 0  -0.01624718567487538 -0.05873484155111392 0  -0.06740046577013328 0.0666953077150013 0  -0.06603298201246481 0.06659117284978364 0  -0.06692891300385999 0.06417057219964144 0  0.0214448762608841 0.08624253172894969 0  -0.06398093429247248 0.01331043282225542 0  0.08929590337608277 0.0005618020812010666 0  0.06216848044062315 -0.002657568384884812 0  0.0259888611187552 -0.05888823035391202 0  -0.04820758254089606 -0.002218070926143895 0  0.03664376016880523 -0.0753956717445828 0  -0.03809183507519222 0.07998618533707139 0  -0.0799969107451563 0.02008554216142919 0  -0.04133990345334018 -0.0001045079369688309 0  0.0676764419158383 0.03229075468071751 0  -0.05885992485797896 -0.001546823789920274 0  -0.07571045888331052 0.03628865370292687 0  0.01482906347133826 -0.04077946552380707 0  0.03792618250213518 0.0718101972132036 0  -0.01805428440465215 -0.05542985230099789 0  -0.001222993489173536 -0.05207433807825717 0  -0.02062555357489244 -0.08897629958513201 0  -0.03018230730326862 0.03769738167737699 0  -0.0710971708838584 -0.01957554547736881 0  0.09102501774187634 -0.0101060087914339 0  -0.02254688011217791 0.09030261853245365 0  0.07219723401092415 0.02707858754303553 0  -0.07736134554496529 0.04573931019557838 0  -0.07723663661268826 0.04376112639576726 0  -0.04113167650439156 -0.002112447530502238 0  0.008694967467739631 0.05243006057598643 0  0.007443245791483413 0.05257337799694675 0  -0.04343556239731265 -0.04457998097983985 0  0.02328702641801171 0.08723118030196983 0  0.02088577488987208 0.08792901095750745 0  -0.08267708778898875 0.02646311249880626 0  0.03176237701829143 -0.04715799140477149 0  0.09979642406704956 -0.006253578673584276 0  0.09873347455652232 -0.00555501576332416 0  0.06088189896789179 -0.06986238776402197 0  -0.05447218834337974 0.03012531501884645 0  -0.05523955946775579 0.028587291668707 0  -0.05359374783824421 0.02774595964513389 0  -0.02399555825038899 -0.07071601130754732 0  0.04907232733003881 -0.08179677435169762 0  0.01849600411580556 -0.05391902171887342 0  0.07391675598102376 -0.02867006456595346 0  -0.05162891823000636 -0.02538308819002833 0  -0.09659366222966656 -0.01296973631215293 0  0.06609818424159226 0.06617474623907237 0  -0.04465855175531325 0.03580759296341647 0  -0.009372714193755131 -0.09955192480027333 0  -0.06334496988296688 -0.03870763610586441 0  -0.06443575313828898 -0.03796315550444689 0  -0.06322982634271784 -0.03996829475588929 0  -0.04625626770202078 -0.05189244896916368 0  -0.004378962860588231 -0.09989623710161802 0  0.08585649010864317 -0.05125521055484558 0  -0.06959032237424653 -0.07180264991381266 0  -0.09207855519513555 0.03898683336683643 0  0.09998433502797097 -0.001251499824832572 0  0.07878634093661241 -0.0615722826003468 0  -0.06008234745046858 -0.07992837435878619 0  0.09347722043429882 -0.03550271486343833 0  0.0372513391034526 -0.09279424140428477 0  0.07394468036189134 -0.06730986368263434 0  0.05907725950176986 -0.08067410310971941 0  0.09513680218259397 -0.03078022698530792 0  -0.03137500099037523 -0.09494231309406281 0  -0.08520825602929541 0.05232577383319945 0  0.03018424749273939 -0.09532756530035871 0  -0.04963436321224481 -0.08680359146551515 0  -0.03374157698424499 0.0941272515556115 0  0.01804776505643168 -0.09834994498862182 0  -0.03840983202277957 -0.09232073606064323 0  -0.02416330799747533 -0.09702869704070152 0  -0.01681540560570407 -0.09856812688243982 0  -0.01186156205662718 0.09928613623449085 0  -0.09474410565180341 -0.03196854621400558 0  -0.08649127426607808 -0.05017661784763053 0  -0.04522814551002322 -0.08917874386041363 0  0.01061796980876346 -0.09942681841403397 0  0.04854404356232973 -0.08741801494781112 0  0.09992168495550871 -0.00375371528610769 0  0.005628919031185353 0.09983360543092419 0  0.008125990288185829 -0.09966143579456101 0  -0.09999216720722226 1.22514845490862e-17 0  -0.09920996101409792 -0.01248267352686385 0  -0.006877993398655774 0.09975533424135846 0  -0.02658436559360052 -0.09639349048967408 0  -0.06206413061480701 -0.07839947189761723 0  -0.08772009716717538 0.04799602124945782 0  -0.08772009716717538 -0.0479960212494578 0  0.09935842297815725 -0.01123998603605404 0  -0.03608701054372787 -0.09325320998664854 0  -0.01186156205662723 -0.09928613623449085 0  -0.04744611920373826 0.08801874388618459 0  -0.04963436321224482 0.08680359146551515 0  -0.07136573984096981 0.07003830865853425 0  0.06496350648099514 -0.07601431660214278 0  -0.07641937696612006 -0.06448652825906458 0  0.05496595584748396 -0.08352949898430817 0  0.07560627918706644 0.06543794044959286 0  -0.06400702446434185 0.07682144441507358 0  -0.07800953239447261 -0.06255354792809775 0  0.08711250905894483 -0.04909016467941775 0  0.09255930124477621 -0.03783132638271969 0  0.08318388019568509 -0.05548761644175218 0  0.06107802314762366 -0.07917012435998472 0  0.06107802314762366 0.07917012435998472 0  -0.02416330799747533 0.09702869704070152 0  0.05496595584748397 0.08352949898430817 0  0.08318388019568512 0.05548761644175213 0  0.08831394340853488 0.04689435896172581 0  0.07048355193817385 0.07092603477550288 0  0.06684579152900345 0.07436446501964568 0  0.09158338450065256 0.04013623283521672 0  0.01558041192322478 0.09877086750201058 0  0.09823507415060787 0.0186628965978401 0  0.09717801369194462 0.023555618388939 0  0.0006257621661996928 0.09999020914323786 0  0.01310329612133871 0.09912990030033121 0  0.04184848683275155 0.09081375255216644 0  -0.04070858594406014 0.09133041406471432 0  0.09998433502797097 0.001251499824832548 0  0.09904595722871637 0.0137234055337728 0  0.09935842297815725 0.01123998603605399 0  0.03491702874249197 0.09369756990761866 0  0.06304051537250957 0.07761653769890461 0  0.08454667357769903 0.05338813997268593 0  0.07878634093661244 0.06157228260034677 0  0.08946004033999419 0.04466916929117564 0  -0.02172710969959377 0.0976031055187227 0  0.09433656690208315 0.03315185738274531 0  0.0277887421593833 0.09605321083647547 0  0.09055008171026775 0.0424159899691252 0  0.0570394781112102 0.0821275315567068 0  0.05285799197732172 0.08487912692130198 0  0.06496350648099518 0.07601431660214275 0  -0.08387184639461903 -0.05444214254742852 0  -0.05806291675444011 0.08140719379000884 0  -0.09302554733789087 -0.03666989289980162 0  -0.09799379518640081 0.01989094285756279 0  -0.09886643731416589 0.01496198768884675 0  0.08585649010864319 0.05125521055484554 0  -0.09687558032386459 0.02477005126582414 0  -0.09949131986345838 -0.009995537735615179 0  -0.09949131986345838 0.009995537735615203 0  -0.09551459497624394 -0.02958708585381758 0  0.02294700623998204 0.09732352442970467 0  -0.03608701054372784 0.09325320998664857 0  -0.004378962860588207 0.09989623710161802 0  -0.09996083971717376 0.002502803594889324 0  -0.06206413061480696 0.07839947189761726 0  -0.09846096401522839 -0.01743192668608374 0  -0.03137500099037516 0.09494231309406284 0  -0.09001211148729864 -0.04354599049734909 0  -0.08104223543299338 0.05857123508020273 0  -0.08387184639461902 0.05444214254742855 0  -0.07955080713710683 -0.06058137161398651 0  -0.07136573984096983 -0.07003830865853421 0  0.08176896388740987 -0.05755232443243763 0  0.05703947811121018 -0.0821275315567068 0  0.005628919031185328 -0.09983360543092419 0  -0.04744611920373828 -0.08801874388618458 0  0.06304051537250953 -0.07761653769890464 0  0.09904595722871637 -0.01372340553377282 0  0.09773716492036975 -0.02111587308461434 0  -0.03374157698424503 -0.09412725155561147 0  0.01310329612133867 -0.09912990030033123 0  0.08831394340853488 -0.04689435896172582 0  0.0958774248492999 -0.02838930973207959 0  -0.04070858594406015 -0.0913304140647143 0  0.02050380948024676 -0.09786739650974087 0  0.07223674788273365 -0.06913961063040108 0  0.02332372378720235 0.04661049181400276 0  0.02199817653048248 0.04790936624290281 0  -0.03718119754524792 0.04800932714422559 0  0.07521420769581509 0.04962729406450933 0  0.06367091999354656 0.07103313776875547 0  0.0852298745553251 -0.04942213110206643 0  -0.0192933802667103 0.09286393292858749 0  -0.07310453598529354 0.05914462409423496 0  -0.07570890354502677 -0.03374256478841314 0  -0.07704520510807766 -0.03585851263162524 0  -0.04231250888369969 0.079731024089783 0  0.05149835414643748 0.04159980221698312 0  0.01971014974080815 -0.07447540962434025 0  0.03748197526917247 -0.09145478237935971 0  0.03853228731313332 0.02456181802506066 0  0.08106727881984101 0.01425443199716781 0  0.06944716455282475 0.02262127412988593 0  -0.03449503267847991 0.03792953456524029 0  -0.07553815882118985 -0.03558572515040993 0  -0.07886650607888174 -0.0361887716034066 0  0.08277232797454274 -0.03682101013972575 0  0.09735683450414848 -0.01624122539492477 0  0.05550780121922259 -0.0540701730637036 0  -0.05560645383468298 0.01380480886776041 0  -0.07855446356721368 -0.03786425582926297 0  -0.0797236589875754 -0.04008356646880139 0  -0.05985885802664317 0.02090448189515415 0  0.01895513073167486 -0.03660450011485036 0  -0.04727843618201893 0.04198933953316428 0  -0.07183283537262292 0.01541580134696556 0  -0.0723834547097678 0.01429090765402726 0  </DataArray>
</Points>
<Cells>
<DataArray  type="UInt32"  Name="connectivity"  format="ascii">1153 8010 8871  722 3162 5050  2586 7538 8882  743 4302 5278  2824 5050 10296  1150 5400 6511  2461 4941 8958  5635 7625 10630  1362 4542 10630  2615 4500 9613  1532 3245 7617  288 9316 10397  899 4357 5995  1120 4381 10003  374 7154 9111  2778 6853 8512  697 3496 10758  1829 3873 6207  27 6207 9599  2177 4352 7647  2265 7900 7901  3541 4774 6402  1952 5961 8249  3660 7067 8449  2483 8078 8742  3116 5472 10451  2903 8914 9882  2433 3735 8194  1428 4382 7169  2265 5341 7900  1428 4382 8700  3882 3883 9404  487 4318 6116  1189 4168 8123  1108 3474 6421  1877 6116 9471  2854 6016 10683  2612 8061 9561  962 6114 9146  1397 3217 4296  2930 9146 9611  491 6215 8976  1903 4669 10270  2156 7227 8313  372 4489 4713  2200 4489 6425  2156 5619 7227  809 3891 7891  2430 3459 5374  2919 6388 9269  662 3955 8720  1218 8226 8274  1305 2994 5340  882 3571 6829  781 4931 5377  3477 4754 5800  3191 5810 7627  1985 5931 5932  2811 9795 10720  1097 5186 9695  2238 7511 8326  2307 4809 7339  3017 9292 10255  387 8223 9626  706 3754 7688  1182 3537 6051  1095 5544 5931  2966 7668 8358  2199 9319 10361  3843 7471 7472  2564 6623 7763  885 7013 7014  90 3094 5314  1943 3104 7205  1483 3520 9369  2363 3928 5335  557 3876 9773  557 4783 9773  1943 4035 8081  1741 4726 5858  98 6513 9373  1123 3533 5119  2209 6136 7076  4688 6721 9407  3086 5591 10060  3781 3933 8869  2388 7081 7082  2209 3637 6761  3192 3621 6188  2679 3658 4838  4890 6260 7757  112 5348 10766  2346 3688 4247  2820 5126 5236  1600 9275 10494  843 4598 7509  1549 5275 6380  2048 5372 7298  2679 4838 9465  1655 3746 6813  656 3400 9577  3292 10684 10685  3283 6512 7019  1947 4204 4783  4943 7535 10227  3794 7758 9645  1420 4584 4585  1129 7394 9493  1713 2932 6060  2609 5348 10524  1165 3552 6714  2946 4961 5552  1141 6772 7452  1658 5612 5613  1672 5612 9451  1165 3361 3552  1200 3640 5452  3182 5630 9004  2845 5674 6483  3264 8544 10690  1008 4687 8178  566 7977 9025  558 7706 10101  4591 8877 10544  3680 9541 10282  1295 3964 7801  2810 4745 10118  1726 4236 5242  523 7133 7643  2369 5087 8620  659 4590 9808  5123 7506 8806  813 5475 5647  1524 4811 10551  1029 9837 10121  375 7074 10402  1614 3564 8543  849 4753 8049  1494 5156 10149  2309 4291 7947  1106 7412 7946  1277 4280 8793  763 4817 10556  3333 7729 9408  931 6546 9167  2531 6647 8132  173 9329 9331  701 3157 6891  1043 8004 10550  3159 7464 10546  1614 4392 8543  894 5056 8167  2278 5719 8792  6799 7894 9215  2061 5667 7143  1376 4184 7195  1007 3043 4999  515 7580 7730  1260 4155 5244  1260 6411 8537  1585 3579 5010  1626 4980 4981  1525 3579 7208  1065 7358 10643  1156 5719 8792  779 3483 5822  2240 3762 4832  779 6771 9209  779 5822 9209  2033 6522 7399  1171 4381 5657  1226 3007 9658  3408 6990 9946  1685 4106 9620  2761 7005 9042  1820 5576 6202  1704 5594 10410  1169 3201 9512  784 4100 8357  2241 3762 4832  1344 3194 4273  1186 3396 5418  3395 5366 5988  2851 8930 10279  219 5110 9783  991 4303 5501  3025 5963 6943  2606 5625 9206  1854 3147 6011  2186 3874 4110  2060 4387 7852  3408 10704 10705  1816 6443 6598  879 5555 8210  2862 7444 7466  581 3251 4659  768 5068 5977  2134 3966 4979  1798 4343 6173  2783 5856 6844  1775 4646 8133  1151 6641 7576  3260 4201 9842  577 4005 6876  1038 4718 9901  704 6877 6995  1662 5843 5845  2742 3493 10173  1518 4475 8507  1446 6122 8045  2291 4804 8474  2068 7234 7235  2878 6803 9753  2878 5176 9753  2909 5597 7008  1796 4844 5509  505 2979 5865  2371 6581 6582  2297 5585 10718  5521 8580 10604  1151 3747 9027  2128 5724 5725  1422 5991 9862  1316 4337 6704  749 4954 10221  2389 6398 7696  1812 6337 9220  1150 3188 5400  2869 4649 10001  1864 6238 10160  3062 4125 10087  1415 4397 4398  1865 4128 4399  2481 5228 5664  1816 7857 8033  443 3686 5570  2252 3783 8129  1224 4809 9506  2844 7539 10747  2172 3186 9210  1378 4702 10108  976 4112 6055  962 9146 9147  1418 4878 5874  724 5506 9353  2089 6710 7619  850 4209 6831  1900 4958 6776  870 2963 5800  1386 3102 10568  1152 3984 7697  2121 7496 7739  430 4894 6462  48 4019 5133  1262 4960 10663  2427 6407 8450  2791 4226 10376  3782 7512 7514  718 7098 9443  1171 6495 6911  2190 6750 7438  2170 7863 9765  2853 6902 8511  4800 7261 7480  1279 3873 7719  1532 4266 7617  1959 3418 6646  2636 5562 10526  2877 6337 8758  907 6398 6659  2857 4257 10441  1336 3776 7121  2620 4914 9655  2242 5864 7445  4023 4606 6818  2725 3648 8935  303 6344 10716  1904 6581 6582  422 5090 9374  2977 5605 10610  2291 4314 6392  2343 6857 7337  1286 9180 10602  2907 4137 4630  1753 6158 6159  1227 6299 7466  990 5856 8690  1541 3966 4979  622 5331 7707  228 4059 8805  1611 5675 10629  1682 6480 8691  2241 3318 5408  1186 3396 7428  1715 3307 3483  2321 3109 4565  654 5525 8822  1946 3784 8060  5201 9044 10627  777 6534 6542  2998 5099 6033  329 330 3178  3646 7579 7616  3268 5662 7426  3737 5333 8334  4553 9149 9151  2061 7142 7143  3268 7425 7426  933 6228 8509  2948 5417 9211  2262 8179 9482  2145 3771 10549  6731 7756 9764  335 4330 10068  533 3248 5118  2204 5616 7587  2432 8049 10182  3323 6839 10462  744 5024 7515  3868 6942 9782  3100 7166 10115  2048 4103 7611  3056 5535 10135  1277 4259 6185  1141 7460 9390  2007 4358 7987  1321 3124 7406  2369 3416 5087  1349 5085 9196  4143 7046 10569  1363 4210 8093  795 3184 6481  3182 7460 9390  1270 5013 10100  1342 4264 8199  1105 3193 7712  795 4730 7652  2730 8754 9221  901 6384 9730  903 7057 8741  2639 4973 10474  494 3236 6767  333 5590 8796  666 5213 10344  1135 5528 7404  949 3024 9829  949 6917 9352  1336 3170 4270  1336 3170 7121  921 4972 7056  1358 8202 8693  1585 5010 9172  189 5010 8246  1272 3553 9064  870 4754 5800  728 3444 6791  728 3788 8928  1042 4581 8709  1311 3782 7514  3230 4446 10895  958 6378 8245  2442 4952 7842  499 4700 4701  848 4104 6044  2912 3513 7035  1437 3657 6815  1946 3266 3784  832 3631 5508  3654 6700 6702  3217 4296 8150  3051 6252 9448  1736 3788 10033  3788 6376 8928  672 3855 7633  474 4058 5093  1561 5435 7723  439 4177 6928  5491 7389 10370  144 3576 5257  2203 3738 6662  2191 6239 7439  1739 5054 5055  4850 9304 9305  512 3326 7718  3326 6023 9727  248 3748 6225  3747 4171 8505  996 5963 7352  622 4121 7707  1817 3387 6538  485 3443 4761  2868 4012 5537  1131 5661 6018  616 3869 7764  1513 3332 6939  2084 6954 8017  3955 6266 7646  3028 5764 7148  1079 3270 6478  1940 3912 6907  2544 4920 9503  618 5080 8043  1496 5120 5221  949 3024 7737  1439 5850 9406  3928 5335 8835  1454 5032 5033  313 3769 4940  1266 4160 8987  760 6369 8535  1899 6534 6542  2494 9182 9183  1305 8912 10648  503 4888 7382  1586 4124 5498  1941 5090 9134  1604 4347 8343  2139 3432 8894  3820 6472 9429  939 5998 9786  2322 3702 9786  531 5009 5932  2301 5762 9537  2234 5622 5623  3048 5864 7445  1905 3149 6404  1853 4787 8906  540 4521 8631  2518 5471 7804  1087 3320 5028  955 5708 7755  585 4986 7763  1122 3021 4135  1946 3342 5712  1227 4315 9576  703 6206 6904  1782 5855 6979  592 9159 10031  1223 7139 8185  2043 4460 4822  2072 6857 7337  2382 3849 8740  2566 8070 10599  3439 6212 7525  3965 8202 9105  4224 7195 9366  757 4389 4710  1954 4994 6864  2412 4165 6158  2246 5172 6653  2245 3541 6402  2508 4457 8387  481 5413 9916  3516 5905 8633  1056 4823 10608  2868 5647 6733  2759 6686 9291  655 5923 6030  4330 8944 8945  1148 6900 8755  2933 4581 8709  976 5775 6388  71 3703 4157  950 6203 6950  1805 3859 6105  2804 5601 10539  2234 6955 8890  1277 4572 5155  418 4327 8359  1770 3094 5314  1228 3633 6682  2132 3803 4517  2130 4309 5072  2029 3430 5765  2378 7330 8124  2601 4727 6552  978 4838 9465  3658 8904 10741  1817 3412 6717  3005 5660 8847  3279 5897 6452  3278 3624 8285  361 5386 5414  426 4190 10615  999 5204 8704  3617 7736 7995  1902 3976 6592  1981 7161 8670  3097 6171 9016  1869 3044 5696  1140 8699 10436  1039 3117 7552  679 3406 6005  2133 7470 7933  989 3006 5302  3000 6785 7631  3822 8173 10164  2039 7402 10202  378 3824 4221  1353 4197 4198  2791 6777 9410  3031 4823 10608  1528 5332 6451  2402 3341 8278  1566 4867 10592  2705 8587 9809  2860 4439 9700  2377 7663 7664  4301 5429 6269  665 4384 9761  794 2947 7290  1733 6946 9761  3458 8204 8606  2651 6234 8251  2848 4405 8909  1211 6999 7237  4068 6160 9958  831 4594 6178  827 4632 8769  3719 6253 10062  2952 5269 10063  4460 4822 7304  2551 9563 9564  1366 4145 10169  3151 9096 9338  1917 5599 5600  2159 4163 7819  2296 3196 4430  2504 6970 7166  1229 9795 10720  273 274 7994  3136 5661 9991  1638 4610 10677  2226 4048 4676  1102 4048 4676  2675 6317 6912  2495 8375 10333  2139 3599 9548  1325 4449 5195  1501 3470 9170  3792 4990 8971  1027 6860 10721  2573 6012 8005  655 6008 7065  1882 3301 6485  2408 3926 5399  1217 3671 6357  1132 3418 5286  1589 3676 5516  1255 4027 5839  2874 5277 7264  1239 3494 8384  2502 8299 8896  3298 9707 10432  1193 3711 4617  4887 6428 8453  464 3263 5795  2385 4648 8589  521 5644 8555  1482 5065 9732  1783 4456 6298  3606 5776 9951  677 2997 6480  4646 6028 8133  2926 5894 6125  507 4187 5157  957 5956 9223  832 3210 8558  2973 7269 10399  1640 5744 9549  517 3943 5683  671 5369 5411  1581 5495 8361  6164 7057 8741  473 9821 9907  2857 10360 10857  1422 3344 4875  2106 6501 7168  517 5670 8602  472 6133 7765  477 3143 6087  2706 10138 10675  994 9971 10046  730 3301 6485  3431 5038 6459  1128 7962 8806  764 4363 6708  1382 4591 10544  1608 5211 10058  3313 5413 8623  1391 3281 7079  1573 3838 4472  3270 6478 8207  1938 6762 6763  1937 5850 5851  3443 5284 7085  1619 5282 5283  821 4539 7806  1370 4448 4725  2151 5308 8088  2677 4088 9471  2242 5724 10005  2970 7312 8227  2613 5287 10485  2030 7075 9139  2333 4811 10551  4799 10585 10586  2192 4878 5874  2192 4294 6988  361 4612 10018  2257 3857 8066  1544 3482 4915  964 6066 8333  3296 6012 9438  3269 8004 10550  994 4904 10046  965 7035 10358  404 9006 10132  1061 3559 7279  3627 4712 8255  2360 6081 8158  2026 6705 6726  2170 4814 8125  1569 6526 8027  1831 4378 4454  999 5204 9119  1910 3370 6372  546 6694 8106  842 3595 7882  702 2985 3969  2986 5587 8164  2902 7496 8262  1599 4664 9670  2550 5767 7160  528 5958 7870  4804 5958 7870  2881 5187 7088  2154 3239 5444  507 3398 5157  1666 3304 6867  619 3302 8716  825 3425 7153  1732 4049 6037  4874 5641 9053  2327 4976 8366  1346 3974 5483  2528 5918 7684  598 3894 4907  1228 3027 6400  4031 9531 10339  3212 5551 7941  2547 5869 10071  2035 4764 4765  514 6014 7099  1788 6199 6200  4087 7580 7730  1153 5689 10682  410 3334 7473  1720 3846 5369  1838 6487 10641  1006 3070 9701  2108 7342 10390  3176 4994 5161  734 6899 9875  1375 4675 5907  826 3433 7751  2231 3191 7627  1642 3678 3679  1426 5620 9282  816 4560 5415  2759 6905 9278  1473 3039 4624  1058 4776 9176  892 4686 6084  1513 4466 6939  1545 4258 6121  800 7332 9303  3508 5563 8725  3660 4226 7067  61 6778 6851  2546 6643 10162  2225 3034 5108  393 5259 9588  1951 6472 9429  915 5031 8437  149 4798 5748  850 2886 7619  2089 4945 8225  1355 4486 6509  3023 6344 6345  1523 3248 3588  5714 10460 10463  899 4090 10582  3064 4769 6961  1681 5814 8931  2928 7258 7310  686 5972 9413  536 4274 8318  3252 5491 10370  2796 4738 10393  1825 4590 9808  1337 3546 8674  1990 4874 5641  3319 7709 7710  4996 9646 9648  2699 8189 8191  541 3717 5456  751 4836 6332  2566 8615 10599  2566 5075 8615  2241 3318 6725  2132 3339 6846  1644 5803 8702  2480 3369 6699  3965 8202 8693  1211 5989 10325  4142 8569 8874  2421 3841 4509  1686 3537 5191  2517 5708 10298  955 5708 10298  2452 4110 8153  2135 7797 9903  987 7942 10655  2391 4282 4283  2056 5100 5101  3473 9450 10066  2588 4573 9128  3361 4573 7297  228 4059 4608  2977 6287 9486  2322 4220 6859  2731 3702 6645  163 9855 10812  2378 3603 8216  2783 6844 9576  401 7887 9850  3255 5321 9843  2692 6082 9735  393 3581 4667  4507 4650 9677  1132 3419 6094  459 4748 8051  1556 6586 10364  1996 4177 5820  1903 6673 7749  850 2886 4669  2973 7269 8567  2091 5270 7432  1133 4215 9028  2446 4215 9028  2030 5280 7075  1134 3514 10261  820 4854 5624  398 4853 7732  1726 5397 8996  2557 7547 7548  2015 5328 6523  998 4680 6937  2471 4536 8626  959 5547 10695  1184 3652 3653  1290 3376 7598  1698 3409 5962  570 7199 8629  625 3790 4437  1571 5834 9155  1175 3371 4355  2937 4135 5789  706 3754 4356  405 3462 5907  364 6433 9864  3765 7206 10504  3708 7146 7667  3198 5301 6745  576 4053 8122  1259 4053 6261  2539 8328 8329  2539 5920 7069  1309 8916 8982  688 3669 4400  2627 5346 9544  2779 4513 9629  1168 3702 6645  3378 10276 10277  2500 8531 9688  1227 6844 9576  2450 8301 10454  875 5260 6027  460 4914 5515  1657 4428 6816  1804 4183 6084  2161 4896 9639  3022 6324 9273  1447 4918 10422  2722 6530 9415  1339 3994 5296  437 4082 4552  1036 5561 6110  408 5144 6864  640 3395 5614  880 5219 9754  1552 5187 7088  3574 8717 8718  1153 3727 5893  2155 3394 6872  1900 3745 6776  733 4547 6029  954 4694 8186  2672 5507 6143  1307 4137 6677  4088 6116 9471  3740 6495 6911  1505 3917 5179  1096 4675 7140  2763 5244 10372  596 4155 7477  1837 5428 10274  3127 3914 6957  2354 6384 6478  1373 4907 8484  276 7216 7217  1880 2983 6246  1557 2958 4538  2384 3393 4758  968 4764 6875  3682 9150 9398  2104 5150 5868  1364 8203 9048  3037 8224 10567  937 9363 10560  1396 4179 9039  2394 4344 8415  1003 3014 5293  2373 5060 10489  1886 5721 8884  1887 7539 10747  3186 5827 6258  1857 5156 10278  1857 5156 10149  929 5018 9280  2739 5026 9909  3064 6961 7721  2419 3420 3509  1411 4429 7760  1105 3444 6064  1461 3517 8927  363 4503 8196  2708 5220 10401  3100 5300 6970  5300 6970 9031  1381 3024 6499  1709 4984 6135  1315 3869 5819  762 6942 9782  1403 4193 5148  1749 4324 8672  2754 8044 8045  2894 3914 6957  4002 8099 9488  983 5074 7689  1593 3472 5785  1593 5597 7008  1353 4205 5202  2501 3821 4662  678 4654 8386  474 4046 4337  975 5361 8985  4415 9746 9747  898 5526 5539  1540 3980 8766  816 4560 4705  2685 6285 9299  3555 6465 9007  2162 5475 5647  1637 4997 9106  352 7568 10594  2641 6146 9507  3452 5178 7073  751 4947 6332  1291 5605 6287  1941 5090 9374  1826 6551 6552  1518 4987 8507  2823 8016 10299  418 4272 8359  5377 7000 9124  2986 8163 8164  2788 5732 8430  1642 3678 6330  2586 8882 9696  4569 7012 8882  649 5940 10623  1567 5129 9224  369 5289 6060  1312 4073 4424  861 4780 9219  1521 4781 5349  1130 3568 8541  1600 4585 7864  3885 5177 10508  1275 4174 9553  432 5435 6862  1584 5470 6982  1048 5075 8339  1255 4028 8020  2980 4134 10239  2599 6320 9827  3305 5698 5945  1703 4116 5606  1213 3918 6136  2456 8291 8441  3336 7519 8579  1252 3993 4562  465 5762 9537  2904 4809 7827  4585 7864 10228  648 4890 6260  1250 3818 7841  1675 8230 10418  3290 6826 8688  652 8608 8935  2374 5264 5265  2374 4336 8745  652 3529 8162  3413 7202 7774  5848 9976 9977  1335 7691 9654  1749 3530 6255  2855 5423 10453  482 5254 5922  655 2961 6008  1244 5126 5236  1787 3811 6386  776 5807 5833  1074 3313 4354  3142 5097 7635  910 5228 6419  1409 4590 6518  1638 3229 4363  809 7545 7940  1992 5905 7247  2769 4148 5802  2361 6231 8347  642 5338 10015  382 4232 4579  1135 3448 5122  1947 4783 9773  501 7886 8596  1147 3721 8109  1328 6946 10628  255 3279 5897  471 5481 8435  1719 4571 7878  4405 5290 8909  4107 4726 5858  2552 3005 8847  956 4439 6661  2619 7088 8196  1722 5564 5738  839 4021 4866  3114 4180 7259  1424 4784 5429  4258 6121 9896  2327 5011 5223  500 5678 7735  4655 4656 10749  848 6044 10398  2606 3892 8846  1344 7954 9979  1550 3016 5440  678 4198 4654  2220 4502 6546  679 3406 4627  2484 4323 4324  4323 6101 8452  1672 5612 5613  1568 5213 10343  1627 4378 4454  1594 3568 8541  941 4681 5507  774 6448 9355  1525 4980 4981  1022 5586 7440  1802 4380 7274  1346 3337 4372  1108 5573 9591  692 3883 3986  2098 4782 5472  1236 5832 8870  1865 6020 8405  3853 7792 8346  2130 5072 7958  2572 6948 8603  1221 3829 4813  690 4185 7989  2673 5507 8482  3683 6475 9870  686 3420 3509  1390 3986 5745  2104 4592 5877  2104 4592 5150  1887 5686 10565  3744 4471 9114  6327 6609 9430  696 5173 5229  527 4310 6348  463 3735 5412  2660 4785 6063  2713 4904 6264  1842 6264 7051  3401 4655 10633  3476 6169 6328  3227 10690 10893  1046 6887 8544  394 5470 8003  1927 6891 9360  3241 7615 7903  2738 6976 8380  3684 6434 8809  4946 8808 10523  1158 6858 8744  1987 5892 10257  496 3848 9507  4018 5107 8443  4076 8574 8959  1643 4076 6716  1033 6909 10334  4022 6798 8260  3076 7307 10615  664 6427 9847  2678 9973 9974  1558 4909 7802  4317 5235 8327  2351 4317 8327  1918 3431 4235  4163 6047 7819  1167 6707 9457  1514 5205 6458  446 4004 8932  799 4897 5264  2082 4328 4329  1499 4396 4685  1194 10331 10596  3589 7365 8782  1956 5973 8557  716 3699 7196  1485 5234 9930  1470 8115 9259  2976 5651 8797  718 3135 7098  3875 6820 7205  1623 5742 6490  609 4743 10464  2889 7827 9506  2292 6315 8397  298 5217 8410  6384 6478 8207  1972 4456 5248  835 5073 9088  1241 4070 8396  2883 4071 8586  1763 4610 10677  3884 8647 10492  1129 3198 5301  1910 3370 6931  2833 5233 10651  1575 3795 5615  1087 3246 3937  728 3444 4678  543 8548 8658  2033 3829 5158  1417 4722 5572  2719 4912 7501  210 3342 5712  1866 6242 8933  567 7286 8342  3351 7285 7986  3844 4034 4771  733 4547 7909  848 3887 7936  865 4108 5337  611 5001 9118  3317 7760 9925  1975 4459 10304  2084 3724 8520  526 3498 7006  3435 7048 10572  1533 3518 6837  2843 7659 7660  2835 3864 8785  739 4899 9883  1198 8676 9228  1476 3345 7026  741 3972 5046  425 5045 10625  362 3119 5405  1932 4922 9478  3341 10661 10851  1811 4086 5806  1057 3325 6083  1905 6405 10598  950 6310 6404  158 3609 10817  1595 4751 5105  1056 7375 8682  2854 7806 10683  26 3873 6207  1829 3873 7719  1281 4216 6669  1422 4875 9250  1743 9093 10118  3827 5896 6529  1810 3718 9199  2185 6881 7928  2940 8264 8699  3317 8852 9925  2074 4969 6735  2448 3700 4711  2169 6134 9354  3696 6156 6174  2974 8493 8494  2042 6426 8104  68 4670 9325  3484 9057 9326  1034 5786 6455  325 7400 8549  2879 8629 10051  3655 7418 9539  2068 6248 6803  3505 5752 10731  191 5212 7835  3180 4955 10417  2715 5616 7587  1697 3869 5819  2024 3827 5896  1963 3249 6942  2527 3757 5559  1745 3757 5559  764 4510 4533  1337 4510 4511  2325 5334 9419  2779 4513 8022  636 3691 3818  357 4757 5127  1610 4018 4281  1610 5115 5286  581 4315 8964  435 3130 7873  21 3668 3836  1988 7885 8009  2129 3048 7445  2209 5190 6136  3918 6136 10883  2755 4063 4905  7497 8085 9823  5076 7133 9942  773 6052 7476  4165 8323 8791  1317 4445 10725  2940 7435 7437  753 3952 7357  1176 3651 9555  1176 5866 7176  1732 4498 5103  1625 4707 5608  3307 3483 6706  4311 8767 8768  1578 5262 8734  1254 8372 9211  2637 5553 8976  1502 3445 4931  1867 4501 6359  2491 4792 5572  1013 3102 7420  2115 4800 7480  4458 6936 7951  2119 4087 7730  2144 6767 9772  2707 10142 10143  3198 8848 10686  786 7736 7995  1082 3407 8424  1528 5332 10329  1707 4516 8160  2853 6853 8512  5375 7227 8313  74 5325 9699  1534 5290 8909  94 5291 9662  3051 4635 6252  1669 4146 8510  456 3469 8092  4661 8777 8803  2788 5898 7777  3252 8898 8899  1510 2947 3850  2313 3982 7109  1574 5166 5167  2188 3184 5207  243 3719 8011  2418 6025 10247  797 5844 6880  1365 3753 7518  798 5039 10665  2374 4897 5264  2059 5837 5867  1117 3508 5563  4352 7211 7647  801 7443 7444  3016 5440 10514  2271 5202 6223  2696 5385 8552  2253 4047 7524  804 4286 6757  453 2871 4616  1465 4347 8343  631 4347 5432  806 4716 4925  2215 7023 7229  808 3865 6053  275 4842 6600  2642 3865 6053  2051 6204 8747  2175 7124 10535  2176 7768 7891  774 7238 8015  1275 3177 4566  2876 7417 9728  811 4252 9962  3361 4573 9129  1559 5047 6607  2162 5476 8533  3515 4535 6686  2004 6559 10729  479 5038 6046  1877 3813 5943  283 3812 6093  1942 5620 7059  2659 4560 4705  2368 4854 5624  2283 7859 7894  1041 8205 8504  4492 6006 6625  1455 4578 6879  2595 5378 5836  2041 5624 7396  2041 4706 4707  1368 2925 7408  2214 4724 8572  1522 5258 6333  2394 4820 6221  606 3265 4373  2476 5085 9196  1807 3596 5895  2526 3839 9347  2656 2922 9052  825 5292 6113  2222 3291 3433  4664 5975 9670  1017 6507 9324  852 6101 6504  1003 3013 7623  523 7687 9881  422 3616 9374  468 4349 10658  650 5853 6790  1676 4000 4419  2832 5272 10635  3372 4594 6178  2445 5341 7388  3210 4960 8558  2459 4990 10301  3098 7097 7270  992 9256 10199  4310 6348 8564  2875 9416 10692  835 3910 7556  447 4682 5221  1496 3439 6212  538 7685 8065  971 6519 10019  1867 3181 6958  1867 4690 5267  839 4021 8840  2400 4021 4128  1740 4302 5016  2936 4422 8295  1739 5054 6782  2191 7438 7439  1760 5414 6096  2575 5088 9441  1441 5409 7509  843 3721 5433  1063 4637 9523  2650 6234 8251  372 4489 6425  4375 8165 9184  41 5304 8508  1998 2990 5304  2391 5648 10117  1262 6397 6908  2288 6044 10398  904 5698 5945  1595 4753 9997  450 4346 4453  2762 4209 4669  2348 4109 6718  2744 3638 7630  480 4611 10691  2108 4386 7341  3860 6507 9324  1170 3574 8718  292 4401 5527  1926 4313 6753  854 5950 7002  1330 5419 8791  3396 5418 5419  2153 5834 9155  1172 3790 3791  1649 5691 9917  2210 6694 7881  1953 3175 4390  1003 3989 7623  1550 5164 7409  448 5240 8992  1038 6307 8154  3165 9902 9903  3563 7535 9272  862 3604 6350  1435 4373 9346  747 4528 5654  4085 5655 8469  2587 7112 9289  3026 6947 9853  2454 5716 7767  365 4965 7724  3100 6970 7166  866 6970 9031  2357 6531 7232  2047 4751 4752  0 3328 4461  2259 8149 9448  869 6245 6869  1255 4028 6744  870 6205 7742  2562 3464 5632  871 7427 8155  2535 7043 10115  1425 3635 8037  1719 5890 6948  1377 3113 3936  2590 3634 10729  2450 4577 10717  875 4434 4435  2581 5260 6027  3770 5523 8810  1544 5378 5836  2359 5706 8526  1775 4279 7361  1901 4461 9384  2234 5622 6978  879 5555 5556  2554 7769 9338  3582 5281 8209  469 3239 5444  1552 3828 5040  3148 5255 5948  1332 3571 6829  4115 6971 8234  1557 3726 7336  2861 5503 7455  2622 4857 5751  2861 5503 9536  3214 6652 6923  1909 6652 6923  2985 5587 8943  1995 6741 10356  522 9873 10086  1055 7157 8079  975 4131 8985  628 4835 7419  2049 6659 8073  1865 4021 4128  1323 4427 5629  2522 3676 4525  1256 3888 5239  1499 4183 4686  1592 5539 5543  3403 6638 8336  2787 4015 9936  361 4206 9195  2579 8166 8167  2368 5624 7349  1847 6284 7567  2923 6007 7091  1437 3657 7092  3806 8312 8905  1368 4504 7408  1620 4141 6131  2671 5526 5539  3888 3889 10756  2990 5261 5304  7721 9252 9391  900 5232 5234  900 3494 5215  3912 4487 6907  2657 6384 8207  4340 7072 10739  2665 9939 10017  3904 5335 8835  904 4308 5945  904 4106 7096  2281 3223 5368  390 2850 4993  2249 6635 7289  1335 3109 5070  2129 7100 7726  1738 3344 5092  1592 3132 5541  2670 9845 9846  909 4415 9747  1590 5317 5514  1963 4963 7575  3945 8722 8724  1102 7603 8552  2202 5385 8013  1871 6721 9407  109 6719 10275  4093 7162 10253  1565 3672 6486  2371 8692 8693  2551 7996 7997  2596 7150 9485  1790 5748 7150  1651 5000 8296  2701 4397 4398  2716 3489 3673  734 6899 7203  653 3666 9978  2717 6897 6898  2874 5277 6292  960 4666 9351  1364 5209 8203  2656 5330 9048  3439 7525 7526  1785 6125 10332  2637 4230 6045  2308 4477 9382  2479 4107 4726  500 5225 7735  2604 4321 5169  1352 4321 5169  1701 3968 5927  657 3366 6781  926 5929 8385  5872 8385 10180  3331 6132 6296  1388 4697 9439  3078 4720 7484  483 3331 7070  2194 3838 4472  2194 5590 6490  3090 8146 8147  930 7064 7175  4060 5435 6862  2856 6005 10737  4379 9077 9078  1377 4755 6092  2326 5223 6835  1583 3040 6382  2306 3192 7855  2228 7081 7082  1673 5549 5550  489 4387 7852  3390 9533 10583  3353 4946 6206  707 3043 4022  4999 8259 8260  1462 4000 4419  1657 6816 9462  2732 6787 8464  1620 3553 7248  1187 3833 5876  3202 4233 6536  2206 3202 7325  942 6997 7840  2269 7818 7840  1625 6377 8239  1576 10083 10417  944 4224 5189  1702 3379 6257  5121 5863 7492  2010 5140 6833  4946 8808 10262  355 6434 7533  380 4438 6435  1846 3073 4491  1203 3863 8026  2834 5588 10319  340 6918 9237  2406 6917 6919  1705 4074 6203  2060 3544 6310  951 5882 5942  5942 10887 10896  7085 8861 9340  1817 3742 6471  2146 3443 7085  1724 8316 9983  253 6698 6914  1045 6913 8759  1855 4777 6460  3173 5324 9572  3550 7846 8157  2718 5145 7326  957 2881 5187  3666 7326 9978  958 5722 6865  1419 4211 5924  1419 4536 5924  2850 4666 9011  1791 3223 5368  3571 3686 8402  668 4237 8772  1792 4310 6099  2473 4310 8564  1225 6903 9087  1152 3800 7697  1010 4290 6905  1709 3012 5391  3487 6118 7733  2541 4009 5471  1450 3134 5254  413 3333 8646  2276 4934 6969  1844 4080 8308  2035 4764 6875  3033 7540 8771  2784 9178 9180  1987 6796 7042  1799 4534 9193  2709 4481 10156  1917 4884 5497  492 3694 5842  1000 6201 6283  2540 4320 6231  2142 7064 9540  2470 5159 8218  2109 3622 7407  1357 3622 5313  3354 6974 7347  1357 4119 8925  1305 4112 5340  4294 6410 8340  2160 3542 7001  1737 2917 5951  2679 5138 9466  1888 3825 5138  3752 4927 8670  1974 3871 7174  2404 4288 9003  980 2886 6673  1790 6393 9227  3001 7246 7948  2906 3934 5986  1059 4841 8112  2907 10743 10744  1303 4134 7078  384 8754 9221  984 6337 8758  2896 4709 6560  1248 8225 10113  490 3672 8939  3675 8058 9015  987 6291 7010  2021 4172 9254  1004 2985 8943  382 4232 6599  2015 3809 7286  1127 7285 7986  2978 5669 8878  2626 4303 10467  3141 6947 9853  992 9288 9853  567 3351 7015  5503 7779 9536  698 5809 9972  2713 7501 8786  390 2850 4133  960 4666 9011  2694 3025 5963  1264 3025 6943  4009 5885 7902  359 6118 7805  5065 6597 7423  5250 6937 10219  1993 7134 9858  999 8704 10394  1387 4607 7118  1000 4934 6201  2917 5470 6982  4064 6102 7391  3060 6415 9416  902 3036 4959  1404 4358 4523  1003 3013 5913  2021 4120 4172  502 3440 7003  385 6042 7521  1548 4971 9359  1006 2987 3070  1664 2987 5740  3041 9526 9527  3042 8089 9526  1713 6060 8965  2820 5126 10587  3801 7238 8015  2720 5989 8598  2401 8180 8649  1709 5913 7344  2739 4574 5026  440 4180 5754  2153 5834 7422  2054 7316 7317  2131 3117 7552  2483 8078 8079  1014 3352 6731  554 3997 8757  2553 3807 8208  378 4222 6890  1681 5815 6801  1443 4603 7240  445 4311 8767  1017 5672 9175  654 3951 5947  1018 4324 8672  3408 9947 10704  435 5511 9538  2958 5251 5253  4469 7620 10632  1011 5841 7761  1021 4550 6077  1626 3380 8547  1626 5037 8547  5605 8665 10610  2428 8418 8664  1386 3102 7420  498 5116 5779  1507 3107 6926  613 5255 5948  1493 4103 8783  2685 6285 9855  3157 4850 9304  2327 6835 8366  1207 3718 7495  2960 4657 6422  1341 4271 7681  529 3414 4484  662 3179 6267  1768 3558 6294  2184 5850 5851  2802 8496 10464  304 7303 9320  1308 4407 4822  3123 4268 10679  3082 6909 10334  2998 7400 10377  1034 5099 6033  615 4170 8649  1035 3218 5342  3172 4268 8219  1882 4721 7839  2229 7826 10393  3047 3823 5817  2757 5356 10196  549 4393 10195  1540 5384 8766  625 3548 7266  3945 7495 8722  2145 4095 7692  3704 8205 8504  1564 3615 7063  2521 9287 10582  534 7292 7721  1802 4950 6227  871 7427 9110  670 6866 9572  3550 7532 7846  2113 5680 6913  3279 6915 8525  1046 4545 8643  2078 7499 7505  515 6232 10733  596 3451 4184  808 5021 6496  2811 9793 9795  2139 6052 8894  1089 8815 10465  2538 6493 10546  3159 7463 7464  3202 6584 7325  3532 7448 7449  2960 6175 10387  555 6065 8038  1284 3575 6043  1053 7039 10150  373 5125 8206  1434 8833 9649  1386 4195 7127  2659 4705 9874  3729 6594 7198  2547 4246 8682  1935 6839 10462  1057 5982 7379  4995 5872 9176  383 6727 7590  447 5221 6145  1827 4841 8112  806 4975 9231  1060 7229 7684  3029 4660 10151  2894 4102 9919  2232 4304 5373  376 6651 7309  4412 7831 7832  607 4413 5737  1885 6756 7718  1064 7741 8251  1066 5641 7710  1065 3318 6725  2258 7709 7710  1451 3254 7275  1067 3242 6122  2043 4407 4822  4743 8496 10464  1523 3588 4743  2675 6317 6319  3277 5380 8433  2427 8449 10158  2091 7432 7433  5199 6126 9115  3176 6834 8197  88 4766 10865  1072 9531 10339  783 7481 7483  1073 3295 4395  926 5928 9914  1687 6013 6014  2119 4033 8773  1075 3297 6925  2181 3287 5677  3089 6198 7731  2630 3650 5051  1573 5051 9437  1468 3084 4688  3084 4688 9407  2506 4720 7484  2069 3078 4720  1696 6038 10411  410 7473 7648  1696 4625 7048  1081 4149 10067  437 5267 6958  1561 4060 5435  3551 5295 8676  1083 5295 7034  2163 5634 5974  1084 7202 7774  826 3461 4824  1085 4664 8447  2010 5121 5139  3293 6821 8081  2286 3320 5028  5708 7755 9055  1467 3192 7855  1467 3192 9309  2197 4129 8815  356 5378 7968  1090 5707 6090  1833 4708 10155  2384 4758 8669  353 5253 8668  4994 6864 10603  3177 5614 9636  1093 3286 6082  1947 4062 4204  3170 7121 7798  3112 4569 10128  1095 7511 7827  2238 5688 8086  1505 3917 4225  2812 8712 10405  1883 3488 6836  542 6690 6737  2470 4939 9247  2470 3333 4371  1967 4449 7141  1099 3415 5195  1411 4429 6968  2486 4274 8318  2081 3932 9905  2485 9143 9224  453 7573 7899  1102 7574 7603  1762 6789 10105  2453 8631 9045  2422 3399 8800  548 3193 6236  2208 3193 7712  5236 9683 10588  1106 3501 4291  1106 5156 10278  1586 5100 5101  2302 7917 7918  5133 6421 10527  1002 6415 9416  387 8223 8540  1815 4583 10753  3499 8610 8950  1845 4172 5500  1111 5023 8899  1112 7389 10370  456 3679 8092  697 4785 6063  2239 8041 10579  1114 3186 5827  626 4567 6885  1115 4850 9305  3028 4260 8355  1445 4882 4883  410 4882 8708  2636 3508 8725  3215 5044 8053  1933 5860 6973  2494 3411 4375  845 8165 9184  1120 3066 7340  2245 3862 7041  2699 8191 9863  2748 9990 10105  2345 3867 6343  2001 3280 6794  2158 3994 7717  3280 3357 7725  428 3530 6255  2312 8426 8427  687 3518 6039  2467 7740 9566  2971 8528 10458  1698 3409 3438  2301 7013 7016  2199 6769 7986  2576 5123 8806  1917 5532 5599  3540 5301 9493  1609 5301 6745  1594 3207 7703  429 4584 9275  1131 3391 7534  1728 6018 6019  1959 3418 5286  1834 4570 4748  4023 7618 9029  1133 3048 5864  1134 3514 6883  1362 4543 8310  1761 4204 4783  2110 7667 9481  1136 5004 5035  1536 4700 10109  592 4214 6675  3088 3285 9290  1367 4689 6306  3624 5770 8466  3215 5860 8960  1118 5044 9715  1849 5492 10478  3689 6933 10436  2233 3738 9586  3471 5113 6772  1733 3680 5760  140 4101 5006  689 4325 9876  420 4755 6226  3389 3707 10380  1416 4345 4749  1221 3829 5158  5389 6444 7359  3538 6165 10006  3538 9472 9473  2482 5978 6500  715 5978 6500  534 7721 9252  727 4621 4684  2389 6191 8042  3731 5071 8349  2408 8500 8501  1150 8913 10362  2012 5920 7069  1151 6641 9027  1152 3751 7883  717 3298 3734  294 3294 4457  1360 3294 4457  2147 5163 5305  1934 5861 6230  2430 5619 8889  4209 8280 10268  5667 7143 10391  187 3479 10787  1930 3629 4098  1668 5899 8284  1158 6996 10559  651 4285 4287  1238 3827 7371  454 3718 9199  3403 6616 8336  2190 6129 6130  582 3124 7406  1352 4322 8046  812 6823 8105  1162 3706 9709  1163 6824 6825  4605 7685 8065  1961 3837 6807  971 6519 7662  552 6605 8581  3706 5705 9709  1497 6479 7307  3076 10615 10616  5588 10036 10319  712 3863 6479  3378 6423 9328  2160 3907 7833  896 7488 10335  2179 5505 10570  291 5527 5889  853 8388 9718  3133 3601 5124  285 286 3601  431 4440 7824  1570 6667 7266  721 4455 7919  2385 5645 8362  1784 3754 7688  1784 3755 8337  1175 3370 6372  1876 6634 9926  2026 3840 9555  524 3612 8040  3359 9050 10129  696 5367 9836  2479 6078 6170  1716 3619 8056  1180 3453 9140  2325 5752 8752  3453 6192 7368  2452 8153 8154  1577 5137 9185  1536 4700 4701  3528 5609 6971  1182 4808 10207  1183 3409 3438  1698 5962 10458  2023 3654 6342  2023 6596 10609  1602 4222 10431  2349 5401 8103  1186 5418 9692  1330 4130 8248  1678 5816 6689  1187 3833 8145  611 5001 5474  1950 6804 6806  2054 5972 9528  1189 3698 8436  3641 8775 8776  3641 8775 8789  1612 5479 5771  2386 5771 9897  833 8256 8456  3605 8594 9661  610 3711 6608  1470 4234 8938  715 5978 9593  3589 5796 10597  1195 5796 10597  552 8782 8880  1837 4696 10712  1837 3331 5428  1593 3260 5785  3480 4898 7120  1476 4898 7120  4601 8840 9565  1738 5093 8975  1627 4217 5104  1628 4495 9745  677 3885 5177  3887 7936 10311  3222 5519 7485  415 3221 9611  3363 6002 10404  574 6715 7998  1451 4049 4840  1911 5389 6444  510 7693 9573  2647 6220 9574  1949 7074 9445  1206 3592 4231  1706 6332 10061  1207 7495 8722  1208 6696 9470  3594 6696 9470  1209 6003 7016  2009 7013 7016  1231 4240 10266  1210 3900 7322  314 7239 8862  2079 4139 8679  1538 4966 6025  446 3493 4668  1468 3261 7772  1213 6001 7862  526 4416 7006  3707 8500 10380  2168 7378 9307  1232 3743 3744  1794 4325 5493  831 3846 6178  3691 7571 9312  2334 6312 7572  66 3745 5937  2174 3608 7546  3031 4007 10608  1220 6711 10711  2688 2975 6711  729 6085 9731  2032 5158 10689  2380 8767 8768  827 8659 8794  2086 7138 7139  3272 5575 8185  2889 5544 9014  1997 4455 7919  2122 4888 6366  2075 6903 9094  1629 5710 8403  1226 3614 7045  2500 5856 6844  3999 8531 9688  668 4030 4848  1228 3633 6400  2273 7759 10103  3003 9793 9795  1230 6882 10693  3060 9133 9849  1266 4159 4160  829 4873 5356  1276 6443 9656  695 3663 4532  1233 8788 8802  3992 8788 8802  1538 6025 10247  577 3747 4171  1235 4042 9582  711 4578 5307  1236 3518 6837  3518 5832 6940  716 7190 7316  1237 4065 4066  750 3415 4449  1238 5318 10653  1239 3494 5215  2662 5312 9244  2247 3739 7268  2762 3881 10269  1241 4071 7749  395 2883 4072  4083 4556 8828  1630 3059 5717  1343 7808 8166  1243 7288 10085  1244 3841 7714  3841 4509 9518  495 4080 8308  4080 6446 7167  3366 6554 7155  1246 3968 8235  2251 3843 8130  3686 5570 8402  1968 4109 8257  1248 6718 8257  2989 4490 7520  2162 5475 5476  2269 7841 10518  1250 3818 7572  2682 4113 9887  693 4592 5150  1019 3130 6494  621 4205 8307  1405 4622 4623  1405 4069 9689  432 4032 4039  977 2915 5135  1398 2963 4901  1768 2963 5198  3889 10755 10757  891 6416 8570  2323 7937 10311  1704 3377 5189  1258 6815 7959  1581 3534 4054  3684 4932 7055  2556 7055 8809  4155 5244 7477  329 3178 4154  57 8450 10779  3660 8449 8451  847 7740 9566  470 8559 8568  3104 7595 9878  5963 6943 7352  1265 4111 6107  1607 4111 6107  2136 5522 7780  2469 5098 8986  3592 4231 5900  1267 3452 9445  1268 3970 5750  3802 9263 9264  2862 7443 7444  2166 7871 7872  1270 7705 8415  2394 8415 8638  1271 3562 9141  863 5655 8469  2466 5870 5871  5158 6085 9731  1273 8142 8768  433 4063 4905  1274 4062 4204  1344 5177 10508  2645 7954 9547  2672 5959 9529  1276 4139 8679  1494 3577 5155  2432 4280 8793  1278 4171 8505  2852 5336 9995  1279 3873 4714  907 5387 6191  1280 3927 7100  2031 3110 4954  1281 4215 4216  2670 5538 9768  397 5514 9748  133 6570 9719  3519 5397 8996  3023 6345 6644  532 4408 7151  644 3629 4098  1285 4099 8907  1286 3877 6364  1286 7042 8604  690 3803 4517  2027 4186 8694  2022 5298 6436  2022 5917 6436  2391 5648 6960  2391 4282 8335  735 6381 6701  367 4429 8200  2584 9342 9344  2977 5605 6287  637 4495 10244  637 4495 4927  4001 5416 9966  1553 4176 5416  2082 6406 9310  1872 3373 8195  2350 3316 6027  1295 7063 9606  2270 4295 8306  1356 3822 10164  1297 3335 3897  2122 4124 5759  1109 3225 10171  1298 4339 5263  1599 4277 4906  1840 4362 9333  1300 3142 7636  2201 4370 8462  1301 3915 7758  3367 3610 6465  1615 3610 9007  2682 4002 9888  1471 4305 5074  5160 8029 8445  282 6184 7791  4112 5340 6055  2931 8912 9147  1710 5337 8993  1621 4325 8409  2673 4681 6475  3302 6677 8203  2016 3242 7151  2016 7334 8121  951 10897 10902  1309 7012 9696  3112 4569 7012  2060 4387 8748  1311 4090 9287  1312 4423 5663  637 3752 4833  1313 4331 5042  1523 4743 8496  2545 8651 8652  1723 6032 8651  761 5952 8873  1958 5952 8098  1149 4058 8875  474 4058 8876  1954 3232 4821  5180 7549 10287  723 6355 7108  1758 3128 6856  632 3324 10323  1916 6687 8855  1945 4837 7080  2595 5790 9697  1321 3902 4435  449 9020 10717  1902 3988 5316  207 10095 10644  1677 4427 5629  1677 5629 5854  1324 9655 9686  1324 3290 4403  4271 7681 8269  3820 9605 10121  397 9613 9748  584 3888 3889  1327 5526 9376  462 9255 9844  1328 5006 6946  1328 7110 8881  1329 3490 4416  2408 3314 8502  2412 6158 6159  2674 8248 9693  2703 7880 8117  2564 6623 8997  1332 3571 3686  2650 8251 10305  3764 6097 7504  886 3359 9050  2338 6823 8105  592 4214 4634  1721 3109 4565  1335 4024 7691  743 5278 5925  3062 10087 10844  764 4363 4478  1382 4510 4533  2245 3862 5171  821 4724 8572  923 5660 8847  1742 4750 7913  2320 3953 4440  1340 4440 10670  3196 4430 6308  2296 3196 7658  147 8198 9396  2558 8892 8893  2491 4792 5902  1867 5267 6958  3343 4273 7529  677 3194 5177  3142 7635 7636  1346 3337 3974  1345 4402 10142  1346 4372 7957  1414 4820 6221  5013 10100 10101  2859 4757 10260  1567 5129 7561  3264 6827 10690  2476 4575 9196  1386 3101 4195  4195 7127 9475  2770 6215 8976  976 2921 6055  1319 4667 6920  3581 8046 8434  802 6011 7402  1353 4198 4654  392 3453 6192  765 3874 8601  1355 3817 6509  1948 4486 6509  2039 4295 8485  1356 4295 8485  2641 8925 8926  1915 5634 9008  2899 5797 6533  1358 2900 4732  1359 6512 7019  2776 5005 10345  1360 3467 7999  3467 4482 7999  880 5219 7810  1488 5220 10401  2625 6349 7783  1362 7625 10630  2013 6824 6825  3545 6825 10381  2656 2922 5731  508 2922 4846  2085 3905 6241  380 4762 9569  4187 5157 7253  754 7231 7874  425 3623 6516  1367 3856 5053  1272 4141 8002  1402 3712 4207  1776 6678 8822  1902 3185 6592  1370 3085 5976  1964 3600 6387  1371 3772 8274  3394 5089 8653  1372 3894 7502  2877 6994 8758  1777 6141 6819  4698 9006 10132  2812 5075 10405  595 5238 8973  5216 9830 9940  595 8616 9370  1376 4224 9286  1376 4224 7195  1481 3049 6441  3049 6226 6510  2938 4633 9583  1378 3461 4824  3096 6492 10134  607 3095 6258  1063 3327 6756  4414 8086 9521  1381 6499 9479  1381 4731 5467  4491 9480 9839  3073 4438 6435  6062 9609 10512  2116 3103 7676  1073 4800 7136  4774 8077 8742  1385 2964 8989  3862 5171 8116  3011 6403 8079  1386 3101 7420  478 4292 8347  2540 4292 8347  2275 3774 6043  2275 6043 8172  2230 3525 7966  736 4645 5181  2419 3420 8854  1956 3789 8557  1391 3281 3773  1623 3281 3773  2189 7548 7977  442 5721 10442  4627 4628 8325  1393 3737 9516  1982 4192 7203  1982 4642 9578  3151 7769 9338  1395 4122 10114  814 3692 5599  814 5599 5600  1618 3144 7865  277 3144 4555  940 5999 6247  4901 10480 10723  2858 6262 10654  1857 6262 10654  867 4470 7232  2884 5106 6558  3583 6789 9045  389 6522 6535  791 4207 4508  486 3712 4862  2065 3586 6591  1403 3998 4433  813 5647 6733  1404 3014 5293  2406 6917 9352  343 8134 9758  1406 3983 8984  2532 6235 8984  575 4293 10667  1129 7394 8848  1408 3786 4684  1148 3570 8755  492 4884 5842  947 3431 4235  436 6838 10248  436 3654 6702  1596 4586 4587  1952 4529 8249  488 5622 6978  1412 4418 4420  2080 4468 7384  881 5218 10589  822 4344 8733  2393 6333 8732  916 6498 10726  1865 4399 8405  2334 7571 9312  459 6646 7843  1036 4721 7839  838 4792 5902  2756 9057 9326  69 10188 10872  2471 5924 9992  2471 4536 5924  648 3794 9643  1420 4584 4679  2608 4889 4890  1653 5347 9645  10 3942 9514  672 3052 5987  30 4784 6334  2475 4377 5066  1424 4784 8311  2365 3635 7043  2029 5621 7106  1426 4703 4704  2183 4855 10624  759 4843 4844  3375 5357 10719  1428 3322 7169  1428 3631 4441  966 5210 10879  609 2941 5117  1492 4285 4286  5385 8013 8552  1431 3566 7368  1431 4718 9665  1754 3703 4157  1432 6661 8481  2476 4575 5060  2373 4871 7171  1434 3458 5125  3458 8204 8206  3265 8643 10687  1435 3265 4373  1580 4287 6732  3648 7236 8608  3201 9511 9512  2783 3251 6117  2261 4229 8213  1937 5345 6797  858 3250 6211  1440 4282 4283  2879 7847 8630  1441 4600 4998  1008 5126 10587  1442 4405 9126  2909 5815 10688  1796 4602 7272  2525 9069 9371  902 9830 9940  925 5562 10526  2721 8701 10187  1446 4660 10151  3242 6122 6251  732 4918 10900  1447 4917 9273  3097 6171 9543  1448 3779 4723  768 4254 5977  768 5401 8103  2942 5921 5923  929 5946 9955  760 5903 5904  3254 8593 10700  2911 7223 9358  1452 3696 6174  709 5794 10064  2088 5395 7256  3006 5073 8341  2875 4845 6916  876 7793 9414  2661 7734 7992  2821 5068 6729  1824 6562 6563  1458 3160 4190  843 5879 8979  1136 3018 5004  3018 6526 8027  1459 4991 5079  2696 4991 8551  911 5385 9865  618 6579 10552  2219 6144 9015  2429 5309 8929  830 5151 8287  1676 4000 8470  2065 3531 4029  1463 3372 4594  2816 7673 8220  3164 5161 7429  468 3900 5772  468 3900 8350  1665 5524 6678  1466 8312 8905  5558 10348 10566  2523 4519 9308  1468 4167 7772  107 4167 8440  630 5357 10719  630 3714 10719  727 4621 8607  414 3786 9259  982 5894 6125  619 4305 10743  1472 5145 7326  1632 3666 4756  1563 7670 8180  2300 7644 8868  1474 10243 10722  747 4317 5235  1475 3880 6120  612 3880 6878  2951 4825 7077  1994 4278 7026  692 3883 5298  1477 3420 8854  2631 6764 9267  2287 3778 7904  2893 5027 10652  1479 5131 8354  805 6392 7503  1605 3423 8696  690 4517 5936  1481 3339 6846  4680 9249 10047  2629 5065 9732  3424 3520 9369  719 3424 3520  4473 9965 9973  1484 4374 7497  5231 6229 7314  1485 3711 4617  2191 3797 5736  2646 5233 5615  1703 3305 5698  2571 5890 6948  589 4860 10146  4671 9755 9756  811 4739 7990  1489 4211 5884  1490 7236 7657  3289 4658 7856  1936 6991 10200  3288 6858 9258  3962 6901 10639  1436 2871 6901  2046 4436 6068  1494 3501 5826  1494 3577 5826  1353 4205 9348  1495 5164 7409  2187 7671 7672  2187 4682 5221  3160 4190 7307  3362 9708 10027  2577 3455 4892  2577 4892 9306  2671 5526 9376  1872 4396 4685  353 2958 4538  4758 7972 8669  2231 3191 4479  1501 5102 6728  2457 7532 7846  1502 4177 4931  348 5604 9671  1503 4442 9411  2405 4852 7991  1504 4853 9213  1505 3463 6737  1096 3463 7140  1506 3582 5281  613 5255 7851  1025 3107 6926  1507 4187 10170  754 7231 8273  1508 3148 5484  1086 3257 3428  1784 3257 5957  1041 6006 6625  1970 3767 6780  2604 4421 6550  2203 4421 7610  2218 7729 9408  533 3248 6278  1098 3333 4371  1513 5041 7030  364 5203 6433  1514 5205 9858  1516 3207 4655  1516 4655 4656  699 4868 9071  675 3645 5970  708 4213 10110  1536 7200 10396  1605 5441 5766  631 4347 4348  1519 7978 8162  2215 4925 10484  1520 5311 8365  3904 5335 9145  1521 7535 10227  638 4961 5552  822 4506 5258  1522 5258 5259  1031 10460 10463  1523 3248 6278  118 5463 9271  1524 4811 5463  684 4980 5037  2752 4793 9998  1666 3304 5240  1526 3636 6307  840 4867 9131  1740 5279 6103  4548 7142 9737  787 3059 5718  2706 10138 10139  2010 5121 10079  1069 3276 6399  541 3585 8433  533 5058 8059  1531 3256 5058  3224 4815 8737  3224 8138 8139  2512 9137 9245  430 6362 8994  2250 3913 4262  790 7472 8130  561 3881 10269  1535 3881 5593  499 3456 4700  2846 8479 10109  2952 3719 10062  3909 7467 9551  2888 10455 10456  1740 3057 6103  1740 5278 5279  1024 4948 7163  362 6457 10152  2134 7442 9001  218 7441 8671  1312 4424 5407  429 4127 4423  2000 5652 9745  1628 4495 10244  1544 4044 5836  2197 7969 7970  1545 4939 9247  1545 4258 4939  2156 3695 4447  789 7268 9580  1547 5331 8131  3304 5240 5241  2926 6123 6125  921 5365 6305  3908 5452 9608  2809 5275 6380  1550 4497 9034  2847 4872 10185  1035 3659 6983  1551 3989 4351  881 5040 5617  613 3828 5948  319 320 3168  1553 4176 9724  1554 3906 5461  2345 3867 8076  2232 4334 7879  1555 4304 4895  2376 8775 8776  1925 7000 8776  3996 5639 7816  1557 2959 5780  1453 4474 4858  1558 4267 7802  1559 5047 5627  837 5627 5646  1082 3406 6417  437 3405 8174  679 4627 4628  1561 4060 10736  813 4523 6091  2785 4452 5517  1563 3835 5323  3835 5323 5912  3604 9346 9649  2652 4492 6006  978 5486 7174  1565 3450 5487  2653 3930 3942  2653 3942 9861  1256 3890 7561  1567 5128 8565  740 7146 7667  2111 4825 7077  364 4153 4741  1569 4213 6526  3119 5405 5595  2366 9478 10152  1571 4274 6629  3118 4409 5353  526 5399 7009  737 3490 6154  1077 8538 9435  2630 5051 9437  818 5673 9383  442 4871 9826  727 4123 7295  610 3795 5615  760 4955 6369  2945 7275 10097  2438 4880 8703  1407 3292 10684  199 7031 10813  2240 4832 8908  3154 4745 10118  1743 5152 5756  1492 4285 4287  1492 4287 6732  1581 3998 8361  3998 8361 9186  2220 6862 7678  2221 3481 7392  1001 6102 7391  1583 3465 5554  977 2917 6982  1584 3040 5469  5010 8246 9172  2753 8246 9172  1586 7496 8262  846 5759 8471  771 7861 8290  3261 6001 6300  2693 5453 8296  623 3676 9023  2602 6693 9596  1589 5516 9815  4415 9746 9986  1590 3169 5513  2559 4953 5303  624 3978 5541  1592 5543 5979  1804 3403 6616  1593 4568 6893  1593 4568 7008  379 6169 6328  1594 5329 8316  159 4436 6068  1595 4752 4753  1411 3111 6968  1596 2993 4586  2713 6264 7051  1387 8786 10238  2386 3677 4661  2459 4464 8968  1085 3291 3433  600 5975 8636  2946 5552 10495  1879 4833 4834  3336 7811 7812  1601 3365 5555  1602 4222 6890  3356 4465 8765  2781 10416 10430  646 5557 10416  1605 3208 6949  631 5447 10581  1518 4475 4737  1605 5441 8696  1125 3044 5566  1869 6463 10233  1607 4742 5592  4205 5202 8307  1984 3647 5438  288 289 5438  2352 5426 8611  2966 9492 9493  1150 6511 8913  2347 5581 7276  896 10335 10573  1611 5676 9784  2827 6111 8821  1612 3959 5584  1615 3056 5969  1939 3997 6895  1052 7105 8217  3555 7330 9238  3610 6465 9007  165 3367 3610  1589 6365 7536  2693 5569 5726  1617 5529 8412  2420 3283 5321  1618 5703 6589  807 5020 5022  1774 5283 7757  1724 4342 6183  3553 4462 7248  1620 5715 6131  689 4309 4989  865 5493 8409  1365 4360 4368  1622 5728 5729  1623 3281 5742  5590 6490 10571  2504 7166 10577  746 5372 5682  943 7702 8529  4706 4707 10264  1626 4980 5037  1626 5579 6964  499 5276 10669  1627 4212 4217  2000 3640 5017  4495 5652 9745  2567 4933 10368  1629 5710 5711  565 5717 9061  1630 3059 5718  2343 5363 6857  1430 4735 7337  1632 4756 6378  1632 4426 5638  1868 6620 8920  1633 3341 4499  1635 3931 4230  3931 4230 6045  1478 5829 6280  1635 4489 4713  275 4831 6600  807 5019 5702  1637 4609 8763  1637 4609 4997  3010 4547 6029  1638 4609 4610  1431 4147 9665  1639 3375 5357  603 5993 9043  1640 3049 5744  2084 4645 8520  1642 3469 5181  1191 3678 3679  1642 5181 7698  2746 4076 8574  1758 3128 4356  2723 6675 8661  544 3278 3624  1119 3411 4375  1645 4713 5185  3045 4900 8332  1646 3142 5097  2830 5338 10014  2642 5186 9049  2021 3440 7004  2830 3189 5049  823 5060 10489  1649 5690 5692  711 4578 8592  1650 5039 10595  370 4128 5450  1651 5000 8458  4049 4840 6037  2284 5183 5184  1653 5348 10524  1930 4099 8907  1285 4098 4458  369 5289 6453  6060 8965 10476  3146 5550 8813  5881 9432 9434  2519 5853 9462  650 4418 4419  1658 5770 8466  3893 7773 8514  1061 3559 9392  2275 4350 8171  3697 5482 10600  4909 7802 8685  1034 2997 5786  467 5934 8025  577 3747 5843  2772 4005 8363  1372 6994 8962  496 3848 5768  1664 2987 4779  518 7219 7342  2855 5524 6678  1665 5014 10714  5240 5241 8992  824 3304 6867  3824 4221 10114  378 8378 8417  997 6746 7804  1719 3267 7878  791 4508 6115  2397 5160 8029  1210 3901 7322  2291 4314 8474  5958 9239 10162  1671 3308 6177  681 5613 10021  1138 5612 9451  2905 5915 9678  649 2905 5916  1674 5914 5915  584 4431 9802  1675 5942 10896  3973 10516 10518  3233 5743 7562  1490 7657 7856  4333 6353 7885  3756 7885 8009  1678 3798 5980  660 3553 4462  2632 6181 9789  1679 5848 9977  2632 5847 6181  3560 6635 7690  969 7310 9246  535 6552 7848  322 323 3606  1682 3861 9959  2773 3527 5402  1683 4242 8168  2622 4857 9720  4857 7699 9720  365 4307 5723  904 2962 7096  1686 3664 4851  934 4115 7853  1074 6013 10351  1074 3593 7398  3381 4004 5266  1688 5264 5265  1936 5811 7893  4475 5693 9733  2142 3228 7064  1690 3134 5922  1691 2961 6031  413 3247 4744  1692 6007 7091  2144 4258 6250  3313 5413 9916  1693 5563 8725  493 7318 10317  819 3482 7970  946 6086 9099  3353 4946 10262  3028 4260 9123  4625 7048 9204  5114 7764 10576  1697 5952 8098  2736 10009 10010  360 5277 6292  726 3370 4673  2745 4673 9760  2409 4251 8420  1693 5562 8221  1246 3920 8255  383 6726 6727  1257 4105 4353  1702 4105 4353  2887 4116 10288  4571 5481 8435  1930 3831 5960  1704 3379 5594  2030 3584 5480  3668 7075 9139  2810 10041 10120  1159 8170 10120  1707 4228 6077  914 4732 6058  2900 6057 6058  1551 3989 7623  1709 5391 6135  2686 4965 7129  365 6035 9393  1711 8993 9060  1722 3944 6432  2820 5454 5455  2219 8058 9015  1713 4600 8298  2362 7364 9070  1798 4343 6172  1797 7549 10287  778 2999 3716  2507 4770 9253  953 5284 7085  1724 3476 6328  667 3936 6335  1717 3936 6335  1717 3113 3936  2939 9363 9364  2571 6948 8603  1719 4571 5481  1216 3944 6432  1720 3846 10322  476 4565 8240  1335 4024 7517  2633 5564 9653  1722 6133 6432  2545 4389 8651  4389 6032 8651  1619 4342 5284  5329 8316 9983  2543 4902 9532  1725 5547 10695  2517 4236 5242  2517 4236 7498  590 3727 7999  3467 8388 9718  3136 5604 6018  3761 6935 9585  381 8303 9560  5784 6097 7504  5173 5229 10429  760 4955 5903  509 3404 4498  3404 4498 5103  1898 3404 5103  3680 5760 9541  138 9235 10282  371 5478 9113  2221 4064 7391  3891 7544 7768  1735 5870 5871  1736 5069 10033  2638 5069 9567  394 2917 5470  854 7002 7858  3854 5093 8348  474 4337 10479  2106 5054 6501  1739 4767 6000  840 4499 5016  1740 4302 5278  1741 5857 8315  1741 3086 5857  1742 3152 5678  2268 5992 7736  1745 3835 5912  1745 5912 8244  1744 5756 7720  1745 4817 8244  2527 3757 9257  1896 6089 9257  3269 9233 10550  3974 5483 6657  2573 4638 6373  2923 6282 7567  1748 5645 8362  2383 5644 8555  1749 6210 10513  680 3531 4029  1772 5910 10642  1772 5909 10636  1751 4232 4579  2045 6375 10225  683 4140 7857  1752 5959 6273  2070 3769 7239  3701 9086 9958  1754 3703 4563  1754 4563 5875  2308 6922 8340  4563 5875 6866  945 6088 9504  1756 3143 6087  1591 5540 9996  2691 5665 9524  1759 3427 6311  1643 7631 8097  1086 3426 6358  1759 7256 9313  2057 5978 6351  2482 5978 6351  1529 5121 10079  1529 5121 5863  937 5994 10106  1121 8191 9863  1763 10490 10677  733 3971 7138  38 7512 10765  1764 2990 5261  3494 6418 8384  2147 5305 8675  2311 7163 9908  498 7367 9851  1113 3496 7277  1767 5305 6965  642 6294 7750  1768 2963 6295  735 4586 4587  2441 6381 6701  1770 3536 4237  668 4237 6553  1771 6320 10701  1775 4279 6190  3050 4559 10642  1838 6488 6489  1130 4073 6112  682 5329 9983  1774 3486 5735  1773 5735 6528  1771 5772 6320  1775 3308 7361  4597 5862 9161  731 3784 8060  927 4692 6141  1777 3125 6140  1778 4043 6561  2076 4915 9582  1779 5307 6270  1650 3080 10595  1780 5972 10093  1780 5972 9528  1781 3830 10715  1781 6017 10715  3755 8337 9886  1971 5488 9848  1758 3466 6856  1783 3065 6297  3257 5197 5957  1784 3426 6358  2364 4971 9359  1785 6124 8047  691 5709 6124  2582 3934 8957  1814 2935 4687  1441 4598 4599  1076 8146 9012  784 4100 6934  1012 3072 4663  2054 5972 9413  2298 4263 8198  148 4919 8516  2634 9010 10291  2850 9011 10291  2281 6100 8237  1792 6100 8237  4747 5482 10600  1793 4267 4858  1794 5493 10251  2027 7650 10471  3002 4805 10098  1794 4325 9876  5090 5509 10698  1469 4843 4844  1797 5602 8625  444 5602 6442  2340 4343 6173  2340 8352 8360  1294 4328 4329  714 3956 5082  2360 5082 5807  1799 3627 4712  661 4079 6196  2908 6022 6196  1346 2924 8184  1802 4380 6228  3274 7694 8332  3273 10502 10503  4183 4686 6084  1804 5979 7491  1310 3859 3911  1805 7121 7798  2058 3398 3425  1806 5150 6401  1666 5240 9038  1807 4592 5877  1251 3839 9347  508 9638 9887  1125 6463 9137  1809 4248 8524  1646 5640 10116  910 3808 5640  1811 4086 5982  1057 3325 7379  928 5798 6339  1812 6337 6338  5087 6482 8620  136 5087 6482  842 6095 10004  2482 6500 10365  683 8817 9114  1215 8951 10753  2529 8033 9984  1816 4140 7857  3742 6471 7087  645 3412 6717  2358 6429 9153  1818 6430 6470  2795 10306 10307  1819 3021 6322  4052 5489 8734  3071 5576 6202  3394 6476 6872  864 6476 6872  1822 3922 7886  2416 8596 8597  3110 4954 10751  880 5061 6563  1824 5977 6564  1825 5842 6254  2787 4015 5086  1212 3909 6521  4118 5693 9733  1059 3240 8112  1051 6584 7325  1836 4239 4265  2034 6477 7329  1829 6464 6484  2105 6501 7168  1839 4064 6102  1839 6102 9208  1130 3567 6112  639 4378 4424  1236 3518 5832  51 3116 5466  1833 4708 6052  2138 4020 7475  3419 6094 8300  2700 6498 10726  3355 6004 10890  1835 6004 6438  2213 5351 10722  1836 5235 8327  483 7094 9251  1837 3331 6132  1222 3805 6847  1838 6489 10641  2965 8113 8536  2965 5478 9113  3060 9416 9417  4906 7061 9009  3041 5809 9526  3042 6684 8089  3092 5981 9833  5406 9192 10371  2541 5471 7804  3041 6074 6076  1245 4080 8640  2712 3941 7585  4120 4172 5500  537 8163 9019  798 4360 5390  1846 3073 6435  2574 6284 7567  1847 6282 7567  1848 5182 9206  1848 5625 9206  752 4055 5492  1849 5492 6222  511 5079 8551  1060 7230 10265  4738 7826 10393  2045 5049 10225  2773 4637 9523  1380 8086 9521  489 4387 10903  4787 6956 8906  802 6011 10885  224 4541 7403  2517 4777 5708  1855 4777 5708  4040 8415 8638  1970 5906 6626  2149 6083 7516  744 7381 7515  3237 3287 7829  1047 3238 7616  2634 5367 9836  1859 3503 5784  886 3241 9050  1860 3969 7386  702 3969 6679  1861 5458 6293  2873 7010 9339  2874 6291 6292  1806 3383 10538  1863 3383 6612  1094 4422 10161  4199 4866 8080  1415 4397 9375  370 4128 4399  3614 6242 8933  1866 6256 8751  838 5902 6359  1867 4501 4690  1633 4302 4515  1125 3554 6214  2512 6463 9137  1647 3259 7066  3259 6691 6692  912 4269 9412  2609 4269 9412  891 4329 7557  1872 3373 6416  3940 4856 8816  458 5406 9192  1874 6253 6514  1874 6253 10062  944 4224 9366  1875 7195 9366  786 5137 9185  1876 8611 10157  3712 4207 8275  2593 4318 7305  1367 5053 10505  574 3363 3864  1292 5694 10052  2263 7612 7613  869 4635 6252  1880 3299 6245  426 6304 7062  1881 6709 9002  1882 3301 5821  5821 7224 9026  2642 6053 6054  1883 3948 6590  1117 3366 6554  2038 6628 7212  3214 6754 6755  647 4857 6640  2890 5673 9383  2890 5168 7601  1887 3187 5686  2333 3447 8143  121 3447 10869  1087 3321 6466  548 6236 8371  1890 5705 9709  1890 5705 6606  3450 5487 6722  1891 3450 6722  4854 6985 7895  1892 3644 6799  1893 3940 8816  3082 8816 10334  4226 6779 10376  1894 3046 6778  2673 4681 5507  2536 6289 6290  2024 3827 7371  1896 5896 6529  2760 8008 10122  408 5144 10191  817 9044 10627  2236 4476 7931  777 3923 6542  3442 3923 6542  66 3745 10866  1900 6476 6775  1901 5610 10246  5611 6955 8890  3951 5947 7424  1155 8280 10268  850 4209 4669  306 4460 10213  1904 6581 6583  16 9076 10087  1906 4369 7584  5327 7584 7792  1907 6771 9950  1907 5672 6771  1908 3276 6399  1069 6399 8560  2353 4895 8969  885 5761 7013  4053 6261 8122  355 6434 8809  1204 3442 7399  3067 5146 8593  2897 4008 10112  2844 3315 9557  1913 2993 4586  6700 7249 9122  1914 6381 6617  1914 6381 6614  2534 4829 5918  2621 6138 9685  1319 3099 4434  1319 3099 4665  1128 7506 7715  2256 3692 5599  479 6046 7820  1918 5600 6618  2576 5088 8807  1919 6887 6888  1233 3991 7114  3264 6827 6888  1921 3992 8788  1921 6827 10690  3572 4357 5995  1922 3700 5997  1923 4018 5502  1923 6770 8442  2544 6390 10375  1924 6390 10375  3445 4931 5377  2200 3445 5377  2355 4313 6753  2355 7813 7814  3150 9360 10721  1927 6220 6892  1234 3381 4004  577 4005 8363  2317 4000 8287  2317 5743 6368  2887 3831 5960  1930 4099 7366  2454 6898 7767  2717 6898 7767  2148 5746 8031  2366 3946 4922  1152 3750 7883  1933 6972 6973  1154 3734 9707  2433 3735 5412  2807 10461 10462  1916 4322 6687  2568 5773 8254  2568 8233 9627  2750 5345 6797  2037 3175 4390  2003 2957 4719  2957 4719 5217  2125 5535 9764  2731 5425 7858  901 5521 8530  300 9181 9202  1604 3081 3616  3081 3616 5720  1942 5620 6331  1836 4239 5911  1943 3104 6822  1943 6821 8081  3856 5053 7018  5205 6458 8270  1951 4451 6472  1945 3780 4451  1946 5712 8465  1263 3876 8169  772 3875 7906  1948 6344 6345  3023 6644 7303  2910 5631 10402  1267 4077 9445  2927 6697 8654  1950 2927 6805  1951 6473 6474  3156 6811 10634  4528 6654 8850  2064 4528 5654  858 6211 6314  2750 5345 9898  408 6864 10603  1954 3510 6865  1331 3963 4493  1331 3963 5939  1189 3698 4168  2096 3698 4168  3793 6286 10713  1957 6040 6041  386 5200 5323  1958 2955 5200  459 3418 6646  1214 3932 7845  1960 6511 7122  1960 4018 4281  538 6168 9483  1961 3837 6808  2838 6301 10085  2838 7638 9232  2481 7102 7575  1963 7102 7575  2214 4724 10445  887 4774 6402  2893 3460 5027  3827 5318 10530  750 3460 5027  1479 4126 5153  750 4449 7141  614 3196 6308  2293 4443 6831  3983 4739 7990  2552 6179 6180  665 3183 5166  665 3767 7602  1972 7825 9368  1783 6186 6187  1972 7108 9368  466 5065 7423  1069 3277 5394  2675 4467 8560  3871 5486 7174  1974 4799 10586  1641 3191 5810  1641 5810 9993  1012 3243 7317  1976 7191 7192  1237 4219 8276  551 6396 8914  1183 3409 3410  2023 6594 6596  1458 4190 4191  5004 7299 9425  4483 5331 7707  1980 7682 9190  3775 7161 8670  2695 9577 10220  1982 6279 7204  519 7849 7850  1983 7098 10353  3312 10351 10353  3632 10016 10316  718 3632 5211  980 6710 7743  2404 6194 9003  3378 9328 9329  3158 6945 9405  2828 5892 6521  535 4727 6552  4075 6743 10450  1988 4075 5681  2225 3034 7559  1631 5363 9240  3180 4955 8201  1990 4874 6370  4134 7078 10240  1991 5074 7689  2489 8635 9797  1880 2983 6247  3539 5204 9119  1993 7135 9469  1138 3623 9451  1994 3074 7027  415 3221 3222  1995 6741 9311  439 4045 6928  1996 3068 5506  1501 3098 8286  1997 7097 7270  3587 5354 10482  2056 3587 5354  1999 7278 7279  2297 6636 10718  2932 5289 6060  2000 3640 7478  2001 6794 6795  2001 3906 6795  1116 8355 9402  2002 3270 7183  2003 5050 10296  2590 7063 9606  2590 6559 10729  2344 8182 10656  2055 6389 6439  2006 7292 10272  534 7292 9490  2007 4358 4523  605 4358 7987  2008 5249 7288  2838 6301 6302  3351 6769 7015  3351 6769 7986  2010 5139 5140  2010 10079 10139  2011 5025 7313  2011 7976 10511  244 4967 7967  2012 3446 4674  2013 4210 6545  2336 4210 8093  3141 9288 9853  2587 3141 5091  2015 3809 5328  989 3809 6987  755 4407 8087  4411 7255 7335  1032 6345 6644  2017 6644 7303  1120 3199 4381  1120 3199 7340  2459 6197 8968  3068 5506 9353  1568 5213 7077  2020 2951 4825  988 6517 7004  2021 3440 7003  1809 5917 6436  2022 4250 10439  4007 6596 10609  3031 4007 10609  1238 3492 5392  763 4817 5152  2025 4588 5084  2025 7179 7181  2026 6726 7960  2328 3920 5430  2027 4186 7650  2027 7377 7989  1778 4887 5887  798 4887 10665  2996 7105 7828  2498 5621 8784  2030 5280 6883  3514 5280 6883  1149 3108 4058  2031 3731 6670  1273 3736 4202  2379 3736 8660  1204 3442 3923  2033 5158 6085  2466 4930 9960  2034 4576 7328  3122 6726 6727  968 9535 10735  2036 3837 6519  2036 6807 10605  2037 6313 8571  1531 6211 7587  1101 4896 9336  2038 7210 9017  2039 4541 7403  792 5584 10159  2040 5491 7389  820 4854 7895  2041 4707 7440  447 7254 8416  2277 7997 8104  2043 3766 3958  2043 4407 8087  2044 6240 7215  890 4525 5516  988 6517 10437  2045 3925 4579  1493 4103 4839  2048 5372 7611  1624 5371 7298  2504 6048 6049  2498 4103 8783  2048 6065 6383  396 4075 5681  2049 4525 8006  2074 3984 7697  717 3298 6972  2052 6053 6054  807 5019 5020  1636 5019 5020  2237 5019 5702  1618 5702 7865  599 5703 9489  3243 7190 7316  3243 7316 7317  841 5736 9744  2055 4953 6389  2056 3587 10203  2056 3473 5873  1195 5796 7207  1195 3665 5214  1808 5292 6113  825 7354 8922  2790 4615 5867  2790 5837 6309  1310 4387 8748  2060 3149 7454  2061 5667 7144  2743 10309 10310  2743 5583 6954  1303 4002 7300  2063 4002 7300  4530 6838 8949  2064 4823 6838  1403 4433 8425  2312 3586 6591  2066 7513 7514  899 4357 6259  1427 3814 4843  553 8091 9486  2068 6248 10166  2068 6803 9753  483 7070 7469  1777 6141 9868  1753 6160 9958  2070 3701 7238  2464 5700 7115  2529 5602 6442  4361 6392 8177  2290 6392 8177  1140 8264 8699  3751 7569 7570  963 4769 6961  2448 4969 6735  503 4711 5997  2448 4711 6736  2076 4365 7318  2891 10547 10548  2077 4084 7474  2381 4084 8780  2583 8641 9717  2211 4524 7964  2079 5649 7597  5649 7597 10325  4468 4860 7384  2080 8361 9186  2207 7844 7845  4757 8566 9336  357 4025 6406  2082 4329 7557  1550 4496 4497  622 4496 10089  2084 3725 10711  5583 6954 8017  2127 4360 4368  3753 7518 9091  2086 3844 4034  350 4034 4771  3878 8604 10602  969 3878 9246  2678 5395 7256  2088 6785 7631  2897 4945 10113  4945 8225 10113  2617 3669 4400  1864 4199 6238  562 7269 8567  2367 5404 7432  2281 5368 5763  2092 7111 9256  1200 3640 7478  2093 5452 8829  1219 3655 5246  513 3608 7546  3729 5984 8609  360 3438 5112  1956 4168 8123  2096 7659 7660  2097 5133 6421  2843 5831 8545  2098 4019 4782  1092 5161 7429  2099 7428 7430  2150 5370 7380  2100 5370 7411  1597 4913 7126  478 4607 4911  1001 7391 9423  2562 9110 9207  1181 3763 5830  5376 7200 9378  1015 5868 9774  378 6890 8378  2105 7581 7582  673 4377 5066  1739 6000 6782  2106 5635 7625  366 7583 9775  2465 4695 7583  1018 4323 4324  852 6101 8452  3354 5297 6974  2109 6974 7347  1135 3449 9481  1135 3448 9481  2111 3345 4278  2111 5045 10625  1359 4595 9102  2776 3972 5046  2164 5680 6913  252 6698 6699  1013 3103 4261  409 7284 8550  1058 4995 9176  2115 4554 7483  5116 8790 9999  498 6062 7367  3761 6445 8820  2789 3761 9585  1285 4100 7187  407 4099 7366  3089 7731 10734  784 6934 9584  3008 9120 10668  1198 3551 8676  2121 7494 7738  775 6366 8958  4888 7382 9094  2461 4888 6366  2123 4065 4066  2123 7435 7437  2124 5792 5793  2124 4695 7583  945 6088 7033  2982 7032 7033  2028 4887 5887  493 4042 5888  488 4420 7083  2128 4333 4540  1280 7696 10237  2129 7445 8478  3556 4929 8211  689 3556 4929  2131 3368 5415  2131 3368 7553  4379 7560 9078  1222 3805 4580  3542 7001 8253  1254 7294 9798  3999 4050 6299  1526 3166 6307  2135 7795 7797  1266 4161 7795  358 6028 9632  3155 4094 8304  2137 7606 7607  2815 7028 8304  2138 3834 7476  455 3599 7054  2139 4708 6431  2140 5503 7779  993 5503 7455  2582 5709 6124  2141 7448 7449  2942 5923 6030  2142 4148 8919  1345 4299 7193  785 7634 10143  2144 6767 9109  2707 4485 9772  1973 3585 6318  1040 7694 10502  952 6471 7087  2146 3742 7086  5163 5305 6965  2433 5163 6965  2148 3975 5746  2148 3946 8031  1057 5982 6839  2149 6083 7515  2823 5370 7380  2823 5370 7411  285 3601 5124  2151 6093 7632  2152 4693 7790  3215 4693 9397  3790 4437 9710  1571 4437 6932  2154 3239 7810  2154 7811 7812  591 3772 8653  2155 3394 5089  2156 3695 7226  512 3213 5637  2157 3497 7746  3994 5296 7717  2158 7716 9961  2159 4179 9039  874 4179 7866  580 7001 8253  1737 5950 10054  2709 6628 9017  970 7331 10156  1562 5475 5476  2162 5647 8247  888 5974 9008  352 5634 8728  2164 5680 10631  3893 4790 7773  2165 7465 8261  581 4659 7093  3408 9946 9947  2166 3130 7873  2167 3696 6156  1798 6156 6174  1452 4582 9431  2167 6134 7231  2169 6134 7231  3139 4187 10170  1239 5215 5567  2375 6418 8384  3402 8336 9818  3402 7154 9818  694 4412 8961  694 4412 7832  2173 3145 7680  1099 3414 5195  2335 5551 7941  2174 3212 5551  2095 7418 9539  2872 9953 10349  2176 4028 8020  2176 7768 7892  2177 4151 7649  4151 4417 7649  2508 4401 6067  853 3574 8717  2179 7887 8519  2821 6729 8582  1347 4507 8054  2611 4506 5258  1047 7579 7616  2181 4087 7580  3064 7292 7721  2182 6961 7721  2183 4531 7147  2183 4703 4704  4014 7370 8423  2747 7370 8423  1706 5782 7927  541 3592 5900  2186 4110 6371  392 3453 8503  836 3439 7526  1446 6122 6251  1392 4729 9982  795 8622 8966  1283 3519 5397  795 4730 8966  2559 6239 7439  2191 6750 7438  5736 7025 9744  2191 3797 6750  2192 4294 6410  2308 8072 9382  2193 7922 9222  2193 7921 8226  333 5154 8796  4331 9279 9281  2261 4812 5424  2261 4812 10241  3039 6149 8648  2196 6149 7686  2197 7968 7969  356 9276 9697  590 4482 7999  1116 7148 10236  2199 7014 9319  376 3350 4152  1635 4489 6155  922 5553 9018  2201 7447 8462  4181 5664 10427  2202 5385 6374  803 4735 5364  2604 6550 10252  2233 3738 6662  3220 6539 7530  2204 7530 7586  685 6152 8554  2205 4372 7957  2899 4233 9298  2898 5649 7323  3932 7844 7845  4013 9073 9074  3193 4144 6236  2422 3399 5490  3637 8970 9242  3637 8677 9277  2210 7882 9615  2210 6694 8106  2583 7499 8641  1396 3271 6739  539 5146 5389  1065 3318 7711  4265 5351 10243  5351 10243 10722  2214 6336 10446  487 4088 6116  1519 4925 10484  2215 7229 7230  1436 4717 6938  806 4925 7355  2217 5891 8074  2217 5891 7603  616 5114 7764  2218 3332 7728  2695 5268 9577  986 6486 7364  2221 7392 8431  2704 4647 8432  2704 6863 7393  2704 4117 8431  1085 3433 7752  3462 7868 7869  2223 3823 7753  2223 3047 3823  826 3047 7645  662 4702 8720  2202 5713 10708  2225 4319 7521  2343 4735 7337  453 4616 4734  3919 7861 7862  2532 5591 10618  547 7082 7459  771 3209 3919  1037 6266 9726  2796 4232 6599  6954 8279 10310  2230 5898 7777  5102 7626 8446  2231 5445 5446  443 7907 8129  2703 7165 10042  2558 4264 8893  2558 7327 9586  2128 4333 5725  2234 6978 10540  2235 3648 5753  2519 5853 6790  4364 5530 10428  1103 3206 4364  2237 4831 6600  2237 5702 7865  2238 5688 7511  2238 4412 8961  2360 5807 5833  2239 3612 8040  198 3762 5408  2241 3762 5408  2999 6725 7170  2241 6725 7170  770 4333 5725  868 5724 10005  1145 6444 7359  445 3075 4770  2244 3407 8424  2244 6036 8175  3133 8116 9426  594 9068 9963  2246 6653 9157  2246 5172 6069  2624 4175 9581  1240 8397 9581  628 3235 5585  2534 5918 7684  363 5955 6635  2249 6635 7690  2250 3842 6176  2251 4935 8130  2813 5609 10209  2651 3441 6234  3843 7472 8130  1460 3565 4978  2253 7525 7526  2253 7526 10901  618 5080 10073  2255 3767 6780  818 6780 9383  492 5086 8024  2256 3692 7715  1163 7614 8674  2338 6823 6824  195 7709 10533  3318 6412 7711  2259 4296 8150  2259 6252 9448  2851 5008 10281  226 6578 8930  177 8214 9248  2261 5424 8214  1254 4039 9482  5435 7723 8179  1524 3563 9272  913 4810 5206  2280 4863 8161  2280 4797 4863  2265 5341 7388  2267 8189 8191  2267 5577 8190  359 6118 7733  359 5577 7733  5225 7735 9442  500 7351 9759  636 5129 9143  2269 7507 7841  1353 4197 6503  2270 5202 8307  2271 4742 5592  4197 6503 9456  1279 6349 8140  748 4376 6464  3003 7759 10103  273 3003 7759  1118 5044 6667  752 4055 7789  4350 7897 8171  2275 4698 9006  661 6022 6969  2276 4934 6219  914 6582 7996  1708 6057 6058  2278 5667 8320  1021 4550 7664  2279 6902 8511  3195 7924 7925  2280 4228 8159  2092 3728 9100  2281 3728 5763  2282 8345 8346  839 4866 4886  2453 5201 9044  4521 7859 10591  1652 5183 5184  2284 7859 10591  480 4452 8533  2285 3391 7534  2423 6303 7201  2395 5512 8370  3241 5704 7615  2287 7615 7903  2686 7233 10039  365 6035 7724  2289 4903 9912  805 4903 9781  2290 5837 6309  2790 5837 5867  2291 4361 6392  2291 4804 7870  1240 3732 4045  1240 3732 8397  4618 9241 10891  79 4618 10891  5789 6461 9816  572 6461 6795  2295 8026 8028  3864 5938 8408  3079 4470 7232  2296 4327 5518  1999 6636 10718  2297 3894 7502  2298 4919 6167  915 6167 9840  1860 6679 6976  1333 8379 10009  5208 5707 9040  2527 5707 9040  2301 5761 5762  2301 5761 7013  1107 7915 9882  2303 6241 8895  1146 4256 9778  2304 5558 10566  1686 3528 10208  2813 3528 5609  2876 8849 9618  4115 8849 9618  4242 4806 8168  884 6520 7945  2308 4294 8340  756 4156 7922  150 10222 10815  2309 7246 7948  2959 5767 7594  2643 4469 9834  2311 4261 8941  2116 3103 4261  2510 8865 8866  2312 8425 8427  2313 3982 5574  3053 3471 6772  2314 3982 5257  2315 8454 8455  794 5113 5574  2316 8497 8498  1094 4569 10128  2317 6367 7809  2852 6367 6995  2568 6991 8233  2318 8233 9627  2841 4208 5386  893 8807 9441  1340 3953 4440  2320 4440 7824  4193 5148 8240  2321 4193 7695  170 6929 9825  2732 6787 9825  3886 7937 10311  2323 7936 10311  1394 8232 10040  519 4640 6279  1354 8022 8314  1354 5334 9419  933 5011 5223  685 4380 8554  1584 5470 8003  2327 5223 6835  1701 4928 5929  2328 3968 8235  1454 3306 3910  2329 3809 8342  1454 5033 7778  2331 8539 8540  3006 5302 9530  387 4404 7040  1748 3590 8362  2332 3590 7945  2333 4810 5206  913 4799 10585  2334 7572 9312  2334 6312 9294  809 4026 7123  2872 7940 7942  2336 4210 6545  812 6545 7130  403 9128 9762  403 3285 3979  3705 4238 9449  3275 6168 9483  2841 4208 7963  2319 5457 7962  1632 4426 6378  2340 6173 10880  1548 4972 7228  2359 6305 7221  1101 7592 8566  5128 8565 8750  2343 4735 5364  1631 5363 5364  2005 7137 8830  2344 7137 8830  2001 3280 3867  3280 3867 6343  2346 3688 8181  705 5107 7276  2347 4789 6024  2348 4109 8619  1603 8102 10510  2794 5401 10314  875 4435 7566  3964 7800 7801  710 4239 5911  1188 5961 6217  1609 3540 5301  2352 3661 8612  844 7308 8419  2353 4010 7309  483 3331 9867  2991 5521 8530  3542 5950 10054  2355 5949 6753  866 6048 6050  2356 6308 6830  2357 6048 6049  2357 6049 6531  2358 6470 9414  3770 7793 9414  643 5706 5967  2359 6305 6643  1799 3956 5082  1800 6081 8158  1000 6283 9082  895 4320 6231  1981 5443 7161  490 5443 8939  2363 6164 7057  1374 8740 10599  1005 6212 8493  2364 8493 8494  2988 5371 8495  2988 6065 8038  2366 5494 10660  1540 3980 4948  3728 5763 9100  2367 3779 8517  2368 4854 10483  398 6302 8120  4051 8621 8622  1283 4051 8621  1086 3427 6311  663 5121 5139  308 6580 6581  399 5490 7600  823 4728 5692  2373 4729 9982  2373 4871 9826  704 6995 8745  2374 4897 8744  1765 4785 7176  4814 8125 10337  560 4661 5109  1190 3355 3959  3063 7663 7664  2377 4767 7663  626 4567 9005  2378 5765 8217  1222 3803 6360  2379 3805 8658  2380 3075 3860  2107 3860 6507  737 7474 8780  2381 5504 8490  267 6163 6164  883 5645 7838  883 8007 9121  5253 8667 8668  353 2958 5253  2861 4648 7455  2385 4648 8007  1190 8777 8803  560 3677 4661  780 4788 7722  1438 8021 8213  2228 3621 7459  2388 7081 9357  3731 4136 9534  4058 8875 8876  388 5094 8610  3499 5094 8610  995 6614 6960  569 5648 10117  2392 5292 6015  2922 5731 7178  2611 5258 5259  2581 5596 9386  1270 4040 8415  2394 4344 8733  2516 8996 9025  2395 4203 8368  2396 3997 8757  554 3455 4892  283 6184 7791  2397 5160 8030  249 7020 7021  2398 6641 6849  1756 3143 6088  2399 4932 9099  2400 8840 9565  2400 4021 8840  2300 7642 8868  828 5964 7642  2402 4867 9131  2402 3341 4499  891 6416 7981  2403 3330 8839  2404 7743 8859  980 2883 6040  398 6301 6302  2405 5226 8120  2406 6919 8864  3007 5618 8404  2407 5669 8878  1572 5400 8502  1214 8500 10380  2509 8717 9750  4463 9749 9750  4420 7083 9428  2410 5151 9428  3364 8581 10554  4300 9708 10027  2412 4130 8322  2412 4165 8323  544 7773 8514  2413 3749 8513  2414 7499 7500  3604 8833 9649  2004 6739 6924  3604 8831 8833  2416 4598 4599  3922 8596 8597  1911 4169 10646  2417 8902 8903  2772 6880 7555  446 4004 5266  1477 3882 5580  1100 8852 9925  666 5529 7029  2420 5321 9081  1244 3841 9518  2421 3841 8801  2895 3399 5490  2895 5490 7600  2423 4144 6236  2208 3193 4144  4928 5929 8385  2424 4776 7590  2425 5243 10354  2785 6896 7983  851 5243 10354  2426 5095 10553  1261 7067 8449  1070 5781 10399  2428 5605 8665  1271 3880 6120  3788 6376 8553  2430 8887 8888  2430 3459 8887  3079 4796 7593  2884 4470 7593  1595 4751 4752  849 4752 4753  742 5746 8031  742 3687 8488  971 7662 7963  2434 4612 8271  538 3457 9483  2435 5796 8880  3915 8518 10242  2346 4780 9219  4387 8459 10903  2865 4962 8916  1181 2992 4383  2438 8704 10394  936 3906 8277  2684 5642 8391  2440 6395 8699  2940 6395 7435  2441 7249 8824  2441 6381 6614  1045 6452 7842  2442 7842 8632  2625 8137 8140  1134 8137 8138  3554 5431 6214  1606 3631 5508  2445 3799 8911  2970 8940 9028  3 7333 8227  1680 2881 5955  2774 5954 10378  2448 4969 8356  4969 8356 9460  1681 4620 4727  2449 4620 8867  2159 4179 7866  1295 3615 7063  2847 5285 8991  860 4110 6109  3874 4110 6109  2452 8353 10414  1103 6789 9045  2453 4521 8631  1710 3815 8993  734 3815 9875  2455 4957 9067  1289 4282 8335  1213 3919 7862  2456 4167 8440  2457 5805 7532  439 4045 5804  1598 5445 5446  560 3677 5633  1173 6728 7270  2459 3792 8456  1205 3585 6318  658 8724 10549  2461 6366 8958  2461 4888 9094  1317 3230 10435  2462 4445 8918  2463 5700 7115  855 4165 6158  2071 5700 6448  2464 5700 6448  1222 4580 8795  2379 3805 4580  3553 9063 9064  1620 4141 8002  2022 5917 10439  470 4248 8524  2468 6908 7740  2468 3779 4723  2757 4873 10197  1231 5098 10266  1691 5159 6031  2470 3333 8646  1725 5747 7834  1725 5747 10306  518 4779 7218  2472 4323 8974  962 6114 6347  3221 6114 9146  2474 4201 7245  2475 4377 8083  4545 5085 9302  823 4575 5060  2584 5501 9343  2626 6287 9486  385 7524 8229  385 4978 6042  1716 6078 6170  2479 4726 8860  954 5680 10631  2480 4694 8186  1300 3142 3808  2481 7102 10520  1822 6500 10365  1822 3685 4394  1384 3541 4774  3011 8078 8079  2484 4323 8452  852 6504 6505  766 7844 9073  2485 9073 9074  3258 4879 6992  856 5294 9924  611 3429 9118  856 6749 6805  878 5601 6849  2488 5601 6849  1402 5063 10590  1402 3712 4862  1343 3181 4552  2490 9149 9151  1417 4792 5572  1417 4721 4722  1331 4494 9838  844 4304 7308  845 7953 8165  2040 6111 7125  1478 6280 7904  845 4298 4332  2495 7493 8736  2675 6912 7493  1138 8285 9083  2496 9084 9085  1457 3120 8978  2497 6427 8980  5621 7106 8784  555 6065 6383  1866 4597 8905  556 5499 6256  990 5710 10368  2500 5856 8690  2501 3824 9190  2501 4662 9189  1329 4151 4417  526 3926 5399  1479 5131 7415  2503 5300 9031  450 4346 6049  2504 4346 6049  445 4770 6549  2505 9148 10728  2506 4720 8407  2506 5062 8407  5672 6771 9209  2507 4770 8900  2508 4457 8389  3153 8421 8719  3153 9749 9750  3657 7973 9200  617 4433 5496  1318 3466 4404  3006 5073 9530  2512 6463 10233  1533 3518 6039  2513 7909 9158  1223 4694 5388  3939 6966 9904  3883 5298 9404  2515 3995 9165  412 9164 9291  2880 9917 9964  2395 5512 8368  2517 4777 7498  132 4236 7498  1843 6074 10020  2518 10358 10481  2519 5778 9462  1657 5853 9462  2520 5154 5946  2520 8944 8945  1311 2933 4581  4090 9287 10582  2044 4046 5387  2522 3676 9023  3637 6761 9242  2523 8970 9242  1450 2941 5117  929 5018 7528  2525 4629 9372  2565 5075 8615  2526 3523 7251  448 5895 6408  3061 5208 7643  3061 5208 5707  2528 6655 6656  628 6655 7419  1232 6609 9430  3663 6327 6609  1278 4760 9218  2530 5336 9217  2531 6283 6647  2769 5141 9560  1406 3983 4739  2532 5315 8290  6868 7563 9212  414 3800 7563  1060 7229 7230  2534 4829 7568  2535 3635 7043  2535 7762 10124  1895 6289 6290  602 5330 6289  2537 7696 10237  396 6660 10245  2538 9328 9329  2539 7069 8328  2276 4292 6219  2540 4292 6219  997 4571 6746  2541 4009 7902  843 3721 8595  2542 5879 5880  1247 9362 9532  2543 5747 7834  4920 5568 9503  2544 4920 6390  2763 6541 8364  2343 5363 5364  2546 5365 6305  2547 8469 9054  863 5870 9960  4677 8224 10567  2548 4677 8224  2132 3339 5659  2549 7185 8650  1020 4469 7594  2310 4469 7594  3766 3958 7905  914 4732 6582  1969 6179 6180  424 6179 9723  1601 7047 7811  3365 5555 5556  1602 3365 5556  1602 5556 9337  2599 5098 10266  4873 9401 10197  1259 3684 4932  3684 7055 8809  2189 6615 7977  1392 7547 10294  1342 4263 9004  915 4264 7327  2560 5055 5841  2559 4953 6389  2691 6361 7510  2691 5542 6361  2561 4654 5582  621 9350 10706  6102 9207 9208  1001 2864 4132  2911 8610 8950  1797 3663 8625  1819 6322 10308  1819 6324 6623  2565 5075 8339  2565 8339 8616  1374 8615 10599  269 3849 8070  1437 3201 5499  3201 5499 9511  377 4615 5867  377 4615 5773  2181 3646 7579  2569 6925 7980  873 5012 6921  2570 9454 9647  1719 5481 8990  2571 4996 9646  5481 8990 10167  471 3628 5697  1747 3296 9438  3296 6012 8005  1747 3296 5578  3296 8005 9318  1208 6096 8874  2575 3594 9595  464 6889 9089  2576 5088 9089  4850 8375 10333  701 3157 9304  2733 4556 8828  2578 7050 9232  3123 7794 9934  2579 5056 7451  1522 6333 9386  393 5259 9803  2581 3316 6027  2581 3316 9387  982 5894 10745  1785 6123 6125  814 5600 6618  2078 3692 7505  2477 5237 5501  5237 5501 9343  2585 3165 9901  2585 4718 9665  416 4388 9637  3671 6312 10649  527 3728 7112  2587 3141 9288  3088 4573 7297  2588 4573 9129  1461 4678 6064  2208 7714 9682  1295 8995 9606  2590 5828 6559  250 4461 9706  2591 7021 9095  5270 5404 7432  2592 9100 9101  2593 7241 8885  4504 7241 8885  1108 6421 6622  738 5965 8422  3770 8810 9698  1320 4837 6268  4798 8731 10222  2309 4951 7246  889 5569 5726  5448 5755 9497  2598 7289 9542  1413 4468 4860  468 9476 10658  2599 5098 9827  2600 4159 4160  2600 8133 9633  2601 6551 6552  2601 8188 10300  1616 4920 7479  2602 5297 6693  2603 5448 5755  2597 5755 9497  2203 4421 6550  530 4086 5806  2913 3682 10433  1932 6457 9478  2606 5933 8025  467 3886 7937  1581 4054 7836  1361 4671 9756  1421 4889 4890  2608 4889 9644  1871 3386 4269  4269 5015 6720  1078 3387 6538  912 3386 4269  2611 9677 9803  2676 4507 4650  1272 3384 4930  897 4141 6131  1532 4266 8068  935 5545 9614  2614 4787 6956  2613 6956 8906  2615 5549 5550  2615 7410 9614  1564 3704 8183  2616 8204 8206  2617 4397 9262  3671 9261 9262  2553 3582 8209  5040 5617 10026  2619 4503 4859  2619 7088 9403  2109 6974 8236  2620 3622 9779  2163 3015 6138  2621 9686 9687  2307 4242 4806  2307 4968 10044  1409 3073 4438  1825 4590 6518  3739 7268 9580  2624 3739 9580  2272 6349 7783  2625 8138 8139  3505 5752 10730  991 7542 9544  3507 5346 10447  2779 8022 8314  5516 9814 9815  1324 3290 6826  2629 6597 9264  2294 3970 5750  2630 9435 9436  2768 4041 5465  3778 6764 9267  2631 2919 9269  1679 5849 8947  2632 9787 9788  2633 5070 9652  2633 5564 5738  1730 4182 6394  960 3282 4182  4724 6810 9624  1370 4724 10445  410 3334 4882  2636 4881 8708  922 3445 7890  922 3058 5553  1271 6376 8553  127 5069 9567  2639 4909 9821  1444 5083 5571  2640 5360 5361  2640 8925 8926  2248 3848 6146  3848 6146 9507  451 6692 9049  2642 5186 9695  2140 3810 7273  3810 8114 10632  3468 7263 8303  2908 10327 10328  2324 3887 8018  519 4640 7849  2646 7025 9744  1486 3797 7025  6220 6892 9574  2647 4095 9573  2648 4081 9104  2648 4081 8156  2649 4622 4623  2649 4623 9828  2252 4935 8128  2252 3783 8242  2651 3441 8772  2157 4030 4848  2652 4492 6363  2255 6780 9383  1566 3052 5987  4257 4875 9250  2654 6497 9103  2654 4595 9102  2655 5387 6191  2655 4046 5387  2656 9046 9047  3499 8950 8951  2957 7523 10452  901 5521 6845  2658 8856 8857  1945 3780 7080  522 5976 7147  4561 9832 9872  1766 6063 9933  968 4764 10022  1235 4915 9582  711 5307 6270  3797 5736 7025  2833 5232 5234  1485 3711 6608  2663 3495 9931  1298 3036 4338  2664 5571 9907  4225 5238 8973  2666 5907 9831  2666 5216 9830  1299 3036 4959  1591 5542 9845  624 5464 5540  2668 4431 9802  898 5513 5539  2669 5514 9748  2669 5317 5514  2691 5542 5665  909 5538 9768  2671 5539 5543  2671 4830 9844  1752 5959 6274  941 5507 6273  1895 3683 4681  3683 4681 6475  2674 7280 7955  1186 3395 5366  421 7493 8736  1028 6317 6912  1347 4507 9677  2676 4507 9791  1304 7632 9906  815 5172 6069  1484 4474 7669  1660 4747 5482  3825 5138 9466  122 9466 10796  4106 9620 9970  676 7214 9270  4561 8967 10086  1055 6403 8079  1251 3839 5344  5522 9690 9769  920 9690 9769  358 7782 10034  1695 4626 5352  2684 4626 9714  1026 7106 8784  1026 3430 6285  2454 6899 9875  1394 4642 9578  2116 5116 8790  2687 5116 9999  2550 4223 8872  2688 4664 8447  898 5513 10048  2689 6784 10050  736 6658 9300  2690 3996 5699  1757 6129 6130  1591 5542 5665  2692 3286 6082  1263 7205 9878  2700 8300 9612  1616 4920 5568  2260 6943 7352  2694 5274 8599  2219 3400 5268  2219 5268 6144  4991 5079 8551  2696 5385 9865  2697 10072 10073  911 5385 6374  1243 7050 10085  1022 7349 9570  3644 6798 9863  2699 5245 9657  5000 5453 8296  916 4570 6498  1415 4399 6752  2701 4749 10013  2700 5000 5453  2702 6752 9495  1332 4986 8118  844 7880 8117  432 5435 8179  432 4032 4647  1755 6070 6216  2705 5324 9572  2968 6275 7034  4092 10138 10139  4402 10142 10143  1747 4485 6128  1413 4503 4859  589 4860 7384  970 4328 6213  2709 6213 9421  1483 3293 9674  2710 9674 9675  2711 7934 8265  661 6022 6196  1841 5809 9972  698 3041 5809  1842 5406 10371  994 4904 6264  2714 9914 9915  926 5928 5929  3250 8578 9806  2715 5616 8571  917 5848 6897  2716 10192 10193  1679 5847 6181  2717 5848 6897  1679 5848 9893  2718 7326 9978  478 4292 4607  2719 4911 10037  312 8729 8730  2720 4081 8729  590 4482 8701  2721 4564 10186  3533 5119 8624  811 4211 5884  1644 3893 4790  1644 4214 6675  2724 5598 5914  2724 7311 7961  2725 7908 8934  2725 3648 5753  1084 3015 4011  6734 7908 8934  2727 9923 9986  564 4266 8068  2728 4691 4692  2728 10130 10131  3331 5428 9867  2729 5428 9869  1150 4625 10362  928 6140 7095  2396 5425 7858  2396 3997 5425  2322 4985 5998  2732 4985 5998  2578 4083 4556  1242 4083 8828  1600 4584 4585  1521 4780 5349  3563 4943 7535  2735 4781 9271  2971 5962 10458  2736 4651 8528  360 6292 9679  919 4861 10010  2738 6843 8380  2738 5458 6843  2739 4180 7259  2279 6902 8858  1284 3774 3777  2740 4406 10024  1284 4091 7172  597 4696 10712  713 3830 5812  1826 4475 5693  793 4738 7826  1389 3469 5422  764 4478 9777  2744 4256 9778  1175 9533 10583  2745 9533 9759  4652 8223 8540  2746 4652 8223  4014 7370 7771  2747 5459 8423  3206 9990 10105  5994 10106 10123  573 9133 9849  573 4340 10739  2750 6918 9237  1731 4200 10083  509 4498 6026  2752 8239 8529  943 3667 9173  3667 5212 9171  2753 3667 9173  2187 4682 9191  2754 7671 8044  2755 4063 9822  772 4062 7906  1418 3484 9326  1231 9401 10197  2757 4393 10195  4290 6066 8333  2759 4290 6905  964 2892 4535  3515 6686 9291  2760 6279 10122  2760 5199 9115  203 3071 5576  203 3071 5835  1155 3459 5374  2762 4209 10268  2763 10373 10374  2763 6604 10373  2764 6994 8758  2764 4789 6024  2765 5254 10347  1450 5254 10347  1256 5239 10218  2766 5127 10217  1216 3944 5671  4108 7786 10249  2768 8787 10190  2768 4041 10190  3388 5141 8749  1077 8147 9592  2770 6215 6216  2770 5553 10053  2771 9072 9130  3503 5784 6097  2772 5844 6880  797 4966 6025  1683 4637 8414  2773 4637 9522  2774 5956 9223  2774 5954 5956  1135 5528 8923  2775 8923 10056  1359 5005 10345  2776 10343 10344  2778 5271 9490  1042 4164 6853  4164 4797 9322  2853 4164 6853  579 5274 8599  2779 5274 8639  2780 8281 10340  1770 4237 6553  1603 3535 8382  3535 8382 10430  2782 4593 7953  845 4298 9136  1169 5067 8090  3251 4933 6117  2928 9283 9284  2784 9246 9283  851 5243 7983  1131 7534 10256  2786 6762 9202  2319 4208 7963  1128 7506 8806  2229 5732 7826  2788 8898 8899  2789 6199 6200  2789 3761 8820  2790 6309 6757  1491 4285 4286  2791 5758 9410  2791 4226 7067  1253 4012 7888  2792 5064 10232  1356 3977 5382  1269 8468 10314  2794 10312 10313  400 7177 8626  959 3397 10695  2796 4232 9726  1037 3047 5817  1794 5683 10470  2797 3556 8211  1500 4759 5252  883 7972 8669  1674 2905 5916  2984 6997 7840  2800 6233 8230  2800 10516 10518  2801 4936 4937  2801 6278 10459  2802 4331 5042  2747 5459 6663  523 7687 10038  1089 6277 7037  1278 8505 10539  2804 10540 10541  1224 10044 10385  2805 6773 10386  1935 6839 6840  1029 9605 10121  3196 7658 7914  4271 8269 9837  2808 8269 9837  2808 9429 10205  1200 5452 8829  2809 3746 9847  3020 5783 10041  3020 10041 10120  270 8714 8942  2812 8712 8713  1229 3899 10720  2812 5075 8942  568 5609 10209  2813 4808 10207  1475 3658 4838  1475 3880 6878  2815 4094 8304  2138 3155 4094  810 3232 4821  1317 3230 4446  2817 4494 10420  585 4494 8891  3948 6590 9556  2818 8915 9556  1814 2935 5589  2819 8663 9520  1712 5454 5455  2820 5236 10588  2179 6729 7887  1456 5068 6729  1466 4597 5862  2499 7092 7488  981 7246 9484  4537 8016 10299  4260 8355 9402  1153 3727 8010  1443 4602 7272  2825 6637 7982  1604 4347 5432  2826 5432 6637  2040 6111 7389  2827 10140 10141  3909 6521 10257  5892 6521 10257  1175 4355 10583  1339 3390 10612  5338 5846 10014  2830 5338 10015  2831 4948 8837  601 3368 7553  4324 6209 9295  1463 3372 4631  610 5233 5615  610 6608 10650  1944 3856 7018  1514 5203 10659  1878 6714 6715  2835 5588 10036  1878 6713 9994  1878 3765 7206  1966 5668 9388  2837 5131 9684  2838 7050 9232  2838 7050 10085  4186 8694 9705  4559 5910 10642  1684 5761 5762  647 4857 5751  2969 4612 8271  2969 4612 7662  1768 5198 6744  2983 5999 6247  2843 6837 7659  1236 3116 5472  3315 6237 9557  2844 9558 10747  2845 10282 10283  2845 9541 10282  1136 6526 9234  2846 9234 10110  2451 5285 8991  2847 4872 8131  2848 4405 9126  2848 4828 9663  3409 3410 7113  570 3410 5653  1440 4133 4666  2850 4133 4666  2852 6877 9995  2852 6367 7809  2279 5754 6900  2853 4164 9322  2854 8826 10412  1338 4504 7241  2822 5081 5423  428 5081 5423  1560 3406 6005  931 4501 4690  2857 5991 10360  3930 5991 9862  2858 6558 10082  2884 4470 10043  2082 3303 6406  2859 4896 9639  2860 4439 8481  1432 4795 7149  2798 4648 7455  2861 6003 9537  2862 4050 9001  4050 7442 9001  2863 8334 9516  1393 4803 9516  2864 4132 7704  457 5662 7426  1675 3310 5942  2865 8916 10886  2866 5881 5882  2866 4926 10902  1448 4723 9066  905 5368 5763  2425 4096 5243  2868 5647 8247  2869 6405 10598  3836 4649 10001  1983 7098 9443  2870 4381 10003  1580 3962 6901  4048 7573 7899  502 4715 6543  2872 7940 10350  2873 4715 9953  2872 4715 9953  1861 6291 6292  2874 4158 10655  1002 4652 7296  2875 4845 10693  1489 5193 5884  959 3397 8627  2877 6338 8962  2877 6337 6338  2878 5799 7101  1023 5176 5799  3653 8629 10051  3652 3653 10051  2557 5690 5692  2880 5512 10081  1680 5954 5956  2881 7088 8196  1508 3148 5255  506 2882 5256  2883 6040 6041  395 2883 6041  1399 9455 10043  608 5106 6558  2885 8264 8746  2940 7437 8746  4196 6710 7743  1903 2886 6673  1157 5606 10288  5594 10409 10410  446 5165 10455  2742 3493 4668  1985 5544 6758  4809 7827 9506  2890 10442 10443  442 4871 5721  1622 2892 5729  2891 4365 10317  1622 4368 5730  964 2892 5729  751 4947 5668  751 4836 9866  3029 6579 10552  2894 6957 9920  1104 3399 7201  2895 10153 10154  84 9988 10785  2896 4709 9988  1912 3315 6237  2897 5009 10111  2898 7323 7324  2898 5989 9729  2899 4233 6536  2206 3202 4233  1358 2900 6072  593 6057 6072  3284 5014 10613  2901 7219 10614  2594 3347 5573  3347 5573 6396  2903 7915 9591  1108 3474 7918  2238 4284 8326  2904 5688 7339  1673 3146 5548  1673 2905 4326  406 5175 8148  2906 4630 9871  1307 4137 4630  4305 10743 10744  3468 7263 10328  3468 10327 10328  2601 8188 8931  620 5815 10688  5631 7074 10402  2910 5631 9327  2563 4432 7223  2911 9884 9885  2912 6414 6467  698 6467 10680  3298 3734 9707  2913 9707 10432  1373 4691 4692  2297 6636 8484  1582 4117 6980  641 6382 7392  2133 4032 7294  2916 10054 10055  5950 7814 10425  977 2917 5951  961 3783 8250  961 2918 3783  633 2919 6783  633 6783 9780  1995 6388 9269  415 6104 6741  1634 3931 6045  2919 5775 6388  2392 6015 7178  2392 5731 7178  1692 2961 6008  2923 7567 8152  1346 2924 5427  685 4380 7274  1368 2925 8319  4207 4508 8275  1471 5865 5894  983 2979 9785  1172 3791 8654  2927 6749 6805  2087 7258 7310  239 9283 9284  913 4810 7186  2929 10585 10586  3221 6114 9092  3221 9146 9611  2155 6674 7182  591 5089 8653  1543 3775 6532  979 3775 7161  3195 8709 8710  1042 3195 8709  2934 8963 9341  4241 8963 9341  2935 4687 8663  4687 8663 9520  1539 4422 8295  2936 4422 10161  2937 5789 6461  1122 4135 5789  1870 4908 9174  2938 4908 10107  937 5878 8189  2939 6119 6335  2940 8264 8746  2940 6395 8699  1429 3588 4743  2943 5196 10878  1690 5921 5923  966 2942 5921  966 2942 5210  2943 5210 10879  4466 6939 8680  2944 7363 9673  3319 5641 7710  3067 10699 10700  429 4127 9275  1600 4584 9275  794 2947 5339  1510 2947 5339  2195 7463 7464  780 4812 10241  1395 4121 7682  1495 4518 9640  1665 3284 5014  2950 9509 10714  666 2951 5213  666 2951 7029  2952 5269 9739  796 4816 9551  1783 6186 6297  2953 6597 7423  1268 6597 10047  2937 6461 6795  1958 3659 5200  1315 3573 3868  1577 5136 5137  1515 3617 7995  1938 9730 10452  2003 2957 9807  1500 5251 5253  1020 2958 5251  1557 2959 7336  2959 5767 7160  1614 4392 4567  2960 6422 6855  1691 2942 6030  1692 2961 6952  1685 4106 7096  1306 4309 5072  870 2963 6295  599 3477 9489  286 287 2964  1171 3647 4778  782 6863 7393  4502 6546 9167  2126 6275 7034  576 7032 8753  2120 5520 7394  2967 9228 9229  3551 5295 10676  2968 5295 10676  3837 6808 10320  2969 6519 10320  3328 5025 7313  1730 3557 7173  3557 7173 10075  3210 4960 5781  2972 7269 10399  2973 6397 8567  2973 5781 10663  2141 6145 7450  691 5709 7449  2223 7751 7752  520 3823 7753  289 5438 7390  2976 5211 10058  2067 5799 7101  553 5442 10069  2978 8532 10843  1671 3308 5967  505 2979 5968  2980 4646 6028  2980 4134 10240  1579 4963 7575  454 9199 10212  1756 2982 6850  2399 6086 6850  599 2983 8521  2053 5703 9489  1256 2984 7311  2984 6997 7311  1862 6544 9339  702 6293 6544  1845 6021 6593  2986 5587 8943  1369 2987 9042  2987 7005 9042  1624 4346 5371  2988 5371 7298  1146 3638 7520  2989 9472 9473  1297 3572 4357  1764 5650 6259  1940 5521 8580  2991 5521 10604  3521 8268 10684  1181 2992 3311  1410 4530 8949  1596 3111 5474  2931 7189 10648  2994 9222 10532  2995 4108 10473  4108 7786 10473  1052 2996 4657  1425 2996 4657  1661 5410 5786  677 3885 5410  1682 3861 5099  2998 3861 5099  2212 5389 7359  2999 3716 7605  3000 7631 8097  1758 3000 3796  3001 8731 10222  2596 4798 8731  1143 7397 10098  3002 6510 10507  272 3003 9793  272 273 3003  1923 5581 7276  3004 9220 9221  669 4726 8860  1742 3152 4750  2329 6987 8341  2329 3809 6987  1226 3613 5618  211 6814 7803  3008 3539 10667  3008 4293 10667  2438 4880 8704  364 4741 4880  3010 4547 10491  4210 5029 7036  3011 8550 10568  3102 8550 10568  1003 3012 5293  412 3012 4827  1709 4984 7344  3013 5913 7344  4351 6499 9479  605 3014 4731  2726 4011 7639  3015 4011 7639  1265 4111 8429  1550 3016 9034  3187 5686 10543  86 10542 10543  1979 5004 7299  3018 5004 9425  604 9036 10424  1564 3019 9036  3492 4836 9866  3492 8687 9866  3022 6324 6623  400 3021 6322  1447 3802 8272  3022 6623 7763  3023 7303 9320  3024 6688 9829  1381 3024 6688  3025 7383 9545  2694 3025 8599  3046 6778 6851  3096 6142 9156  1228 3027 4031  516 8490 9123  3028 5504 5764  2894 4102 6579  3029 4102 6579  1284 3774 6043  3030 7039 10367  3031 4823 10248  4823 6838 10248  3033 7017 9501  514 7261 7480  1383 4764 4765  783 3103 7676  921 3034 7056  1989 4972 7056  1433 4871 7171  1054 6525 9704  1298 3036 5263  902 3036 5263  2549 7185 9077  3037 8224 8367  1694 4290 6066  1694 4365 5560  523 7133 10038  3039 6149 9881  1583 3481 6316  933 5554 6228  1843 6074 6076  698 3041 6074  3042 9526 9527  3042 6684 6685  1893 6684 6685  707 4852 7991  692 5298 6436  692 6436 8584  3045 6325 10030  354 3337 4372  1894 6779 10376  1894 3046 3437  1037 7646 10748  1037 6266 7646  1281 4023 7618  563 3048 4216  1481 3049 6510  420 6226 6510  1287 8694 9705  3050 4559 10640  3051 10590 10593  1402 4207 5063  1527 3052 5326  672 3855 4527  1141 7460 10102  3053 10100 10101  1342 4264 8893  3054 10101 10102  1613 5679 8390  1613 4392 4567  168 5534 5535  2125 6787 8464  1527 5327 7584  840 4867 5326  3058 5553 10053  1044 8157 10053  787 3059 8175  3059 6036 8175  3060 6415 9133  3060 4362 9849  3061 7133 9942  2803 5076 7133  1336 4125 7181  1336 3062 4125  673 3063 7663  673 3063 5066  3064 7292 10272  2006 7291 7293  998 3065 6297  1695 4626 5250  3066 4800 7261  3066 4800 7136  5146 7358 10643  539 5146 8593  724 3197 9353  781 5377 7000  779 3069 7301  1006 6202 8288  2987 3070 4779  3070 9701 9950  3071 6202 8288  1006 2987 7005  1789 3816 6413  536 5834 7422  1409 3073 6182  947 3073 6182  1367 3856 4316  1367 4316 10216  3075 4770 8900  3075 3860 9324  2411 6707 9811  3077 6707 9457  426 6304 9610  1194 3077 5350  2730 4149 5798  1081 7048 9204  3079 4470 7593  1400 4796 7593  5039 10595 10665  479 5038 6459  3081 6565 9400  829 5720 6565  2405 6909 7991  3082 6909 7991  2486 3258 4879  2486 4274 8317  3085 8967 10086  4561 8967 9832  1587 5591 10618  1587 3086 5823  3087 8940 10511  1133 8743 8940  1334 3285 4988  3285 4988 9290  3360 8146 8147  1076 8302 8749  1077 6649 9435  1077 6649 9592  1430 3091 4734  804 6309 7338  1873 5981 6110  3092 9192 10371  1393 3093 4803  88 4766 6142  4031 9531 10234  3027 4031 10234  3096 6139 10134  1072 6492 10134  2467 6908 7740  847 3097 4276  1501 5102 7626  1501 3098 6728  582 7080 8857  3099 4434 10090  3100 7489 10115  1267 5300 7489  3101 5096 8686  601 3101 8686  1013 3102 5057  1013 3103 5057  783 7481 9587  4554 7481 7483  262 3104 8238  3105 8450 10779  1507 3106 10578  507 3383 6612  1506 5617 10026  1025 3807 8208  2031 3731 4136  3108 4136 9534  3109 5070 5411  1721 3109 5411  1823 6568 10751  4606 6568 10751  2487 5001 9447  1411 3111 5001  3329 8498 8556  3329 8497 8498  1640 3113 4736  4755 6092 6226  788 4228 8159  788 3114 4228  920 5531 9769  3115 6867 7780  4782 5472 10451  1340 4409 5353  3953 7823 10330  1340 3790 5353  1039 3118 4409  1039 3118 5595  1039 3119 5595  1458 3120 4297  664 3120 4297  3676 4525 5516  1323 4428 6759  2026 6705 9555  3122 6705 10735  3123 4268 8219  1873 3172 4268  582 3124 4837  3124 5523 8810  3125 6140 7095  2069 3125 7095  3126 9360 9817  3273 6151 7693  1850 6631 8499  3127 3914 10384  3128 5488 9848  3128 5488 8576  2166 3130 6494  801 3626 7871  1019 3130 4562  435 3130 3993  1252 3662 4562  3130 3993 4562  1160 6616 8336  1160 3132 3978  1385 3133 3601  5171 8116 9426  1450 3134 6848  966 5921 6848  1170 3574 4522  2509 8717 8718  2426 5095 5661  5095 5661 9991  1493 3137 4514  1850 4243 4835  511 5891 8074  2168 4145 8845  3139 6886 7874  1786 4841 5175  3140 5175 7252  1821 6573 6947  864 3141 6573  1646 3478 5640  3808 5640 10116  1509 5139 5140  1509 3143 5197  3144 4555 5398  1618 3144 5398  614 3145 5149  1325 3145 5149  1656 3146 5883  3146 5548 5883  996 7352 10280  1607 5462 6107  957 2882 5484  957 3148 5484  745 3149 7454  1905 4588 5084  1926 6860 6861  3150 6860 10721  2554 6890 8378  1863 3383 6613  3152 4750 9132  3619 8056 9132  925 4881 9385  3153 6108 8421  1579 3154 4745  3868 7720 9782  3155 6811 10634  2137 3156 6811  1951 4451 6473  529 3156 6474  1028 3157 6892  1028 6892 9574  3158 5417 6524  3159 9332 10546  3159 7463 10830  1497 5938 6479  1458 4297 4864  162 3137 3161  2824 5050 10297  3162 5050 10297  2198 5764 7148  590 3163 7911  1464 3164 5003  588 3164 5003  2585 4718 9901  549 5355 9666  824 5603 7796  2451 5241 8992  3167 6293 6544  3167 6544 9339  2674 5418 9692  319 3168 7280  1590 3169 5464  624 3169 5464  1868 4270 7985  1336 4270 7985  3092 5971 10088  730 3171 5971  1417 4721 5561  587 3172 4335  3703 4563 4795  4439 6661 8481  220 7421 9813  3174 9946 9947  3175 5345 9898  1953 3175 9898  1897 5199 6126  408 6834 10191  640 3177 5614  2099 3395 5614  1391 3178 6411  3524 6411 8537  1870 6691 6692  1030 3259 6691  192 8463 10336  1343 3181 6161  838 3181 6161  144 3576 7641  3576 7452 9390  3183 5166 5167  1142 3183 5167  1813 5674 6481  1142 5760 9541  1369 3976 6592  205 3185 4865  2172 4413 9210  1114 5684 7830  3187 5306 9380  1114 5684 9380  737 3188 6154  1572 3490 6154  1648 5839 5840  3440 6517 7004  4214 4634 8600  1334 4988 5803  1091 3191 4479  1641 3996 5639  3192 7022 9309  1088 3192 7022  1889 6791 6793  548 6792 7637  1293 4001 5416  677 3847 6480  2264 7924 7925  3195 8710 8711  614 3196 7914  1341 7658 7914  2019 6450 7346  1556 3197 6586  1129 5301 9493  3292 4245 8848  3199 6911 9068  594 3541 5194  241 3200 9179  1169 3201 5505  1437 3201 5505  593 3240 6585  593 3202 6585  1068 6073 7727  3248 5118 6468  1713 3204 7787  979 4992 7787  2452 6371 8353  392 6371 8353  603 4736 9550  3206 4364 7622  1130 3567 8541  1517 3933 10293  1518 4987 10580  1518 3208 5447  2228 3621 5628  1088 3192 3621  3210 5341 7900  1070 5781 7900  3211 7060 8480  3500 8951 9669  1219 3212 5246  2094 3655 5246  2157 6682 7746  1062 4895 8969  1885 6754 6755  1062 3214 6754  4693 7790 9397  3215 5044 9715  1449 3336 7812  2821 5068 5977  277 278 4555  278 279 3217  615 4984 7344  3218 8180 8649  1958 3659 6983  1958 5952 8873  3219 7530 7586  484 3220 6539  1859 5519 8487  1177 5519 7485  1202 7504 9072  3222 8119 9116  696 5367 6098  1791 4993 9010  1134 3584 8737  2625 8137 8138  1660 5319 6967  1298 3225 5320  3226 6152 10503  1803 6152 10503  1349 3227 4391  3265 4545 8643  3228 7064 7175  2768 5465 7175  452 5029 10492  3545 10381 10382  3230 7673 10435  810 7549 7673  1059 3231 6056  3231 5381 6056  1714 3232 5722  810 5180 7549  417 6368 7656  1676 5743 8470  2910 4947 9327  3234 4947 9327  1850 6356 6631  1850 6420 7748  1692 3236 6952  3236 6767 9109  1047 7579 7829  3237 4155 10214  1391 3524 6411  720 5051 5666  3239 7220 9770  1488 3239 7220  1708 5381 6056  2900 6057 6072  3241 5704 8379  1333 9050 10129  2016 4408 7151  1067 7255 7335  1849 3434 6515  3434 6515 8395  726 3244 6931  726 3370 6931  2613 5287 5545  1532 4815 5287  3937 6189 7578  129 7369 7578  1429 4744 6073  1068 3248 3588  1512 5118 6468  1068 3248 6468  1513 4466 6244  1513 3249 7030  1439 4936 4937  858 3175 5345  1169 5505 10570  3251 4659 8090  3252 5023 8645  5023 6593 8645  401 3253 8515  1361 3597 8515  539 3254 5852  1451 3254 5852  3283 5321 9843  259 260 3255  761 7586 8873  1512 4056 5114  1509 3257 5197  663 3428 10519  1789 6249 6910  3258 6340 6992  1647 5338 5846  1030 5846 10014  234 7244 7245  2456 4167 7772  645 3385 6391  1660 5482 6967  1643 3262 8959  1919 5088 6889  3264 6887 8544  3264 6887 6888  700 6827 6888  1349 4545 5085  606 5085 9302  3266 3784 8069  208 4977 10326  3487 9363 9364  667 6119 6335  2102 7425 7426  3268 9233 10550  3269 6657 8231  674 6012 9438  2002 5062 7184  3270 7183 8377  3938 9717 10894  862 3271 3938  251 5985 6281  2145 3274 7694  510 6151 7693  1646 4900 10080  2145 3274 10549  1559 3275 5627  837 3275 5627  1069 3276 5394  629 3452 5178  3585 5380 8433  1973 3585 5380  2164 4790 7773  2164 6913 8759  254 3279 6915  254 255 3279  3357 6530 9415  586 3280 3357  331 3281 8760  1730 3557 4182  1126 7943 10457  1359 4595 6512  258 259 3283  1664 5739 10613  654 3976 5739  1334 4214 8600  1334 3285 3979  1093 3255 5321  1093 3286 3512  3287 5677 9065  3237 3287 10214  2318 6858 8324  3288 7856 10559  1929 6996 7656  417 5743 6368  1323 3290 8688  890 6826 8688  1599 4277 7089  405 3291 4277  1181 3521 8268  1407 8268 10684  263 3293 6821  263 264 3293  294 295 3294  1360 3294 5893  3295 4775 8383  2114 5057 7284  2574 5578 9318  3296 5578 9318  2118 4033 7487  407 3297 7486  3298 6972 6973  3298 6973 10432  599 2983 6246  4555 5398 9771  3416 8475 9463  1597 4911 10037  1830 3301 6409  2063 4846 5209  1364 4846 5209  1348 10755 10756  891 7557 9494  1526 3304 5603  824 3304 5603  471 3305 5043  1487 3305 5043  2140 3306 8114  504 4845 6916  1715 3483 5822  778 5230 10728  983 2979 6177  1775 3308 9957  455 3309 6431  3309 4708 6431  1656 5881 5882  649 5548 5883  3008 3539 9119  3008 9119 9120  3312 6013 6014  3312 6014 7099  2714 7398 9916  2714 3593 7398  767 3314 7122  3314 6511 7122  2897 3315 5009  985 6560 10112  1295 3316 3615  3316 3615 10424  3317 8852 8853  367 4429 8853  197 3318 8588  3319 5641 9053  1889 6466 6792  1889 3321 6466  2638 5069 10033  1087 3937 7784  1057 3323 6083  3325 6083 7515  3324 6839 6840  632 3324 6840  3325 7379 7381  3325 7381 7515  1852 3527 5402  1852 5402 6023  1885 3327 6756  3214 6923 7875  1901 3328 4461  1539 5278 5279  1094 3329 10128  3330 10755 10757  3889 10755 10756  3331 6296 7070  1196 6132 6296  2218 7727 9408  616 3332 7728  3247 7727 9408  1098 3333 7729  3334 4882 4883  1080 3334 4883  846 5354 7281  846 3335 3897  1603 4289 10510  4289 7519 8579  354 5097 7635  354 3337 4921  1137 3338 9763  3338 4312 9763  1481 3339 6441  932 7185 8650  426 4190 4191  1457 5433 8109  1633 3858 10661  3007 6814 9658  3342 6814 9658  3194 4273 7529  640 3343 4273  1422 3344 7090  1738 3344 7633  740 7243 7667  3708 7146 10477  3346 7887 9850  3597 4054 7629  1977 7104 7197  551 3347 7104  2730 4149 8754  3348 4149 8754  1955 6681 7117  732 7116 10900  3350 6681 7117  1127 3350 6681  2015 3351 7285  3809 7286 8342  1014 3055 6137  1014 3352 6137  1782 3723 7416  703 4946 6206  1616 5569 6693  975 5568 9503  3355 3959 10159  3959 5584 10159  1667 4465 5733  4465 5733 8765  2722 8477 9962  586 3357 6530  633 6280 9267  1635 3931 9780  886 3359 9130  3359 9072 9130  3388 5141 9560  2769 5141 9559  3552 6354 7998  2411 4300 10554  3361 3552 6354  3361 6354 9129  1203 3864 5938  3363 3864 8408  1890 3364 6605  1166 6354 9129  1601 3365 7047  646 3365 7047  1884 3921 7155  1884 6554 7155  165 3367 10839  1350 9832 9872  601 3101 4195  2113 3369 6914  3370 4673 9051  2745 4673 9051  1910 6434 7533  936 3906 6157  2065 4631 8666  476 4631 8666  1872 4685 8195  3956 4534 9225  1084 4011 7908  3413 7774 10509  3081 5720 6565  1639 5356 10196  2022 4942 10493  3376 7766 9630  407 3297 6577  407 3377 6577  4220 6859 10276  3378 9329 10277  1702 4105 6257  944 3892 8846  2578 6668 10694  565 5579 6668  2852 6877 6995  704 3381 5358  1271 3562 6120  1806 5150 5868  1366 5157 7253  3384 8061 9561  368 3384 8061  1468 6391 9980  1078 4688 6721  6059 8770 9738  1078 3387 6059  3387 6059 9738  2610 8770 9738  2644 7263 8303  3388 8302 8749  767 4281 5115  1959 3389 3707  3390 7351 10612  3390 7351 9759  1728 5604 6018  725 3391 6019  423 9683 10588  3675 10271 10709  1641 3393 6557  1091 3393 6557  3394 6476 6775  1371 3394 6775  1553 5366 5988  640 3395 5988  3396 7428 7430  588 3396 7430  1725 5546 5547  2471 3397 8627  507 3398 7446  2058 3398 8289  3399 6303 8800  3399 6303 7201  656 3400 10555  4600 4998 9667  3207 4655 10633  379 3401 4655  3402 7154 9111  374 3797 6750  6638 8336 9818  892 3403 6638  1652 5183 6556  4707 5608 10264  1560 4690 5267  1560 3406 6417  1393 3737 4627  1082 3737 5333  1528 5333 8334  4548 8107 9879  1019 6990 10705  3408 6990 10705  1126 7113 9668  3410 5653 7113  1978 6594 7198  3653 7199 8629  1860 3969 6679  461 3411 6680  1587 3412 5823  645 3261 6300  352 3413 8728  2163 5634 8728  2137 3432 7607  529 3414 7606  3415 7052 7053  1099 3415 7053  135 3416 9464  1132 3417 6963  1132 3419 6963  1834 6094 8300  1834 4748 8051  3419 8399 9612  559 4920 6390  1390 3987 7939  1477 3986 5745  1400 3421 6208  2047 3421 10752  1252 3993 4768  3356 4768 10359  1480 4903 9912  1605 4791 6949  2710 5311 8365  719 3520 4474  2390 5901 7153  1366 5901 7153  1086 3426 6311  1784 3426 7688  2370 8491 8492  433 4063 6953  2370 4061 8491  1086 3428 8492  3429 5961 8249  1188 3429 5961  1302 8124 9299  3430 8124 9299  947 3431 9480  947 3073 4491  2137 6811 7608  2139 3432 9548  826 3461 7867  3433 7751 7752  1849 3434 6193  391 3434 6193  1696 3435 5034  3435 5034 8406  1218 6951 9057  1371 3436 8274  2092 3728 7112  834 3437 7194  2095 5132 8697  1183 3438 5132  836 3439 5120  1496 3439 5120  1648 3440 6517  502 4715 5838  3536 4237 7541  961 4405 5290  3442 6522 7399  3442 6522 6535  3742 7086 10898  1619 3443 4761  3444 6791 6793  1105 3444 6793  922 3445 7910  1502 3445 7910  797 5844 7068  5269 9681 10063  1888 3447 3825  1529 5122 6894  402 4092 10138  1135 3449 7404  1617 5528 8412  986 5268 6144  3672 6486 7364  1314 7477 10372  5244 7477 10372  3452 7762 10124  629 3452 7762  2325 3453 8503  1180 5752 10731  1835 5185 6004  372 4713 5185  1613 4567 6885  554 3455 5679  3456 4700 8479  4700 8479 10109  3457 4238 9449  812 3705 8105  1434 3458 8606  1054 8204 8606  3459 9241 10891  1965 3599 7054  750 3415 7052  1096 3461 7869  1096 3462 7869  2222 7868 7869  405 3462 7868  1096 3461 4964  1096 3463 4964  371 4722 5572  1830 3301 5821  1583 3465 6566  457 3465 6566  3466 6355 9792  3466 6355 6856  2508 8387 8388  1360 4457 8387  381 3468 8303  1729 5288 6201  456 3525 7966  456 3469 5422  1501 3470 8286  3470 7971 8555  2315 8108 8455  794 3471 8108  2068 3611 7235  1197 3472 7234  2903 7915 9882  2056 3473 10065  3474 10527 10875  1647 3475 7066  451 3475 7066  1716 3476 6169  953 7085 8861  599 3477 8521  1398 3477 8521  658 3945 8724  3274 4900 10080  1626 4981 6964  3759 8320 8792  2967 6664 10406  2967 8676 9228  1583 3481 6382  3481 6382 7392  2076 4365 5560  2076 3482 4915  1578 3483 6706  779 5262 7301  2193 6951 7922  3484 6951 9057  1723 4802 7400  757 4389 6032  1420 4585 7683  1420 3486 6346  1718 6118 9364  3487 6118 9364  3488 4633 9583  542 3488 4633  1897 3489 6834  1071 6126 9115  4084 7474 8780  737 3490 5434  2024 5896 7372  3020 8170 10120  3020 4836 8170  3492 4836 8170  1688 3381 5266  1689 5813 9154  3494 5403 8039  1113 3494 5403  2663 5403 8039  463 3495 9931  1113 3494 6418  1113 3496 4551  4848 7741 8267  1555 4304 5373  2081 6959 7591  1101 8566 9336  3211 5094 8480  3499 5094 8480  602 4583 9047  3500 4583 9047  4291 7947 8067  3501 4291 8067  2100 5370 7413  1857 3502 10278  1202 5784 7504  3557 10075 10457  3504 5346 10447  3507 5346 9544  2626 4549 7542  3507 4549 7542  2067 5359 5442  1427 4843 5359  1179 8752 10730  1179 3507 4549  2177 4151 7648  1117 7211 7647  1789 6249 6340  686 6413 9413  1472 3510 5144  4756 6378 8245  280 3511 8149  280 281 3511  557 3876 8834  2020 7029 8412  359 5577 6075  2518 4444 7805  23 3514 5280  1249 3515 9165  1249 3995 9165  3516 5905 7247  940 3516 7247  1891 6144 9015  612 5487 6722  1832 5832 6940  687 3518 6940  2189 7547 7548  3519 6615 7977  1484 3520 4474  1483 4035 4374  1577 3763 8126  1181 3521 3763  956 5324 6766  1546 4439 9700  693 5150 6401  1807 3523 7604  1047 3238 6502  1047 3524 6502  2827 3525 4876  456 3525 4876  1991 5825 10620  3526 5209 8716  607 4413 9210  1852 3527 5737  934 4520 7950  2305 5609 6971  652 3529 10639  3648 8608 8935  2822 5675 10629  1124 3591 8426  1749 4324 6209  1124 3531 6210  1059 3532 7448  4841 5175 7252  3021 3533 4135  400 3021 3533  617 5676 8866  1258 7629 8865  2781 5557 10416  3216 8102 10510  1442 4828 6986  97 3842 6176  1249 3538 6165  1249 3515 4535  3539 7134 9858  1993 5205 9858  576 3540 9492  576 3540 8122  2018 5194 10611  1384 5194 10611  3542 5950 7002  2160 3542 7002  1654 4009 5885  495 3761 6935  1853 4074 6203  489 5881 9434  3545 10382 10383  2013 6823 6824  3546 4885 7614  659 3546 4885  2274 3852 7815  1118 6667 8321  2274 3548 8321  625 4437 6932  687 3549 9245  1606 3631 4194  1502 3550 8157  1044 7846 8157  3551 7666 10676  402 3448 7666  3552 6714 6715  3552 6715 7998  2466 9063 9064  660 3553 9063  1606 5431 6214  1809 3554 8524  626 8216 9238  1302 6465 7330  1795 4929 7397  4929 7397 8211  3282 4182 7943  3557 4182 7943  870 3558 7742  3475 6205 7742  1659 4350 7897  1061 3914 10384  3560 6998 8948  918 7690 8948  1792 6098 8237  1177 7485 9092  125 3382 3562  638 3563 7612  3563 4944 7612  2495 6912 7493  4849 6175 9617  5080 8043 8050  836 7671 8044  1427 3814 3903  630 3714 3814  1130 3569 4073  699 4212 4454  1773 5919 9389  1130 3569 4672  429 4584 4679  429 4679 7944  2005 7295 8830  5754 6900 8755  2543 7522 9532  882 3571 7522  3335 6265 6665  503 4888 6265  1958 2955 8098  2955 5819 7551  2178 5527 9702  2178 3574 4522  3575 4923 9860  1284 3575 4923  2314 5113 7452  2314 7452 10444  154 3577 5826  1253 5064 10232  3578 7987 10892  188 3579 9623  1700 3580 5928  657 5930 6781  3581 8434 9790  1352 8046 8434  3107 5695 6437  1506 3828 5695  1762 3583 6789  540 3644 5245  3584 4815 8737  769 3584 4815  541 3585 5456  2460 3717 5456  1403 8425 10224  1721 3372 9444  5354 7281 10482  42 3587 7283  1429 3588 6073  3247 4744 6073  552 8581 8782  3589 10596 10597  1748 3590 6520  3590 6520 7945  1124 3591 6127  1611 3591 6127  3717 6881 7929  1206 3592 7928  1687 4995 5872  3312 6013 10351  1920 6695 6696  3594 6695 9595  2210 7881 7882  1208 6696 7881  859 7677 9189  1547 4483 5331  3346 7887 8519  3346 6815 7959  3294 5893 8583  295 296 3598  1099 7053 9548  1965 7052 7053  3600 4448 5818  487 3600 5818  286 2964 3601  1385 2964 3601  2431 4572 9107  608 3602 4572  2960 4849 6175  1614 4849 9617  2415 8831 8833  862 3604 8831  2458 6197 8256  560 3605 8594  3847 6480 8691  1293 3847 5776  3607 5332 10329  182 3607 5332  1735 3608 10145  513 5869 10071  1595 4436 5439  1615 3056 5533  620 3611 7235  1443 5814 8188  1765 4551 6321  4785 5866 7176  556 5499 9511  556 5711 9409  1866 3613 8933  731 3614 6242  1564 3615 9036  3615 9036 10424  422 3616 6639  1604 3616 6639  3617 5992 7736  1178 3617 5992  1178 3617 5801  1178 3618 5801  3619 4750 9132  669 3619 4750  684 3620 6377  1625 3620 6377  3209 5628 7343  3621 5628 7343  5634 5974 9008  3622 5313 10531  2496 5636 9083  425 5045 6352  1658 5613 10021  544 3624 5770  3625 4990 8971  2459 3792 4990  3626 7871 7872  1269 3626 7872  497 3630 9421  3627 5451 10078  1157 3628 5606  4116 5606 10288  1668 5393 6746  1157 3629 5899  3630 4534 9225  1799 3956 4534  832 3210 5341  832 3631 4441  3135 7098 10353  3135 7242 10352  512 3633 7746  3633 6682 7746  373 3634 6738  2616 8206 10077  1425 3635 4218  2535 3635 10466  1526 3636 6079  860 3636 6079  2209 3637 8677  2209 5190 8677  480 5476 8533  480 3638 4490  1655 5879 5880  1200 3746 6813  2093 3908 5452  3640 5452 9608  781 3641 8789  1556 8775 8789  28 3642 3722  1423 3642 3722  1454 3910 6630  1209 3643 5033  1892 4022 6798  540 3644 6799  3645 3933 8869  1517 3645 3933  1858 3646 7616  3090 6232 10733  3647 4778 10397  4253 7236 8608  1490 4253 7236  1950 2927 6806  1942 3649 8726  1858 3650 6649  720 3773 7119  2660 4785 5866  3651 9535 10735  3652 7249 8824  995 3652 8824  1184 3653 7884  1184 3654 6342  1913 6700 6702  1184 3654 6700  2095 5132 5984  1219 3655 7418  3656 5437 9712  580 9405 9712  1258 8865 9200  896 7488 7973  124 3382 10741  1475 3658 8904  1035 3659 7670  1563 3659 7670  59 3660 10798  726 3661 8612  1699 4673 9760  3662 9349 9350  1252 3662 9349  2529 5602 8625  1797 3663 4532  2304 3664 4851  1881 5111 10331  3665 5214 9593  653 3666 6788  1632 3666 6788  1576 3667 4200  943 3667 4200  1705 3668 3836  2090 3669 7537  1217 7538 9660  2586 7538 9660  1309 4388 9696  635 4397 9262  1217 3671 9261  2362 5443 8939  1565 3871 5486  1071 3489 3673  1931 6898 6899  2806 9603 9604  1161 6472 9603  3675 6723 10709  423 8058 10271  623 3676 6365  1589 3676 6365  1598 5633 9075  1191 3678 5421  634 5810 7627  634 5445 7979  1612 5584 10140  1612 4876 5479  1733 3680 8811  1733 4101 8811  2027 4185 7989  3681 5936 10434  2605 5044 8053  362 6457 9398  1307 4630 9871  406 6475 9870  1259 6261 6930  1259 3684 6930  1822 3685 7886  1814 3811 8637  443 3686 7930  443 4334 7165  1154 3735 8194  1932 6457 10433  3688 4247 8294  2152 3689 7788  571 7790 9397  1416 4570 4748  1144 3691 7571  5129 9143 9224  1144 4013 9074  2078 5123 7506  814 3692 7505  2257 4885 7614  1164 3857 8066  3694 5842 6254  3694 8024 10605  1546 5325 6537  75 6537 9740  754 3696 6034  1452 3696 6034  709 3697 5477  2678 5395 5477  2594 8422 8436  2594 5965 8422  3699 7196 7197  3699 7385 8123  963 8356 9460  1922 5996 7744  2464 6448 9355  4138 9656 9767  2322 5998 9786  1168 6859 10276  1432 4563 4795  1564 3019 8504  1564 3704 8504  2337 7131 10284  1162 3706 8394  2337 8393 8394  3706 5705 9128  1959 3707 9166  3707 8500 8501  2110 3708 7667  1198 3551 7665  414 3709 9259  3709 6603 7458  2050 6603 7458  717 3750 7457  1470 3795 4621  1470 3795 4234  1368 3712 8319  486 3712 8319  651 3713 8324  1491 4286 6757  1469 3814 4843  1469 3714 3814  2243 5396 8141  729 4202 6800  2505 5230 10728  1145 3716 9148  2185 6881 7929  541 3717 6881  1706 5782 5783  1207 3718 5782  243 3719 4967  1537 3719 4967  1881 3340 6304  1822 3720 8681  1147 3721 8597  3922 8597 8681  1423 3722 8083  1423 4377 8083  946 3723 7416  1756 6086 6850  1975 6658 10304  3724 6658 10304  2975 3725 6711  520 2975 3725  2688 4664 5975  1220 3726 8448  3163 3727 8010  590 3163 3727  2092 7111 7112  2281 6100 9314  2095 5277 7418  3729 6594 8952  1577 3730 5626  675 3730 5626  2389 3927 5071  3927 5071 8349  3732 6315 8397  724 3732 6315  7012 8882 9696  688 3669 7537  1934 5861 6229  1934 6229 7314  1154 3734 5861  1154 3735 5861  2549 9077 9078  2032 3736 4202  3737 4627 8063  3406 4627 8063  2558 4264 7327  2203 5031 8437  1996 4177 6928  2247 3739 5804  3740 9068 9963  3740 6911 9068  161 3137 3741  1493 3137 3741  1817 3742 10898  485 7086 10898  1815 4471 8817  4471 8817 9114  2911 7223 9884  1215 3744 9885  1371 3436 5937  1371 3745 5937  3746 6427 8980  3746 6427 9847  1151 3747 5845  3747 5843 5845  248 3748 10850  1658 3749 9422  1137 8513 9422  2050 7456 7457  1152 3750 7456  2073 7569 7570  571 3751 7569  1292 4613 5694  3752 4833 10052  2303 3905 7518  3905 7518 9091  3754 4356 8576  3128 4356 8576  1782 3353 6206  1782 3787 5855  650 5853 5854  1462 4418 4420  1745 3757 10556  1745 4817 10556  1490 3758 10558  1580 3962 4253  185 8263 8320  3759 6224 8428  3760 5579 6964  565 3760 5579  1801 6196 6445  495 4080 6446  2240 3762 7031  1577 3730 3763  3730 3763 5830  2736 9890 10009  550 3764 9890  3765 4312 8215  681 3765 8215  3766 9563 9564  755 8087 9564  1510 3850 7084  1970 3767 7011  2019 7346 7896  724 3768 7346  2720 4940 6999  3769 4940 6999  876 6470 9414  876 4044 5836  2460 8722 8724  1205 5456 8723  4156 7922 9222  591 3772 7921  1391 3773 7119  1391 3524 6502  3774 3777 7039  3777 7039 10367  2932 5289 6532  1543 5289 6532  2025 4125 7181  745 3776 7179  1284 3777 7172  2740 4091 7172  3778 6280 7904  3358 5829 6280  2367 7432 7433  1448 3779 8517  3780 8856 8857  1161 8461 8856  2956 7995 9185  2956 5626 6642  1311 2933 3782  37 2933 3782  3783 7907 8129  3783 7907 8250  731 3784 3950  3784 3950 10426  1355 4487 6907  597 3575 9860  1408 3786 6868  414 3786 6868  3755 5855 9886  3787 5855 9886  1736 3788 7287  728 3788 7287  716 3789 7385  1956 3789 7385  1571 4437 6629  4437 6629 9710  3791 6697 8654  431 3791 6697  3792 5102 6728  833 3792 5102  721 3793 6286  721 4288 6758  2436 6346 6627  648 6346 6627  610 3711 4234  610 3795 4234  3466 4404 7040  387 3796 7040  374 5312 9244  374 3797 5312  1678 3798 6689  940 3798 6689  1428 3322 3799  53 3322 3799  3750 7456 7457  414 3709 6603  1211 7597 10325  2070 3769 7237  1268 6597 9264  732 3802 9263  690 4185 6488  690 3803 6488  2465 4580 8795  2465 7583 9775  2132 5659 8548  543 7560 9078  3806 8312 10573  1466 4597 8905  1863 3807 8192  1025 3106 6611  2481 4181 5664  3808 5664 10427  989 8901 9341  989 3809 5328  2140 3810 8114  504 7620 10632  501 3811 8637  1787 6385 8804  1304 3812 7632  3812 6093 7632  3813 5160 8030  1304 3813 8030  3566 3903 10137  3814 3903 10137  734 3815 7233  1710 3815 7233  1789 3816 6910  1012 3816 6910  1355 3817 7209  1355 4488 7209  3818 7507 7841  636 3818 7507  2135 4161 7795  549 3819 7797  3820 6472 9603  3820 9603 9605  2104 5868 9774  1015 3821 4662  223 3822 10194  2062 3823 5817  520 5583 8017  1667 4122 4221  4122 4221 10114  121 3447 3825  747 3826 5235  1828 6527 10092  1965 5318 7054  1238 3827 5318  613 3107 5695  613 3828 5695  1401 4813 7145  389 4476 7931  1936 6017 10715  713 4475 4737  1704 3831 6676  1930 3831 7366  1187 3832 7768  411 3832 7892  660 4462 5980  660 5980 8836  1833 3834 6277  1089 3834 6277  1563 3835 5964  828 3835 5964  21 3836 10795  2036 6519 10019  2036 3837 6807  720 3650 5051  1623 3838 5666  2682 4113 5344  1251 4113 5344  3651 6705 9555  776 3920 5430  2208 7713 7714  857 4144 7713  3537 3842 9373  1182 3537 3842  2250 7471 7472  1182 3843 7471  733 3844 3845  1503 3844 3845  3896 5536 9365  1728 4442 9411  3846 8297 10322  831 3846 8297  677 3194 3847  1293 3194 3847  3848 5768 6927  2248 3848 6927  268 6163 8585  268 269 3849  665 7084 10211  1328 4385 5006  3851 7539 7830  2172 3851 7830  3852 8457 9155  752 5492 6222  3853 8345 8346  1199 7792 8346  3855 8348 8975  5093 8348 8975  1199 5327 7792  3855 4527 9453  1994 4899 9883  739 3856 4316  1961 3275 6168  1164 6807 10605  14 3858 10781  2437 6984 8981  578 3859 6984  2380 3860 8769  2380 4632 8769  323 3861 9959  323 324 3861  3740 6495 8989  3740 8989 9315  3863 8026 8028  712 3863 8028  2835 6713 9994  1203 3864 8785  1883 3865 6836  1883 3865 7262  1851 4120 5500  1851 3866 7345  2001 3867 8277  2001 3906 8277  3249 3868 6942  1315 3249 3868  3869 5041 7030  616 3869 5041  2584 4303 9344  3870 8664 10794  1565 3672 3871  490 3672 3871  4543 8309 8310  2625 6349 8140  26 7628 10662  2083 3874 6109  765 4497 9034  1943 6820 7205  772 3875 6820  3286 3876 8834  1263 3286 3876  796 3877 6666  796 4816 9739  1286 8604 10602  969 4620 8867  1815 4037 5485  3500 9046 9047  3880 5309 8929  612 3880 5309  2624 5375 5593  1535 5375 5593  2514 3939 6966  2514 7598 7766  1477 3882 3883  1477 3883 3986  1638 3229 8647  1638 3884 8647  1201 3886 5787  1201 5787 8953  467 5625 5788  467 3886 5788  2324 6153 8019  1201 3887 8018  2724 6997 7311  584 3888 7961  2668 8562 9802  3889 8562 10757  2984 3890 7818  1256 2984 3890  1187 7544 7768  2174 3891 7544  944 3892 9366  1875 7195 9198  1644 3893 8702  2413 5803 8702  1372 3894 8962  2877 6994 8962  3895 6747 7262  3895 6747 10258  1763 4610 5536  725 4609 4610  1297 2990 3897  1998 2990 3897  1621 4307 5723  4325 5493 8409  1229 3899 8915  3948 8915 9556  1210 3900 8351  1210 4804 8474  1670 4804 5958  4279 7361 9725  3902 6429 9153  449 3902 6429  1180 3506 3903  1427 3506 3903  719 3904 9145  1520 5335 9145  2303 3905 6241  2085 4762 9569  1554 6937 10219  1554 3906 6157  1986 6423 9328  580 6945 9405  1627 3908 4378  639 3908 4378  4816 7467 9551  1212 3909 7467  835 5073 8341  835 3910 6630  3859 3911 6105  745 3911 6105  300 3912 9202  300 301 3912  95 3913 6574  1061 3914 9392  1659 3914 9392  1301 7926 8294  1301 3915 4801  1093 3916 8955  1617 3916 8955  1375 4225 5238  3917 4225 8973  5190 6136 10883  2227 7861 7862  771 3919 7861  3920 4712 8255  776 3920 4712  1701 3968 5607  657 3921 5927  1822 3922 8681  1147 8597 8681  2417 7250 9335  1204 4169 8903  729 3715 6993  729 3924 6993  3179 6267 10607  1030 3179 3925  526 3498 6959  526 3926 6959  563 3927 7726  3927 7100 7726  3928 7188 10474  3928 7188 8835  2248 6146 6656  1372 5768 6927  9 3930 7700  3931 6783 9780  1634 3931 6783  2081 5036 7592  1214 3926 7591  1516 3781 3933  4868 9071 10293  2582 3934 5986  1786 3934 8957  1617 3512 3935  557 3512 3935  2571 8655 9646  667 3936 8655  1736 3937 7784  2211 6618 7531  862 3938 8641  1769 4587 5859  1769 6968 8200  458 6684 8089  1873 3172 6110  1844 6414 6467  1844 4080 8640  10 3942 8506  2402 4867 10592  2767 3943 10250  2767 3943 5683  1720 5369 8954  671 5070 5411  658 3945 8096  1810 3945 8096  1024 5494 10660  2148 4639 7367  2217 4975 9231  806 3947 7355  1229 3948 8915  1883 6747 7262  1800 4480 5510  1499 4685 6080  1776 3950 3951  1322 3950 3951  1902 5947 7424  1322 3951 7424  2440 7357 9607  2075 4711 6736  3117 7321 10330  1340 4409 7321  3954 9454 9647  2130 4309 4989  2224 4702 8720  1751 6267 10607  1294 3373 3956  714 3373 3956  1002 6415 8573  2330 3957 7296  2043 4460 10213  306 307 3958  2386 4661 8803  1612 5771 9897  1777 3960 6819  598 3960 6819  3961 7427 8155  1043 4638 6576  652 3962 10639  1436 6901 10639  376 3350 7117  376 3963 5939  2350 7800 7801  2450 3964 10717  309 3965 8692  309 310 3965  1541 6990 9946  1541 3966 5110  524 4480 5510  892 3967 7863  3921 3968 5927  1246 3921 3968  1119 3411 7386  1119 3969 7386  1268 3970 9197  2954 4680 9197  3971 7138 7139  3971 7139 9158  2654 5299 6497  2654 3972 5299  1217 3670 6357  3670 6357 8400  1746 5483 6657  674 3974 6657  1766 3975 6062  2147 7461 8675  1369 2987 5740  1369 3976 5740  1296 9947 10704  1296 5382 6447  3132 3978 5541  1757 5665 9524  3706 8393 8394  3190 7131 10284  1024 4948 5494  1540 4948 5494  1692 3981 7091  972 3981 7091  2314 3982 5574  142 3982 7109  3983 6235 8984  424 3983 6235  6933 7357 8460  1152 3751 7570  1869 4227 6462  1390 5696 7938  1390 3986 7938  3044 5696 7938  1477 3420 5745  686 3420 3987  1322 3950 10426  1322 3988 4977  1381 3989 5467  3014 4731 5467  3594 6695 6696  1920 3991 7114  3991 8798 8799  1233 3991 8799  399 3992 9510  2895 6751 7600  3993 4768 10388  3422 4768 10388  2345 6343 6975  586 3280 6343  1249 3538 7007  1249 3995 7007  353 5639 7816  1975 3996 7816  3352 6731 6895  1939 6731 6895  1581 3998 5496  3998 4433 5496  216 3999 10856  1462 4000 5151  1462 4418 4419  4176 5416 9966  321 322 4001  2683 5522 9690  1303 4002 8099  1542 4423 5663  637 4833 4834  1234 4004 10183  2418 6880 7555  1234 4005 10423  1234 3381 5358  1851 4006 7345  1851 5500 6166  758 4007 6596  2094 3655 7376  4008 6560 10112  2348 8618 9967  1654 4009 6981  965 4009 6981  1909 4010 6651  1062 3214 6652  4011 6734 7908  2726 4011 6734  1253 4012 5537  851 4012 10354  2207 3690 4013  1144 3690 4013  336 337 4014  2184 5851 7770  4015 5086 8024  4015 9936 10019  2805 4968 10385  521 5644 6773  4017 8008 10122  4017 7954 9979  705 5107 8443  1610 4018 8443  2097 5965 5966  2097 4019 5133  2138 4020 7596  2197 4020 8815  1864 4199 4866  4021 4866 8080  1892 4826 5983  1121 8259 8260  5 4023 10849  906 4193 7695  906 4024 7695  1348 3303 4025  3303 4025 6406  2175 4026 7123  1255 5839 7124  642 4027 5840  4027 5839 5840  4028 5198 6744  411 4028 5198  2832 10636 10637  680 5791 10438  2780 8281 10339  668 4030 10340  4031 8281 10339  1228 4031 8281  1582 4647 8432  1582 4032 4647  784 6200 7348  2118 4100 8357  350 351 4034  351 5985 6281  4374 7497 8085  4035 4374 8085  1922 3572 5995  2182 5996 7744  1752 4037 6273  1752 4037 7661  3158 8372 9405  780 2948 4038  4032 4039 7294  1254 4039 7294  4040 8454 8455  1270 4040 8455  1077 8147 8538  4041 9435 9436  1778 5888 6561  4042 5888 6561  2661 7992 8592  1235 4044 8522  4044 7734 8522  876 4044 7734  4045 5804 7747  1240 4045 7747  4046 4337 6704  2044 4046 6704  1005 6212 7525  1548 4971 7228  2216 4048 7573  1102 8013 8552  760 4049 8535  1451 4049 8535  216 3999 4050  4051 8622 8966  1283 3519 6615  201 4052 5489  2399 8721 8753  1259 4932 8721  1361 3597 4054  1581 5495 7836  2885 4055 5492  2152 4055 7789  1512 3256 4056  761 3256 4056  1968 4443 6831  4109 6718 8257  474 3854 5093  2655 8875 8876  2477 4608 8472  4059 4608 8472  4060 7817 10736  931 4060 7817  6953 7988 9932  663 4061 8491  2755 7497 9823  1274 7988 9822  4063 6953 7988  4063 7988 9822  782 4064 7302  1839 4064 7302  775 4124 5498  1237 4065 7738  4066 7191 7192  391 4066 7192  1977 7196 7197  1977 4219 8276  314 315 4068  342 7434 8864  4069 9689 9758  561 4070 8398  561 4175 8398  980 2883 4071  2883 4072 8586  2019 4072 7896  4072 7896 8586  1312 3569 4073  1831 4073 4424  1705 3836 4649  769 3584 5480  2537 7431 10237  396 4075 7431  1643 4076 8959  1109 8574 8959  2503 8354 9033  1267 4077 9032  2712 7585 9971  1245 7585 8640  4079 7934 8265  1245 4079 7934  1801 6446 7167  1245 4080 7167  2648 5797 6533  311 4081 9104  1242 4082 7889  1242 3059 6036  565 4083 9061  3059 5717 9061  2077 3334 4084  1080 3334 4084  1828 4085 5655  1056 4823 6527  2604 5806 10881  530 5806 10881  2119 4087 8773  2181 4087 9622  2246 4088 7128  487 4088 7128  2793 8173 10165  1296 4089 9285  2066 7512 7514  899 4090 7513  2741 4923 9860  2741 4923 8761  4092 10079 10139  3448 5122 6894  2929 4613 10584  2929 4093 6742  356 7475 7968  2815 5790 9276  2145 3273 7693  2647 4095 9112  345 6379 7046  345 346 4096  4097 7116 10900  1955 4097 7116  644 5885 7902  4098 4458 9446  1285 4099 7187  2118 4100 7187  1285 4100 6936  1285 4458 6936  140 4101 10836  1659 4102 9919  1659 4102 7897  2046 4839 7975  1493 4839 7975  2323 7935 7936  1685 4104 9620  2680 8075 9969  1257 9620 9970  2680 8075 9970  904 5698 8075  952 4107 5858  2146 3742 7087  1711 4108 10472  1711 4108 5337  82 4109 10363  2452 4110 6371  860 4110 8153  3016 8429 10514  4111 8429 10514  2920 6741 9311  1305 8912 9041  1808 5292 6015  1251 3523 4306  1588 5450 8841  2603 5448 10488  2305 5546 5547  934 3528 6971  1703 4116 7214  676 4116 7214  2915 5135 6980  1582 5135 6980  2742 4668 10175  713 5812 10174  2641 4119 8925  1915 4119 10496  1851 4120 6765  988 4120 6765  1550 2949 7409  622 2949 4121  1495 4197 4198  1395 4122 4518  3795 4621 8607  727 4123 8607  775 4065 7494  775 5498 7494  17 7180 9076  2025 4125 7180  1967 5153 10231  614 5153 10231  1542 4834 7373  1542 4127 4423  2400 4128 8841  4128 5450 8841  2196 7037 7687  819 6610 7686  317 4130 8322  2109 4131 7407  975 3354 7347  4132 7427 9110  4132 7427 7704  390 4957 9067  390 4133 4957  2683 8099 9690  2683 7782 10034  1123 3533 4135  2937 4135 10664  2031 4954 10221  749 3108 4136  3302 4137 6677  619 3302 4137  1276 4138 9656  2071 6443 9656  1752 6274 7661  545 4139 5959  4140 6274 7661  1276 4140 6274  2612 9561 9562  1272 3384 9561  2339 6096 8874  2339 8569 8874  2425 4143 7046  857 6303 8800  2208 4144 7713  2390 5901 6671  2168 4145 5901  281 4146 8510  281 282 4146  1431 4147 7877  630 5357 7877  972 3981 8919  972 4148 8919  3078 5798 10067  4149 5798 10067  1465 3081 9400  4347 4348 9981  2077 3334 7473  1329 3490 5434  1909 4152 6650  4010 6651 7309  2295 8027 8028  2295 4153 4741  2763 5244 6604  3237 7829 9452  596 4155 10214  4156 6922 8340  4156 9187 9222  70 6842 9751  2335 7940 7942  1219 3212 7941  2136 5522 7782  1266 4161 7781  2469 4160 8987  877 6320 9827  2136 7780 7781  824 6867 7780  505 2926 6123  1548 4972 8438  4163 8301 10454  1455 4163 8301  2264 4797 4863  1042 3195 7925  1330 5418 5419  855 8918 9819  1862 4166 6871  2021 4166 9254  1468 3084 7058  1468 4167 7058  4168 6362 8994  1956 4168 6362  1204 3924 8064  1204 4169 8064  615 4170 4984  1473 4170 4984  2530 4760 9218  577 4171 8467  1004 4172 9254  1845 5023 6593  2462 4445 10725  588 3396 8917  1275 3177 4174  640 3177 4174  561 3881 5593  2292 4175 8398  320 4176 9724  320 321 4176  439 4177 8590  439 5805 7532  4178 4524 7964  1396 4178 7964  3271 6739 6924  874 5828 6559  2279 4180 5754  2739 4574 9910  4181 7447 8462  2481 4181 10520  2634 5173 6394  1730 5173 6394  1499 4183 4396  462 4183 4396  2569 5677 9065  1376 6577 7980  4185 6488 6489  1287 4185 6489  517 4186 8602  1720 5670 10322  1507 4187 10578  507 4187 10578  2349 5511 9538  1269 4188 8468  4189 7465 8261  3626 7444 8261  426 4191 7062  3340 6304 7062  1458 3120 4191  1457 3120 4191  1931 4192 7952  1071 4192 7952  4193 6276 9186  906 4193 6276  1606 3549 4194  687 3549 4194  601 4195 9475  2681 7127 9832  531 4196 10606  531 5009 10111  2271 6503 9456  434 4197 9456  4122 4518 9640  1495 4198 9640  688 3733 6238  688 4199 6238  2751 8239 8529  943 4200 7702  1197 3472 5785  2474 5176 8111  1273 4202 8142  4202 6800 8142  2395 4203 4807  1104 4203 8368  1274 4204 10235  1761 4204 10235  2561 4205 9348  3662 9350 10706  2482 6095 6351  361 5414 6547  791 3813 5160  4207 5063 10536  2339 4208 5386  893 4142 8569  2293 4209 8280  2293 4209 6831  1363 9160 10491  1363 4210 5029  4211 8477 9962  1419 4211 8477  1517 4701 10226  1517 9071 10293  1569 4213 6884  708 4213 6884  2336 4634 9142  592 4634 9142  3048 4215 4216  1133 3048 4215  563 4216 6670  563 3927 8349  2093 6380 10669  499 4217 5104  1908 3276 4218  629 3276 4218  1976 3434 8395  1237 4066 7191  378 4221 4222  1667 4221 4222  4222 9642 10431  1667 4222 9642  1840 4362 6508  1840 4223 9009  4224 5189 9286  3377 5189 9286  1505 4225 10338  1375 4225 4675  59 3660 4226  1533 6837 7659  1533 4227 4894  1707 4550 6077  2280 4516 8160  3093 8021 9138  4229 8021 8213  2200 4489 6155  2200 3445 7890  1949 5631 7074  1530 5178 7073  1751 3955 6266  3179 3925 10607  2899 5797 9298  2206 7323 7324  1193 3711 8938  3711 4234 8938  1917 4235 5497  2623 4884 5497  1726 3300 6570  1726 4236 6570  4237 8605 8772  3441 8605 8772  538 3457 4238  2338 4605 7685  1474 4239 4855  710 4239 4855  2555 4873 9401  4240 9476 10658  466 6186 6187  4241 7825 9368  419 5688 7339  4637 8414 9522  1060 6356 10265  1060 4243 6356  1988 6353 6743  770 4333 6353  1407 3292 4245  2120 6664 7395  2094 4007 7375  3212 5246 7821  2436 7926 8988  4247 7926 8294  1288 4248 7049  1288 5917 10439  4249 8305 9543  3097 6906 9543  4250 6906 8305  569 4250 8305  4251 5930 6781  1700 4251 5930  811 4211 9962  811 4252 7990  1580 3758 4253  1490 3758 4253  3216 8102 8103  1449 3336 7519  1824 3253 6563  1449 4255 6562  2085 4533 4762  1146 6241 8895  749 4257 4875  1823 4954 10751  2201 6121 9896  785 4258 9896  3577 5155 6185  3162 9402 10297  516 5034 8406  2116 4261 5779  2311 4261 5779  790 4262 8644  1534 4262 8644  4263 5630 9004  146 4263 5630  915 4264 9840  2298 6167 9840  2034 3826 4576  368 7328 10703  2727 9985 9987  1282 9746 9986  719 3904 4267  1558 3904 4267  1033 4268 10679  1873 3940 4856  2609 5348 8727  2609 4269 5015  743 5925 9395  743 4302 4515  4271 6218 9525  1341 4271 6218  2807 6218 9525  418 7516 10461  4174 9553 9979  640 4174 4273  1571 4274 5834  536 4274 5834  2014 6348 8564  864 3141 5091  1288 4276 7049  2467 4276 7049  1299 4341 4906  405 5907 9831  3345 4278 7026  425 6516 7027  1771 4279 9725  643 7361 9725  2431 6208 10395  1277 4280 8735  1959 5115 9166  767 5115 9166  4133 4282 4957  1440 4133 4282  4283 7847 10179  995 4283 10179  1912 5931 5932  694 6237 9557  1491 3713 4285  651 3713 4285  1492 4616 10908  804 4286 10907  651 3758 4287  1580 3758 4287  721 4288 6286  1957 4288 6286  1603 3535 4289  646 3535 4289  1010 3039 8648  1010 4290 6633  2309 4951 7946  153 8067 10833  2276 4292 7118  4292 4607 7118  2120 4245 4293  1407 4245 4293  670 6988 8956  1755 6215 6216  2270 5202 6223  1356 4295 8306  869 4296 6869  3299 6245 6869  1979 4297 4864  1979 4297 8561  1645 4713 8886  1645 4298 4332  3974 4299 7193  674 3974 4299  1167 4300 10027  2411 8581 10554  31 5429 10178  1868 4270 4515  743 4270 4515  3507 7542 9544  2584 4303 5501  2353 4895 7308  4304 4895 7308  1991 7078 10240  1991 4305 5074  1251 4306 8014  1808 4306 8014  2962 6035 9393  1306 4307 9801  2962 9393 9801  904 2962 4308  1306 4307 6632  1306 4309 6632  2473 4310 6099  527 6100 9314  2243 6800 8142  445 8141 10204  1165 3765 4312  1165 4312 9694  1498 4313 4891  1498 4892 9306  805 4314 9781  2289 4903 9781  2165 7444 7466  581 4189 7465  3074 4316 10216  1994 3074 4316  1952 5961 6217  747 4528 6654  4318 6336 10446  1338 4318 6336  2478 4319 7521  803 5364 7558  1847 6283 6647  895 8005 9318  2676 8434 9790  924 6662 10415  1811 5169 5944  1811 3324 5944  2472 4323 6101  1018 4323 8974  680 6209 9295  2484 4324 9295  4309 6632 7920  1621 4325 7920  1326 4326 10050  4326 6784 10050  2149 6703 7516  4327 5518 9455  3630 6213 8936  4328 6213 8936  891 4329 8570  3373 6416 8570  1313 4330 6663  4330 5459 6663  2524 9279 9281  1313 4331 9279  2494 4375 9184  1478 4653 9182  1988 6353 7885  1412 4333 7885  2232 4334 10042  4334 7165 10042  2490 9151 9152  587 9058 9151  1929 6367 6995  3289 6996 10559  2282 8344 10479  1316 5449 9565  3225 4338 8241  1298 3225 4338  1660 5319 5320  1793 3697 10600  1299 3036 7072  1299 4340 7072  405 4277 4341  4277 4341 4906  1619 3443 5284  682 3568 5919  695 6172 7837  1714 4532 5180  2180 4344 7705  822 4506 8331  1416 4345 5687  1416 4748 5687  1624 5372 5682  1624 4346 4453  1480 4348 6329  4348 6329 9981  631 4348 4791  1480 4348 4791  1480 4150 6329  468 4150 4349  1659 4350 9080  404 9006 9080  1551 3220 4351  484 3220 4351  800 4417 7649  2038 6628 9017  467 5934 7937  1702 4353 5934  3632 7242 10316  4354 7242 10316  2345 3371 4355  1339 3994 6975  706 3000 4356  1758 3000 4356  4357 5650 6259  1297 4357 5650  1404 3014 4358  605 3014 4358  1622 5728 7320  627 4359 5730  3753 5390 9602  4360 5390 9602  2072 4361 8177  528 5363 6857  2550 5767 6882  1230 4362 6508  1637 4478 8763  1638 4609 8763  2236 4476 5530  4476 5530 10428  819 5560 6610  1694 5560 6610  1942 4366 8726  2351 5911 9517  2069 4367 7094  1079 8407 8910  4359 4368 5730  1365 4359 4368  438 5279 6103  5322 7745 7776  2143 7635 7636  785 4370 7634  2944 4466 8680  1545 6121 7363  4372 6325 10030  2205 4372 6325  1434 3035 7621  4373 9346 9649  1483 3520 4374  1484 3520 4374  2493 4375 8165  1119 5587 8164  4376 6464 6484  1829 3642 6484  2105 6782 7581  1423 4377 7582  1627 4212 4454  1831 4378 4424  1221 4379 9077  2032 5158 9731  2924 5427 7274  685 5427 7274  2870 4381 10002  4381 5657 10002  4194 4382 8700  687 4194 4382  2103 3730 5830  2103 4383 9378  665 4384 10211  3850 7084 10211  141 4385 8812  1907 4386 7222  518 4386 7222  2866 8459 10903  2866 4926 8459  4962 8916 8982  416 4388 10886  3451 4710 8187  4389 4710 8187  949 4390 7737  2037 4390 7737  399 4391 6828  2372 6751 7600  1613 4392 8390  3455 5679 8390  2469 3819 4393  549 3819 4393  842 5589 7876  2482 6095 10004  1384 4775 9500  1384 3541 5194  2403 7156 9255  462 4396 9255  2617 4397 9375  2617 9261 9262  2701 4398 9226  2702 4398 9226  370 4399 9495  4399 6752 9495  4400 6020 8405  688 4400 6020  2178 4401 6067  2178 4401 5527  2143 7634 7636  1345 3337 4921  2621 4949 9686  583 4403 9687  2331 4652 8540  1318 4404 8539  961 3441 4405  1442 3441 4405  2740 10023 10025  1032 4406 10024  4407 7334 8121  1308 4407 7334  4408 10023 10025  1308 4408 10025  3117 4409 7321  1039 3117 4409  3667 5212 7835  1576 3667 7835  2016 4411 7335  2016 4411 8121  2172 7831 7832  1380 4412 7831  3527 4413 5737  1380 3527 4413  2773 4414 9521  419 8414 9522  909 4542 9923  2669 9746 9747  1329 4416 8897  1329 4417 8897  800 4417 9303  2502 8896 9303  3756 7405 9297  650 5854 7405  650 4419 6790  1676 4419 6790  4333 4540 10419  4420 4540 10419  1511 7610 10681  4537 10299 10681  1539 3329 4422  1094 3329 4422  1312 3569 4423  429 3569 4423  5017 9776 10534  639 3640 5017  2249 7289 9542  3560 7690 8948  506 2882 5638  506 4426 5638  3121 6660 10245  1323 4427 10289  4403 4428 6759  583 4403 4428  3317 4429 7760  3317 4429 8853  867 4470 5518  2356 6830 10148  1674 5598 5914  1326 4431 5915  2168 6034 8845  2168 6034 7378  4433 8425 8427  617 4433 8427  2580 9266 9589  1319 4667 9590  4434 4435 10090  1321 4435 10090  159 4436 10176  2274 6932 8457  1571 6932 8457  1382 4533 4762  1409 4590 4591  1546 3522 4439  956 3522 4439  3791 4440 10670  431 3791 4440  1428 3799 4441  2445 3799 4441  4771 9458 9734  1503 3844 4771  1968 4109 6832  1718 4444 8000  997 4444 8000  2463 4446 9079  855 6158 8094  2463 5700 6760  1317 4446 9079  789 4447 7414  3695 4447 8678  1964 3600 4448  1964 4448 4725  3415 4449 5195  614 4126 5153  656 4450 10555  1712 8212 10555  1945 6268 7028  1945 7028 10537  2285 7534 10256  2285 9106 10691  2047 3421 6587  2047 4453 6587  1831 4454 7044  1831 4073 6112  1224 4455 9634  1997 4455 9634  1971 3787 6904  1971 6904 9236  293 294 8389  294 4457 8389  1654 5886 7951  1654 4458 7951  1557 3726 4459  1220 3726 4459  305 4460 7304  305 306 4460  250 7020 9706  3798 4462 5980  1992 3798 4462  853 4463 9718  4463 9718 9749  2019 4464 9918  2459 4464 10301  678 4122 4465  1667 4122 4465  525 7102 10520  525 4466 6244  1908 4467 6855  421 4467 6855  906 4024 9334  906 4468 9334  2310 4469 7620  2310 5767 7594  4470 9455 10043  4470 5518 9455  1215 3744 4471  3500 8951 10753  929 4472 7528  1573 4472 7528  4473 9973 9974  433 4473 9974  4267 4858 9377  4474 4858 9377  1518 3208 8534  1518 4737 8534  1401 4476 7145  3829 4813 7145  491 2921 4477  1351 5340 6055  2744 9777 10673  1637 4611 7630  1501 4479 9170  1091 4479 9170  2170 5510 8125  524 5510 8125  800 4481 7210  2161 5565 8896  1727 4482 10187  4482 8701 10187  1547 3596 4483  859 3596 4483  2173 7681 8269  1325 3145 7680  2707 4485 6128  2574 7567 8152  301 3912 4487  302 9552 10732  1355 4486 4487  1196 3785 7209  1196 4488 7209  1635 3358 8886  1635 4713 8886  3638 4490 7520  1562 7007 9472  947 4491 9480  1650 5769 9839  818 4492 6363  1856 5906 6626  2492 4986 8118  2492 8891 9838  2817 10421 10422  1331 4494 10420  1543 3775 4927  1543 4495 4927  622 2949 4496  1550 2949 4496  765 4497 9945  2083 4497 9945  1731 6026 7132  1731 5903 7132  4302 5016 9954  4499 5016 9954  1282 4266 7617  1282 4500 7410  1734 8113 8536  1734 4502 9167  1734 4502 8113  782 4502 8113  363 6635 7289  1413 4468 8381  4504 8826 10412  897 7408 8826  4505 7374 7706  558 4505 7706  2180 7374 8331  1347 4505 7374  2233 8054 10415  924 6550 6662  2593 4508 6115  1368 4504 8885  546 3991 8798  2819 9518 9519  764 4510 6708  1337 4510 6708  1337 3546 4511  659 3546 4511  2668 4431 4512  1326 4431 4512  765 4513 4557  765 4557 8601  3137 4514 8034  1026 4514 8034  1868 4515 8920  3858 6620 8920  1707 4301 4516  32 4301 4516  1481 6510 10507  1481 4517 5936  1495 4518 6243  1395 4518 6243  4519 5558 10348  101 10348 10566  1467 4520 9944  1467 4519 5558  2283 7894 9215  2284 7860 10591  1170 4522 10016  1608 9702 10016  1404 4827 9163  1404 4523 6091  479 4178 4524  479 4524 6459  3121 6660 8006  2049 6660 8006  441 4526 9097  1510 7011 7084  672 3052 4527  1527 3052 4527  1952 6654 8850  1410 4528 8850  1596 5473 5474  1410 4529 5473  1410 2993 4530  436 6702 9889  2635 4531 7147  1474 4855 10624  695 4532 7837  4343 6172 7837  2085 4256 4533  764 4256 4533  497 4534 9193  497 3630 4534  1249 4535 6165  2892 4535 6165  1419 5119 8624  400 3533 4536  1511 4537 10681  4421 7610 10681  1557 4459 4538  1975 4459 4538  2854 4539 7806  1338 4504 10412  488 4420 4540  2128 5622 5623  225 6009 8819  1854 4541 6009  1362 8310 9985  1362 4542 9985  2272 8309 8310  748 4543 8309  4544 9985 9987  564 4544 9987  3227 8544 10690  1349 3227 4545  2513 7909 9160  5388 9159 10031  4547 9160 10491  4547 7909 9160  787 8175 9879  4548 9737 10329  553 9135 9486  3505 4549 9135  3063 4550 7664  1424 3063 4550  1765 4785 7164  2375 4551 6321  2733 7808 8166  1343 4552 7808  2579 5056 8167  4553 9058 9151  2114 4554 7481  1073 3295 7482  278 4555 9771  1397 5398 9771  894 7638 9232  2733 8166 8167  4513 4557 8022  1354 4557 8022  1354 4557 8439  1354 4558 8439  831 4559 5910  2839 8297 10322  1350 3368 4560  3368 4560 5415  4561 9873 10086  4561 9872 9873  3662 6989 10706  3662 4562 6989  1432 4563 6866  670 5875 6866  2198 7148 10236  1445 4883 7912  1721 4565 9444  476 4565 9444  1897 4566 8197  1092 4566 8197  3603 8216 9005  626 8216 9005  237 4568 9461  2090 4569 7554  1094 4569 7554  1416 4570 10012  4570 10011 10012  1668 4571 8435  1668 4571 6746  1277 5155 6185  2431 4280 8735  4573 9128 9762  3088 4573 9762  440 4574 9910  2055 6439 6440  2372 7932 8683  823 5692 7932  4576 7328 10703  368 4265 10703  449 6429 6430  1818 4578 6879  1455 4163 6047  1455 4578 5307  2045 3866 4579  382 3866 4579  4580 8659 8794  2465 4580 8794  2777 4581 9499  1042 4581 7225  2563 4582 9431  695 3663 6327  602 3879 4583  1815 3879 4583  3486 5735 6528  1773 4679 6528  861 4585 8988  4585 7683 8988  735 6381 6617  735 4587 5859  1596 4587 9323  1769 4587 9323  1905 6405 8715  4904 10045 10046  661 4079 8265  659 4590 8877  4590 4591 8877  1382 4591 8036  1382 4762 8036  1807 4592 7604  693 4592 7604  537 6593 8645  537 5491 7775  1772 5909 5910  1463 4594 5909  257 7107 9103  1261 8449 10158  2091 5758 9410  731 3950 9161  731 4597 9161  1441 4598 7509  2542 5409 7509  1787 4450 4998  501 4599 6385  4450 4998 9667  656 4450 9667  2282 4601 8344  839 3853 8345  1443 4602 7240  2825 4603 7240  1443 4603 8188  5814 8188 8931  2068 3611 10166  620 3611 4604  2257 4605 8065  3546 7614 8674  5 4023 4606  2719 4607 4911  2719 8786 10238  2477 4608 5237  725 3391 4997  725 4609 4997  725 3896 5536  725 4610 5536  4611 7630 9381  480 4611 9381  361 4612 9195  2841 7662 10018  1292 4613 10584  2263 4613 5694  2428 4614 8665  233 6774 9177  1491 4615 8254  4615 5773 8254  3091 4616 4734  3091 10907 10908  1193 3710 4617  1934 3710 4617  2293 4443 9000  2293 4618 9000  903 4973 9069  2382 6164 8741  1681 4620 6801  969 4620 6801  1470 4621 8115  4621 4684 8115  949 4622 9352  1405 4622 8863  3578 4623 5064  605 3578 4623  2300 5208 7643  1473 4170 7644  1150 4625 9743  1696 4625 9743  998 5250 6937  4626 5250 10219  1438 4628 8325  1393 4627 8325  1438 4628 8483  4628 7754 8483  2525 4629 9370  1374 4629 9372  2906 5986 10273  2906 9870 9871  1463 4029 4631  2065 4029 4631  2379 4580 8659  1273 3736 8660  3463 4964 6690  1378 4633 6690  3190 4634 8600  2336 6545 7130  2489 3516 8633  869 4635 8635  911 4636 9394  1460 4636 9394  1063 4637 9852  1683 4637 9852  2101 6576 9230  2361 4638 9230  2148 4639 9301  1024 4639 9301  4640 6153 7849  1394 4640 6153  2324 6153 7849  848 4641 8019  2686 7129 10040  734 7233 10039  1397 3299 4643  599 3299 4643  2743 6954 10310  793 4644 10309  4645 5181 9059  3469 5181 9059  1775 4646 9957  983 4646 9957  2220 4060 6862  2704 4647 7678  2798 4648 8007  2385 5990 8589  1705 4649 6203  950 4649 6203  393 3581 9790  2611 5259 9803  1698 4651 6941  1698 3438 5112  3957 4652 7296  2331 3957 4652  4653 9182 9183  461 4653 9183  3356 5582 8386  4654 5582 8386  3618 5801 6874  1515 4656 6874  1516 3781 4656  1515 3781 4656  1425 4218 6422  1425 4657 6422  417 4658 7562  2235 4658 7562  1456 4659 10312  4659 7093 10312  3029 10150 10151  2254 8044 8045  2376 4661 8777  2376 4661 5109  4662 7677 9189  2104 4662 7677  1849 4663 6515  1012 4663 6515  1599 4664 7089  1085 4664 7089  2658 3674 8855  2658 4665 5379  1440 4666 10392  1440 4283 7847  1319 4665 5379  2580 4667 9590  2888 4668 10389  2888 4816 7467  1903 2886 4669  2762 4669 10270  68 4670 10784  2756 4670 9325  2607 9755 9756  589 4671 9755  1773 4672 9389  3568 5919 9389  1699 3661 4673  726 3661 4673  2012 5920 8662  1096 3462 4675  3462 4675 5907  2202 4676 5713  2226 4676 5713  4364 4677 7622  1401 4364 4677  3444 4678 6064  2429 3517 8927  1773 4672 7944  1773 4679 7944  2953 6597 10047  2953 9249 10047  1895 3879 7158  1895 4681 7158  2042 4411 7255  447 3231 8416  1120 3066 4683  3135 10351 10353  2006 3570 7291  1408 4684 7293  714 5082 6081  714 6081 9188  2170 7863 10341  1499 3949 4686  3811 6386 8178  1008 6386 8178  1468 4688 9980  3385 6391 9980  2836 5053 10505  681 3765 10504  2856 7817 10736  1560 6005 10737  3559 7278 7279  1373 6636 8484  1373 2914 4692  2914 4692 6141  2152 3547 4693  1118 3547 4693  2723 4694 5388  2480 5575 8185  2107 3860 6506  2107 6504 6505  597 3575 4696  1388 3575 4696  4698 10130 10132  927 4697 10131  2728 10130 10132  1388 4698 10130  1010 3039 4699  1473 3039 4699  499 4217 10226  499 4701 10226  3645 5970 10396  3645 10396 10407  2938 10107 10108  662 4908 10107  2659 9872 9873  1426 4705 9874  431 7059 7824  710 4704 6331  2320 3953 7823  2320 5620 9282  509 3404 4706  1652 3404 4706  4707 5586 7440  1625 4707 5586  1833 6277 10889  2139 4708 6052  4709 8618 9967  83 4709 8618  1875 4710 7071  757 4710 7071  3700 4711 5997  503 4711 7382  1799 4712 5807  776 4712 5807  1835 5185 10621  1645 5185 10621  2443 8137 8140  25 7577 8266  2873 4715 6543  2175 4715 5838  1436 4716 6938  2216 4717 6938  453 2871 4717  1436 2871 4717  3205 8353 10414  1431 3205 4718  296 3598 4772  296 4772 9505  4720 8407 8910  2069 4720 8910  3172 5561 6110  1036 4721 5561  1882 4721 4722  371 4722 9026  2455 9016 9066  847 3097 9016  2635 6810 9624  821 4724 6810  1055 3085 4725  1370 3085 4725  669 4726 8764  1741 4726 8764  535 4727 8283  535 5892 6796  4728 9982 10294  2557 7547 10294  2188 7652 7653  442 4729 7654  4730 7652 7653  1392 4730 7653  2649 6688 9829  605 4623 9828  2900 4732 6058  2371 4732 6582  3091 4616 10908  1430 3091 4733  2226 4048 7899  1430 4735 7898  803 4735 10626  803 5713 10708  603 7622 9990  2548 4736 9550  713 3830 4737  1781 3830 4737  793 4738 7965  2062 4738 7965  2388 5193 5884  2388 5884 9274  2228 7082 7459  771 3209 5628  1569 4741 8703  4741 4880 8703  3147 6011 10885  1607 3147 4742  1450 2941 6848  2941 5196 6162  413 5159 6812  1429 6162 10878  1810 2981 9199  2981 9199 10212  11 4746 8243  1660 4747 7984  1660 5320 7984  459 3690 5687  459 4748 5687  2701 10011 10012  635 4749 10013  669 3005 7913  669 4750 7913  2046 5105 10882  746 4751 10882  2047 4752 10752  849 4752 10752  3609 9997 10182  4753 9997 10182  2051 3475 6205  2051 5022 5222  2570 7024 9454  1377 9646 9648  1472 3510 8245  1472 4756 8245  2342 4757 8566  2342 4757 5127  1091 3393 4758  2383 7971 8555  883 4759 9121  2798 8007 9121  2410 7083 9428  4000 5151 8287  485 4761 8052  1421 4761 8052  380 4438 8036  380 4762 8036  3033 7017 10094  1383 4765 7017  2687 9999 10022  1383 8790 9999  1058 4765 9501  4765 7017 9501  1379 4766 9156  4766 6142 9156  1011 5026 7589  1739 5055 5841  1185 5733 8765  1185 3422 4768  2533 4969 9460  1408 4769 9459  2505 6549 10201  1715 9253 10201  350 4771 9458  2003 4719 9505  2003 4772 9505  1425 2996 4773  2365 3635 8037  4775 8078 8742  887 4774 8077  3295 4775 9500  409 4775 8383  2035 4765 4776  1058 4765 4776  131 4777 10829  2964 6495 8989  287 2964 4778  2901 7218 7219  518 7218 7219  2734 4943 10227  861 4585 10228  117 4781 9800  49 4019 4782  557 3935 10056  557 4783 8023  1424 4550 6269  1424 5429 6269  697 3496 7164  697 4785 7164  2635 4531 6810  1474 4531 4786  489 3544 4787  1853 3544 4787  2387 7754 8483  2387 4788 7722  1663 5360 5361  2347 4789 7490  1644 4790 8661  2164 4790 10631  1605 3423 4791  1480 3423 4791  2490 6161 9149  2490 6161 8924  1525 4980 5777  1525 3579 5777  705 3417 6962  1663 5360 7490  72 3703 4795  1400 3421 4796  450 4453 6587  2264 4164 4797  788 8159 9322  4798 5748 7150  913 4799 5206  1888 4799 5206  2115 4554 4800  1073 4554 4800  114 4801 10770  114 3688 4801  325 4802 7400  325 326 4802  179 3093 4803  1210 3901 7350  1210 4804 7350  1795 4805 7024  420 4805 7024  2622 4806 8168  884 4806 9721  548 4807 7637  2286 4807 7637  2251 3843 4808  1182 3843 4808  2904 4809 7339  4968 10044 10385  2263 4944 7186  1524 3563 4944  119 4811 8818  780 2948 4812  2195 2948 4812  3037 7185 10501  1401 4677 10567  2170 4814 9765  3967 7863 9765  2613 6263 10485  769 4815 5287  4816 5269 9739  1538 4816 5269  1744 5152 5756  1744 4817 5152  1856 4492 6625  1414 4820 6624  3019 9036 10292  1414 4818 4819  1856 6624 10315  441 5906 9097  810 4821 8220  1464 4994 9894  1308 4822 9927  2017 4822 9927  1828 5654 10092  4823 6527 10092  1378 4702 4824  2224 4702 4824  740 4825 8689  2111 4825 8689  707 4852 5983  2405 4853 9213  2515 4827 9163  3515 9164 9291  93 4828 9554  1915 4829 10496  974 4829 10496  4396 7156 9255  1327 8562 10757  1636 4842 6600  275 276 4831  778 3307 8908  778 4832 8908  1879 5552 10495  1879 4834 7373  637 4003 4834  1542 4003 4834  2528 6655 7419  628 3235 4835  4836 6332 10061  3020 4836 10061  2815 5790 6268  1320 5790 6268  2814 9621 10564  978 5486 9621  746 5372 7611  4751 5105 10882  4840 7250 9335  777 4840 7250  1786 3532 4841  1059 3532 4841  274 4842 7994  274 275 4842  759 6803 7101  759 4843 5359  1796 6248 10166  4844 5509 10698  2310 5767 6882  504 8114 10632  2063 4002 9888  2063 3526 5209  2444 4847 8559  4960 5781 10663  1064 7741 8267  2157 4848 8267  1614 3564 4849  421 3564 4849  1115 4850 8375  2577 9304 9305  934 3528 4851  1686 3528 4851  1504 4826 5983  1504 4852 5983  2368 7732 10483  4853 7732 10483  1504 4826 6985  1504 4854 6985  2183 4704 4855  710 4704 4855  1873 4268 4856  1033 4268 4856  1684 5761 10498  1684 4857 6640  1793 3697 4858  1453 3697 4858  2708 10146 10147  2708 10401 10589  4860 10146 10147  1413 4860 10147  2299 5704 8379  919 6843 8380  2489 4862 9797  4635 8635 9797  34 4863 10035  1458 3160 4864  712 3160 4864  205 7508 7564  1906 4886 7745  1864 5322 7745  3052 4867 5326  1566 3052 4867  1516 3207 4868  699 3207 4868  1054 4870 7708  606 3035 4869  1433 4869 7708  1433 4870 7708  1433 4871 8884  4871 5721 8884  622 4872 10089  4872 10089 10185  2757 4873 5356  2555 6565 9400  193 4874 6370  3344 4875 5092  749 4875 5092  456 3679 5479  456 4876 5479  1418 5874 8781  1418 6842 8781  756 3484 4878  1418 3484 4878  3083 4879 6992  3083 5294 9924  364 3009 4880  3009 4880 8704  1445 4564 10186  1445 4881 10186  4881 4882 8708  1445 4881 4882  2198 5764 7912  1080 5504 5764  2256 5532 5599  1917 4884 5532  1164 3693 8066  659 3693 4885  839 3853 4886  1906 3853 4886  2127 6428 8453  798 4887 8453  2122 3335 6265  2122 4888 6265  2610 8052 9738  912 3386 8770  1774 6260 7757  1774 5282 5283  701 4891 6861  701 3150 6861  2396 8756 8757  1498 4892 8756  2355 7814 10425  1498 4893 7813  4227 4894 6462  430 4894 8994  1062 4895 8628  1555 4895 8628  2161 4481 7331  1101 3498 5565  2318 8324 9627  799 6991 8233  1476 3345 10477  1198 3708 4898  1993 3480 7120  739 4899 7135  3274 4900 8332  1646 4900 10029  2842 10480 10723  2842 5816 10480  2251 4902 8542  568 4902 8542  1480 3423 4903  805 4903 9703  2711 10045 10046  1387 4904 10045  4473 7669 9965  433 4473 4905  1299 4340 7061  1299 4906 7061  2914 6141 6819  1373 2914 4907  1870 3179 4908  662 3179 4908  2639 7188 10474  473 4909 9821  2520 5946 9955  1313 4330 8944  4638 6576 9230  2101 4913 7126  3301 4912 6409  730 3301 4912  1597 4912 6409  1597 4913 5643  2628 4914 5515  460 6974 8236  1235 4044 4915  1544 4044 4915  1447 4916 9273  3022 4917 9273  2817 4918 10422  585 4917 10421  1447 3802 4918  732 3802 4918  2693 5453 7479  559 5453 7479  1345 4402 4921  2143 4402 4921  742 3687 4922  1932 3687 4922  4091 4923 8761  1284 4091 4923  1519 3374 10509  352 3413 4924  3529 7978 8162  1519 4925 7978  2437 4962 8982  1310 8459 8981  637 3752 4927  3775 4927 8670  1701 4928 5607  383 4928 5607  689 4929 4989  1795 4929 4989  3384 4930 6477  2466 5870 9960  4177 4931 5820  781 4931 5820  2399 4932 8721  2399 6086 9099  2567 9511 9512  2567 5710 10368  1729 3468 10327  1729 4934 6201  2251 4935 9362  1247 4935 9362  2184 4014 7771  2184 5850 9406  1439 3250 4937  533 5058 8578  858 3250 4938  1439 3250 4938  4258 4939 6250  973 4939 6250  312 313 4940  2123 4941 7436  1225 6395 7435  2022 4250 4942  569 4250 4942  638 3563 4943  2734 7864 10228  1524 4810 4944  4810 4944 7186  531 4945 10606  2089 4945 10606  3065 10523 10617  1695 8808 10523  2910 4947 9388  4947 5668 9388  3980 4948 8837  2831 4948 7163  2620 4949 9655  888 9008 10531  457 5662 6227  1746 6657 9233  2100 7412 7413  981 5030 8016  2112 5897 6452  741 3972 5299  1011 4953 7589  4574 5026 7589  1823 4257 4954  749 4257 4954  1731 5903 10083  4955 5903 10083  578 8498 8556  2437 4926 8981  1289 4282 4957  2455 6171 9016  3141 6573 6947  6571 6572 9168  2666 4341 4959  1299 4341 4959  2444 4847 9651  2444 4960 9651  2734 7864 10267  638 4961 9722  2437 4962 10897  951 4962 10897  3154 9093 10118  3154 9093 9799  1378 4964 6690  1378 3461 4964  1621 3898 5723  3898 5723 8071  1537 3446 4966  797 3446 4966  1537 3446 7967  1537 4967 7967  2307 4806 4968  884 4806 4968  753 6735 8823  2074 6735 8823  1548 4162 4970  505 4970 6123  1989 4972 7228  1989 4047 8376  2341 8438 10904  921 6305 7221  4973 9069 9371  1444 4973 9371  2665 5216 5238  1444 4974 9939  2216 4975 7574  4716 6938 9035  3150 6860 6861  394 5949 6753  208 3266 4977  1460 4636 6042  1460 4978 6042  1541 3129 4979  801 3129 4979  684 4793 5777  684 4980 5777  3479 6224 8428  3479 6224 8827  905 2867 4982  1448 2867 4982  1448 2867 4983  390 4993 8705  1473 4699 6135  1473 4984 6135  171 7651 10008  2322 4985 7651  4494 8891 9838  2492 8117 8118  2826 4987 10580  2826 6637 7982  2413 4988 5803  3749 8513 9422  2130 3954 4989  1795 3954 4989  395 4990 10301  395 3625 4990  2697 9928 10072  911 9865 9928  3204 4992 7787  5443 7161 8100  1791 4993 9108  4993 8705 9108  4821 8220 9894  1464 8220 9894  3032 7540 8771  1687 3032 4995  2570 4996 9648  873 6921 9647  2285 4997 9106  2285 3391 4997  1787 4998 8804  4599 6385 8804  2266 4999 8259  1007 6076 9948  916 4570 10011  916 5000 8458  3111 5001 5474  2487 5001 9118  45 5002 10783  3474 7917 7918  2816 4173 5003  588 4173 5003  1979 7527 8561  1979 5004 5035  2420 3283 7019  666 5529 8695  1733 4101 6946  4101 5006 6946  2206 5007 7325  545 5649 7323  2260 4059 7353  1912 3315 5009  1912 5009 5932  188 3579 5010  1584 5011 9345  933 5011 9345  2130 6921 7958  5012 6921 7958  2180 7374 7706  4344 7705 8415  5014 9509 10714  2901 5014 10614  110 5015 6720  1740 5016 10059  840 5016 10059  4424 5407 9776  5407 9776 10534  1450 5018 9487  1450 5117 9487  2052 5020 5021  1636 5020 5021  2051 5022 8747  2052 5020 5022  1636 4842 7993  1636 5021 6496  2053 5222 7675  2051 5222 7675  3252 5023 8899  1845 5500 6166  744 3502 5024  1857 3502 5024  2011 5025 7976  868 5025 7976  1011 5026 9968  2377 9909 9968  1966 5460 9684  1966 5027 7401  1087 5028 8473  2286 5028 9055  452 5029 7036  3010 5029 10492  4537 5030 8016  1511 4537 5030  1790 5748 8516  1511 5031 6393  3643 5032 5033  567 3643 5032  1209 5033 7779  1209 7779 9536  1696 5034 10411  2381 5034 8490  1136 3456 5035  1549 3456 5035  2081 5036 9905  766 5036 9905  684 5037 10366  2008 5037 10366  3080 5038 6046  1650 3080 5038  1846 3753 5390  1846 5390 5769  1552 5040 9403  881 5040 9403  1513 3332 5041  616 3332 5041  1031 7370 7771  2802 5714 10463  2572 5012 5043  1487 5012 5043  2605 9398 9399  2605 5044 9399  1568 5045 9084  5045 6352 9084  2496 6352 9084  741 5046 9085  1890 6605 6607  3364 6605 8581  1559 3457 5048  1162 3705 9449  1851 3866 6765  3866 6765 8778  2003 5050 9807  722 5050 9807  5051 5666 8825  3838 5666 8825  2765 5018 7528  482 5254 10346  948 5053 7018  2836 7206 10506  475 5542 6361  475 5054 5055  2560 5303 7761  2560 5841 7761  894 5056 7638  1962 5056 7638  409 7284 8383  2114 7284 8383  1531 5058 9806  5058 8578 9806  761 3256 5059  1531 3256 5059  2373 5060 7171  2476 5060 7171  3253 5061 6563  2607 5219 9754  516 4260 5062  2002 4260 5062  1669 5063 10593  5063 10590 10593  1405 4623 5064  8134 8135 9758  4241 8901 9341  1482 5065 9736  1424 5066 8311  1424 3063 5066  4659 5067 8090  1456 4659 5067  2794 7093 10312  768 5068 10313  1736 3937 6189  2633 4425 9654  671 5070 9652  1149 3108 9534  2655 6191 8875  1306 4308 5072  1487 4308 5072  3957 7556 9088  835 7556 9088  983 5074 9785  1471 5074 9785  1048 5075 10405  1048 5179 8339  1833 5076 10155  1090 9942 10155  3244 6261 6930  726 3244 5077  2697 5080 10073  1459 5078 10072  511 6631 8499  1459 6957 9920  1460 3565 8050  1460 5080 8050  1124 3530 6127  428 3530 5081  2360 5082 6081  1799 5082 5807  2664 4339 5263  2664 5083 5571  1905 3149 5084  745 3149 5084  2476 5085 9575  606 5085 9575  2256 7715 9938  492 4884 5532  135 3416 5087  5088 8807 9441  1919 5088 9594  2931 6674 7182  2155 5089 6674  1469 4844 10698  422 5090 5509  864 4275 5091  2014 4275 5091  1738 5093 7267  749 3108 5092  3108 5092 7267  1738 5092 7267  3211 5094 10906  3211 7354 8922  346 5095 10553  346 347 5095  2831 5096 9908  2831 7163 9908  3045 4900 10029  354 4372 10030  2469 5098 9424  1231 5098 9424  1034 5099 9741  1682 5099 9741  4124 5759 8471  1586 4124 8471  2056 5101 10065  1107 5101 10065  2231 7626 8446  833 5102 8446  777 4840 6037  1898 6148 6534  1627 3908 5104  2093 3908 5104  1595 4436 5105  2046 4436 5105  2431 5106 9107  2431 5106 10395  1923 4018 5107  1923 5107 7276  385 5108 8229  4047 7524 8229  3605 6586 10364  560 3605 5109  3174 5110 9813  1881 5111 9002  715 5111 9002  1698 5112 6941  2737 5112 6941  794 3471 5113  2314 5113 5574  616 3203 5114  1512 3203 5114  1610 4281 5115  1959 5115 5286  498 6062 9609  2116 5116 5779  2524 5117 9487  609 4331 9281  533 5118 8059  1512 5118 8059  3357 5119 7725  1123 5119 7725  2187 7672 9191  2187 5120 5221  1761 5863 7492  663 5121 7492  3935 8923 10056  1529 5863 10057  5088 6889 9089  2078 7499 7500  283 284 6093  284 6093 8698  3458 5125 8206  2415 6924 8832  4509 9518 9519  1008 4687 9520  2766 5239 10218  357 5127 10217  766 5036 8750  766 5128 8750  636 3890 5129  3890 5129 7561  1479 4126 5130  866 6050 7799  375 5131 9033  5131 8354 9033  5132 5984 8609  1183 5132 8609  47 5133 10527  939 5134 7265  3997 5425 7265  2133 7294 9798  1582 5135 7470  1577 5136 8126  1876 5136 10157  1876 5136 5137  1876 5137 9926  978 5138 6601  1888 5138 6601  663 5139 10519  1509 5139 10519  945 5140 9504  3143 6088 9504  3360 5141 8749  930 5465 7175  1127 3349 5142  1482 5142 5143  3349 5142 5143  732 3349 5143  2716 5144 10191  1472 5145 10192  5145 10192 10193  917 5145 10193  2212 5146 7358  2212 5146 5389  841 6389 6439  1575 5147 8182  476 5148 8240  476 3586 5148  1967 4449 5149  1325 4449 5149  2058 6401 8289  1806 6401 8289  830 5151 10545  2410 5151 10545  763 3491 5152  1743 3491 5152  1479 5153 7415  1967 5153 7415  2194 5590 8796  333 334 5154  3602 4572 5155  1494 3602 5155  1106 3501 5156  1494 3501 5156  3398 3425 5157  1366 3425 5157  1221 4379 10689  1221 5158 10689  2943 4744 6812  413 4744 6812  791 5160 8445  1669 8029 8445  1464 4994 5161  1464 3164 5161  613 3107 5162  1507 3107 5162  742 5163 8488  2147 3975 5746  1495 4197 5164  434 4197 5164  5165 10455 10456  1538 10247 10456  2255 3767 7602  1574 5168 7601  5167 5207 9418  1142 5167 9418  2188 7653 7654  1574 5167 5207  1352 4322 5944  1352 5169 5944  1264 3025 9545  2477 5170 8472  2245 5171 5172  815 5171 5172  2677 5308 6069  815 5308 6069  1859 5229 10429  1730 5173 10429  2752 5174 10696  1585 5174 10696  406 3934 5175  1786 3934 5175  2878 5176 5799  2474 4614 8110  4017 9553 9979  1344 3194 5177  629 3276 5178  1530 3277 5394  2818 8915 10575  1505 6737 10574  810 3232 5180  1714 3232 5180  736 5181 5699  736 4645 8520  1848 5182 10028  757 5182 10028  1898 6148 6556  817 6147 6148  2041 5624 7440  1652 5184 7396  372 3454 6004  372 5185 6004  1870 5186 9174  1097 5186 9174  1552 3148 5187  957 3148 5187  2410 4760 5188  1278 4760 5188  1704 3379 5189  944 3379 5189  104 5190 8677  99 3664 5191  1686 3664 5191  4115 7853 9618  1489 5193 7417  547 5193 9728  5193 7417 9728  594 5194 8374  2018 5194 8374  3414 5195 9062  1325 5195 9062  1429 4743 6162  5196 6162 10878  477 5197 5957  477 3143 5197  2963 4901 5198  411 4901 5198  1897 4566 5199  1275 4566 5199  386 5323 5912  2955 7551 9203  817 6147 10627  1103 4364 5530  802 4742 6223  2271 4742 6223  1514 3009 5203  364 3009 5203  3009 5204 8704  1514 3009 5204  1944 6458 8270  739 5205 8270  2333 3447 5206  1888 3447 5206  2188 5207 10099  2188 7654 10099  828 5208 9040  4170 7644 8868  3302 5209 8716  3302 5209 8203  1691 5159 6812  1691 2942 5210  1984 5657 10002  2976 5211 8527  190 5212 9171  2951 5213 7077  5213 10343 10344  2057 5214 10321  1195 5214 10321  2662 5215 5567  900 5232 9243  2665 5216 9940  1375 5216 5238  2786 6762 6763  2618 7220 9770  881 5617 10184  3239 5219 7810  1488 3239 5219  1488 5219 10127  1488 5220 10127  1496 5221 7450  5221 6145 7450  807 5022 5222  1618 5702 6589  4380 6228 8509  933 5223 8509  5224 6634 9926  1699 5224 6634  1699 5224 9442  1699 5225 9442  1033 5226 7794  1962 5226 7794  2421 8798 8799  857 3841 8801  1579 2981 5228  2981 5228 6419  696 3561 5229  1859 3561 5229  778 3307 5230  1715 3307 5230  1934 4617 7314  463 5231 6229  2662 5312 9243  1486 3797 5312  2833 6608 10650  1486 5233 10651  2663 5234 9930  900 3494 8039  3826 4576 5235  1836 4576 5235  2589 5236 9683  1244 7714 9682  229 4608 5237  2665 5238 10017  595 5238 10017  1348 4025 5239  2766 4025 5239  2526 8591 9038  448 5895 8591  1526 5241 6079  1526 3304 5241  3519 8996 9025  955 8370 9024  2426 4096 5243  2426 5243 7983  1260 4154 6604  1260 5244 6604  540 3583 5245  1762 3583 5245  2094 4246 7821  2094 5246 7821  1578 5247 5489  1578 5489 8734  1971 4456 5248  1971 5248 9848  2008 5249 7785  1022 5249 7785  1783 3065 10617  998 3065 5250  2643 9834 9835  1020 4469 9834  2643 4469 10632  1500 5251 9835  2384 8667 8668  1500 5253 8667  3134 5254 5922  2765 5254 10346  2169 7851 9354  5255 7851 9354  2167 7231 8273  506 6173 7453  143 3982 5257  822 5258 8732  5258 6333 8732  2580 9266 9588  1522 5260 9266  5260 9266 9589  875 5260 9589  779 3483 5262  1578 3483 5262  2664 5263 10302  902 5263 10302  1689 5811 7893  1688 5264 5813  1688 3381 5265  704 3381 5265  1689 3493 5813  446 3493 5266  1082 3405 6417  3405 6417 9194  3400 5268 9577  986 7364 9070  1538 4966 9681  1538 5269 9681  2592 5270 5404  2091 5270 9410  2006 3570 5271  1148 3570 5271  366 5908 6487  1750 5792 5793  1964 5273 7157  887 6402 6653  1265 8429 10449  2694 5462 6107  1549 5035 7527  1549 5275 7527  1549 3456 5276  499 3456 5276  2095 5277 8697  360 5277 8697  1539 3329 8497  1539 5278 5925  1539 5279 8295  438 5279 8295  23 5280 10290  2618 5617 10184  469 3239 9770  682 4342 5282  1619 4342 5282  1619 4761 5283  1421 4761 5283  4342 5284 6183  953 5284 6183  3596 5895 6408  448 6408 8992  1610 3417 5286  1132 3417 5286  1532 3245 5545  1532 5287 5545  1729 3468 5288  381 3468 5288  2000 5652 6453  1543 4495 5652  2918 8242 10674  961 2918 5290  95 6574 9598  1534 5291 6574  2058 5935 6113  1808 5935 6113  1404 4827 5293  3012 4827 5293  2487 5294 9447  856 6805 9117  2968 5295 7034  1083 5520 6664  923 5296 7717  2829 9713 10126  460 5297 6974  2602 5515 9597  2022 5298 10493  1290 5298 10493  741 4952 5299  2112 4952 5299  3100 5300 7489  2503 9032 9033  2352 5426 6745  3198 5426 6745  2511 7108 9368  2511 5302 9792  908 7438 7439  2560 6361 7510  1998 7281 10482  697 5305 10758  1767 5305 10758  4766 9292 10255  2028 6270 7599  1779 6270 7599  815 5171 9426  815 5308 8088  2429 3517 5309  612 3517 5309  2710 5311 9676  266 5310 8842  1520 5310 5311  1486 5232 5312  5232 5312 9243  1357 4119 5313  1915 4119 5313  91 3536 5314  1770 3536 5314  2227 5315 5420  1587 5315 5420  1902 3185 5316  206 3185 5316  1590 5317 10622  1590 5464 10622  1965 3460 5318  3460 5318 10653  3225 5319 5320  1109 3225 5319  1298 4339 7984  1298 5320 7984  3916 8695 9081  2420 8695 9081  438 4369 7776  438 5322 7776  3659 5200 5323  1563 3659 5323  956 3173 5324  2457 5324 6766  3695 6537 8678  1546 6537 8678  1740 3057 10059  1527 7584 9600  4527 5327 9453  1527 4527 5327  2934 9736 9952  2934 5328 6523  682 3568 5329  1594 3568 5329  2536 6677 8203  2536 5330 6289  622 4872 5331  4872 5331 8131  182 5332 10206  3407 8175 9879  1082 3407 5333  1179 3507 10447  5752 8752 10730  1520 5310 5335  2363 5310 5335  2530 5336 10369  830 5336 10369  1710 3898 5337  865 3898 5337  642 5338 7750  3558 6294 7750  2315 4526 5339  1510 4526 5339  2994 5340 9187  1351 5340 9187  2445 4441 9260  2445 5341 9260  1035 3220 5342  1551 3220 5342  3218 5342 5343  1551 5342 5343  920 5344 5531  4002 9488 10666  858 4938 5345  1937 4938 5345  579 5274 8639  2627 7383 9545  2608 9644 9645  912 4889 9644  112 6195 10242  1653 5348 8518  2346 4780 5349  6817 8181 10408  1881 5350 10331  1194 5350 10331  368 4265 5351  2213 7806 10683  4626 5352 7640  355 5352 7640  625 3118 5353  625 3790 5353  2056 5100 5354  846 5100 5354  2585 9664 9666  1639 4147 9664  1639 3375 5356  829 3375 5356  1639 4147 5357  4147 5357 7877  1234 5358 10423  1928 5358 10423  1427 3506 5442  1427 5359 5442  4789 5360 7490  496 4789 5360  2544 9502 9503  1663 5361 9502  1663 4794 5362  705 5362 6962  2546 9239 9240  528 5958 9239  1631 5365 7559  1631 5364 7559  3034 5365 7559  921 3034 5365  3168 7280 7955  1553 3168 5366  1791 3223 5367  3223 5367 6098  2867 8705 9108  2867 9108 10528  3944 5671 8954  1720 5671 8954  744 7381 7413  2150 7379 7381  1624 5372 7298  872 5371 8495  2047 4751 5682  746 4751 5682  1555 3497 5373  1064 3497 5373  1155 3881 5374  1535 3881 5374  2156 4447 8313  1535 5375 7227  2103 7200 9378  1536 5376 7200  1925 7000 9124  1925 6425 9124  5378 7968 7969  1544 5378 7969  1319 5379 6920  1916 5379 6920  1069 3277 5380  1973 6317 6319  3231 5381 8416  1708 6058 8144  3977 5382 6447  2793 9285 10165  362 3119 5383  1540 3119 5383  1540 3119 5384  1039 3119 5384  2478 6374 10468  2202 6374 10468  2339 5414 6096  2339 5386 5414  2044 5387 6240  907 5387 6240  2513 5388 9159  1223 7139 9158  1911 5389 10646  539 5389 10646  798 5039 5769  798 5390 5769  412 3012 5391  2758 6905 9278  1159 5392 9691  2024 5392 9691  1668 5393 8284  3629 5899 8284  1530 5178 5394  3276 5178 5394  709 5395 5477  5794 7631 10064  2243 5396 8575  1145 5396 8575  1726 3300 5397  1283 3416 8475  1397 4643 5398  1618 4643 5398  1572 3490 7009  1572 5399 7009  3314 5400 6511  3314 5400 8502  2349 8468 9538  2349 8102 8103  1063 3326 6023  1063 5402 6023  2663 3495 5403  1113 3495 5403  905 4982 5404  2367 4982 5404  2605 9150 9398  1570 5405 9399  458 5406 8089  1841 5406 8089  1542 4003 5663  1628 5407 8977  197 3318 5408  1713 4600 5409  1441 4600 5409  677 2997 5410  2997 5410 5786  5369 5411 8937  1721 5411 8937  1767 3495 5412  463 3495 5412  2509 5413 8718  481 8421 8719  2057 6351 6547  1760 6095 6351  2131 3117 5415  816 7823 10330  1293 3343 5416  1553 3343 5416  1050 5417 6524  1050 2948 5417  1330 8323 8791  2674 7280 9693  3396 5419 8917  2462 5419 8917  645 3412 5420  1587 3412 5420  1598 5421 9075  3677 5633 9075  1389 4644 5422  2230 4644 5422  1466 5862 10888  2822 8312 10573  2195 4812 5424  7462 7463 8998  939 5425 7265  2731 3702 9672  5426 8611 10157  427 5426 10157  3226 6152 8293  685 6152 8293  927 4697 10274  927 5428 10274  31 4301 5429  776 3840 5430  2026 3840 5430  2444 4960 8558  4847 8559 8568  1016 4987 7982  2826 4987 7982  3721 5433 8109  2497 8292 8978  1329 5434 10750  2077 5434 10750  2262 7723 8179  2262 7722 7723  2387 7722 7723  679 4628 7754  2133 5437 7933  5135 7470 7933  1984 5658 8527  1984 5438 7390  4753 8049 10182  158 3609 5439  1550 5164 5440  434 5164 5440  377 5773 6017  377 5441 5766  553 5442 8091  2067 5442 8091  1981 5443 10253  490 5443 10253  469 5281 8209  469 5444 5734  1598 5421 7979  1598 5445 7979  2458 8256 8401  833 3792 8456  631 4791 6949  2826 5447 10581  1588 5448 8373  1588 5449 8373  4114 5449 8373  1316 4114 5449  2597 9496 9498  1588 5448 9497  1246 3921 5451  1884 3921 5451  2809 6380 8829  2093 6380 8829  559 8399 9612  559 4920 7479  2219 3400 8057  3675 8058 10271  4450 8212 10555  1712 5455 8212  1205 3585 5456  2460 5456 8723  2319 4208 5457  893 4208 5457  1861 3167 6293  2737 9679 9680  335 4330 5459  335 336 5459  5131 5460 9684  375 5131 5460  1554 2954 5461  572 3970 10144  1607 3147 5462  996 3147 5462  2735 7535 9272  2735 5463 9271  2667 5464 10622  2667 5464 5540  930 5465 9892  3360 5465 9892  1832 4382 7169  1832 5466 6712  1003 3014 5467  1003 3989 5467  1727 5468 9749  1727 9718 9749  977 2915 6982  641 4117 6980  2327 4976 8003  394 4976 8003  965 4009 5471  965 5471 10358  1236 5472 5831  2098 5472 5831  1596 2993 5473  1410 2993 5473  4529 5473 5474  611 4529 5474  1562 5475 9900  3995 7007 9900  480 4490 5476  1562 4490 5476  1453 9965 9973  1453 3697 5477  371 3464 5478  1839 3464 5478  5479 5771 10440  1191 5771 10440  769 4074 5480  1705 4074 5480  2572 8990 10167  471 5481 10167  709 5482 6967  709 3697 5482  1346 5483 8184  1746 5483 8184  1508 5256 5484  2882 5256 5484  1815 3879 5485  941 4681 7158  1565 5486 10562  1565 5487 10562  5487 10562 10563  612 5487 10563  1971 5488 10487  1174 5488 10487  201 5489 10189  399 5490 9510  2422 5490 9510  2040 4593 7775  2040 5491 7775  2153 6222 8338  752 6222 8338  2767 10249 10251  865 4108 10249  2366 5383 5494  1540 5383 5494  4671 5495 7836  589 4671 5495  3534 8865 8866  1581 3534 5496  947 4235 5497  2623 4884 7822  2902 7496 7739  2121 5498 7496  2499 7488 10335  2499 5499 6256  1111 4006 6166  1851 4006 6166  2477 5170 8844  2477 5501 8844  1960 4018 5502  2730 9220 9221  2140 5503 7273  993 5503 7273  2381 5504 9013  1080 5504 9013  2179 5505 8519  1437 5505 8519  1996 3732 5506  724 3732 5506  2672 5007 6143  2672 5507 6273  470 5431 8559  5431 8559 10724  1796 4602 5509  422 4602 5509  1800 3949 5510  2170 3949 5510  435 3422 5511  1603 3422 5511  5512 8370 9024  2516 5512 9024  1590 5513 10049  1590 5514 10049  2689 10049 10136  397 5549 6784  2602 7536 8779  460 5515 9597  2628 9814 9815  890 5516 9814  2162 5517 8247  851 5517 8247  867 4430 5518  2296 4430 5518  1859 5519 10678  1177 5519 10678  1083 5295 10406  1083 6664 10406  1940 3912 9201  1940 5521 6845  3115 5522 7780  2683 5522 7782  2358 5523 9153  1321 3124 5523  1665 5525 6678  428 5423 10453  1665 3284 5525  654 3284 5525  2668 5526 9766  898 5526 9766  291 292 5527  1617 3935 5528  3935 5528 8923  3916 5529 8695  1617 3916 5529  1103 5201 5530  2236 5201 5530  3839 5344 5531  1666 3839 5531  492 5086 5532  2256 5086 5532  1615 3610 5533  166 3610 5533  167 5534 10135  5534 5535 10135  2125 7756 9764  3056 5535 7550  3845 5536 9365  1763 3845 5536  2007 5537 10892  1253 5537 10892  1591 5538 9996  909 9747 9810  3169 5513 5539  1592 3169 5539  1757 5665 6870  1757 3978 6870  1592 3169 5541  624 3169 5541  475 5542 9846  5542 9845 9846  462 5543 7491  5543 5979 7491  1985 6194 9003  1985 5544 5931  3245 5545 9614  6956 9433 10601  1725 5546 7834  568 5546 7834  2305 5547 8234  959 5547 8234  1673 2905 5548  649 2905 5548  4326 5549 6784  1673 4326 5549  1673 3146 5550  935 5550 8813  809 7123 7940  2174 5551 7545  2263 4944 7612  1879 5552 7613  2637 5553 9018  2770 5553 8976  1584 3040 9345  1583 3040 5554  2553 5734 8210  1601 5444 5734  879 5556 9338  879 9096 9338  1602 3365 5557  646 3365 5557  1467 5558 9944  2304 5558 9944  1745 3835 5559  828 3835 5559  2076 3482 5560  819 3482 5560  1417 4335 5561  3172 4335 5561  2409 8221 9474  925 5468 6108  1117 3366 5563  1693 3366 5563  2632 5564 9789  1722 6133 9787  1101 4896 5565  2161 4896 5565  1125 3554 5566  1809 3554 5566  1239 3967 5567  2171 3967 5567  975 3354 5568  1616 3354 5568  889 5569 9596  5569 6693 9596  2252 4935 5570  1247 4935 5570  2639 4973 5571  1444 4973 5571  371 5572 9113  2491 5572 9113  1108 7918 9591  2594 5965 6622  794 5574 7290  2313 5574 7290  251 3272 5575  251 252 5575  1820 4052 5576  202 4052 5576  6076 8258 9948  2266 5577 8258  494 4485 5578  1747 4485 5578  1626 3380 5579  3380 5579 6668  367 3939 9904  2419 8852 8853  1923 5581 8442  984 5581 8442  1252 4768 10359  2561 9349 9350  520 3823 5583  2062 3823 5583  5584 10140 10141  792 5584 10141  628 3929 5585  2297 3929 5585  684 3620 10366  1625 3620 5586  2985 3969 5587  1119 3969 5587  2834 5588 9742  1203 5588 9742  1814 3685 7876  1814 5589 7876  332 5590 10571  332 333 5590  1587 3086 5591  424 5591 10060  1607 4111 5592  434 4111 5592  561 4175 5593  2624 4175 5593  2887 10409 10410  676 5594 10409  1570 5405 5595  625 3118 7266  604 4819 5596  2393 4819 5596  620 3472 5597  1593 3472 5597  2799 6233 10418  1674 5916 10448  1918 4235 5600  1917 4235 5600  2211 4524 6618  1918 4524 6618  2488 3747 8505  2488 6641 6849  3230 9144 10895  1797 5602 9144  1526 3166 5603  3166 5603 7796  349 4442 8032  1728 4442 5604  3870 8418 8664  2428 5605 8418  3628 5606 5697  1703 5606 5697  2328 3968 5607  383 6726 7960  2751 7702 8529  509 6026 10285  2305 5546 5609  568 5546 5609  5025 5610 10246  868 5025 5610  2234 5610 8890  878 5611 6955  1658 5612 8466  1138 5612 8466  681 4689 10413  681 5613 10413  1092 7429 9636  2099 7429 7430  2646 5147 5615  1575 5147 5615  484 4351 6499  2204 6539 7530  2618 5617 10671  1506 5617 10671  1226 3007 5618  1629 5618 8404  76 7226 10773  1426 4704 6331  1426 5620 6331  2029 5621 7828  555 5621 7828  2128 4540 5622  488 4540 5622  2234 5610 5623  868 5610 5623  820 5184 7396  820 5624 7396  5625 5788 6809  5786 6455 6809  675 3645 8869  675 5626 6642  2435 5047 5627  2435 5627 5646  771 4740 5628  2228 4740 5628  1323 4428 5629  1657 4428 5629  1949 4231 5631  1206 4231 5631  1830 3464 5632  871 4913 5643  2458 8594 9661  1598 5446 8401  4829 7568 10594  1915 4829 10594  2106 5054 5635  475 5054 5635  2442 4952 5636  741 4952 5636  1555 3497 5637  1062 3213 8628  2774 6788 10378  2774 2882 5638  1641 3393 5639  353 3393 5639  1810 2981 6419  1810 3478 6419  1066 5641 10097  1990 5641 10097  936 3371 5642  2439 6372 8127  871 5632 5643  1830 5632 5643  1748 5644 10386  5644 6773 10386  1748 5644 7838  1748 5645 7838  2434 5646 7207  837 6808 10320  2007 5537 6733  2868 5537 6733  1914 5648 9630  569 5648 9630  2079 4139 5649  545 4139 5649  1764 2990 5650  1297 2990 5650  291 5889 9659  1608 5651 5889  1543 5289 5652  5289 5652 6453  2849 7847 8630  2849 8630 9841  1828 3826 5654  747 3826 5654  2034 3384 6477  1828 5655 7329  384 5502 5656  1960 5502 5656  1171 3647 5657  1984 3647 5657  5211 5658 8527  718 5211 5658  3805 6847 8548  2132 6847 8548  2829 7351 9713  923 5660 10126  3136 5661 6018  2426 6896 7983  1746 4950 5662  4950 5662 6227  5407 5663 8977  1312 5407 5663  910 5228 5664  910 3808 5664  5540 5665 6870  1591 5540 5665  720 3773 5666  1623 3773 5666  184 5667 10824  2893 8687 9866  1966 5027 10652  2567 5710 5711  2407 5669 8403  1216 3943 5671  517 3943 5670  3943 5670 5671  1720 5670 5671  4386 7341 9175  1017 7341 9175  818 5673 6363  1886 5673 6363  3184 5207 9418  3184 5674 6481  2510 5676 8866  2510 5676 9784  617 3591 5676  1611 3591 5676  2181 5677 9622  1075 5677 9622  2829 7351 10612  1742 5678 9713  1613 3352 5679  554 3997 6895  954 3369 5680  2113 3369 5680  396 4427 5681  1677 4427 5681  1624 4453 5682  2047 4453 5682  2797 7650 10470  517 4186 7650  1887 3187 5684  3187 5684 9380  1887 5684 7539  985 5685 9558  85 5686 7356  85 5741 7356  4345 5687 9127  3690 5687 9127  4414 5688 8086  419 4414 5688  4772 5689 10682  2003 4772 5689  1649 5690 9917  2880 5691 9917  5691 10153 10154  1104 5691 10153  2372 6751 7932  1649 5691 10154  1826 6552 7848  1212 4118 10259  4833 5694 10052  1879 4833 5694  1506 3582 6437  1506 5695 6437  1869 5696 8563  1869 6462 8563  471 3305 5697  1703 3305 5697  1703 5698 9969  5698 8075 9969  5181 5699 7698  2690 5699 7698  444 6598 6760  2071 5700 6760  40 6454 8176  40 5261 8176  2053 5703 6589  2053 5222 6589  1618 4643 5703  599 4643 5703  461 5704 7615  2299 6976 8380  2588 5705 9128  2588 5705 6606  3901 7350 8739  1670 4804 7350  5076 9942 10155  2527 5707 6090  2286 7755 9055  1855 5708 9055  3532 5709 7449  1786 3532 5709  5669 5710 8403  990 5669 5710  5618 5711 9409  1629 5618 5711  210 5712 10800  803 5713 10626  2226 5713 10626  2801 5714 10460  1523 6278 10459  1992 4462 7248  486 5905 8633  472 5716 7765  2995 6133 7765  1630 3760 5717  565 3760 5717  2061 7142 9737  1630 5718 7143  1156 3760 5719  1630 3760 5719  829 3375 5720  1941 3375 5720  5721 10442 10443  1886 5721 10443  2340 4426 8352  1714 5722 8360  365 4965 8071  365 5723 8071  2128 5623 5724  868 5623 5724  2242 5724 5725  770 5725 8478  1651 5726 9498  5726 9361 9498  2597 9361 9498  370 5727 9496  2127 7319 7320  493 5888 7319  2891 5728 5729  964 6066 10547  1622 2892 5730  627 2892 5730  1110 5731 7060  2392 5731 7060  2229 4006 5732  1111 4006 5732  2781 9642 10431  1185 8382 10430  1601 5555 5734  5555 5734 8210  1774 5282 6449  1774 5735 6449  2191 5736 6239  841 5736 6239  607 3027 5737  1852 3027 5737  1722 3944 5738  671 3944 5738  654 3284 5739  3284 5739 10613  3976 5739 5740  1664 5739 5740  84 5741 7356  331 3281 5742  331 332 5742  1676 6790 7655  417 5743 7562  2548 8367 9549  2548 8224 8367  3420 3987 5745  1390 3987 5745  2147 5163 5746  742 5163 5746  5747 10306 10307  882 5747 10307  148 5748 8516  3094 6139 10134  1770 3094 5749  3802 5750 8272  2294 5750 8272  1063 3327 9852  647 3327 5751  1180 3453 5752  2325 3453 5752  2235 5753 6944  938 5753 6944  2005 5754 8755  440 6440 7137  889 5726 9361  2603 7536 8779  1743 5756 9093  762 5756 9093  3573 3868 7720  3573 7551 9203  2091 4596 5758  1261 4596 5758  2122 3335 5759  846 3335 5759  665 3183 9761  1142 3183 5760  5761 9296 10498  885 5761 9296  1684 4857 7699  1684 5762 6341  905 5404 5763  2592 5404 5763  1080 4883 5764  4883 5764 7912  5765 7105 8217  2029 5765 7105  1605 3208 5766  1781 4737 8534  1230 6508 6882  2550 6508 6882  496 4789 5768  2764 4789 5768  1650 9480 9839  1650 5039 5769  1658 3749 5770  544 5770 8514  2386 5771 8523  1191 5771 8523  1771 3901 7322  2599 5772 6320  2568 5773 10200  2568 6991 10200  1634 2921 5774  491 2921 5774  976 2921 5775  1634 2921 5775  1293 4001 5776  4001 5776 9951  1585 3579 5777  1585 4793 5777  938 6734 8934  2519 7655 8222  498 5779 9851  4639 7367 9851  1557 2958 5780  1020 2958 5780  3210 5781 7900  2973 5781 10399  1207 3717 7929  1207 5782 7929  3718 5782 5783  454 3718 5783  1859 5784 8487  1202 5784 8487  1197 4201 5785  3260 4201 5785  1848 6455 6809  1848 5625 6809  1661 5410 8953  1661 5787 8953  3886 5787 5788  1661 5787 5788  1122 4916 9816  1122 5789 9816  5790 9276 9697  1320 8810 9698  1750 5272 10635  1750 5791 10635  366 5792 8330  366 5908 8330  852 5793 7152  1750 5793 7152  3262 5319 6967  1643 3262 5794  1435 3265 10687  2414 6350 8921  5646 5796 7207  2435 5646 5796  2648 5797 8156  1009 5797 8156  928 3078 5798  2730 5798 6339  1023 8665 10610  1023 5799 7362  1398 3477 5800  1398 2963 5800  1515 5801 6874  1515 3617 5801  5802 8132 10168  381 5802 10168  1334 4214 5803  1644 4214 5803  439 5804 5805  2247 5804 5805  2457 5805 6766  2247 5805 6766  1811 5169 5806  2604 5169 5806  2239 5833 10579  776 5833 10579  1841 5406 7213  1841 5808 7213  2712 5808 9972  1841 5808 9972  2690 5810 9993  634 6330 7979  1689 5811 9154  5264 5813 9154  2742 10173 10174  1689 3493 10173  1688 5266 9022  1688 5813 9022  1443 4604 5814  1681 4604 5814  1681 4604 5815  620 4604 5815  1187 3832 9757  411 3832 5816  1037 5817 7306  2062 5817 7306  2214 4448 5818  2214 5818 10446  1315 3573 7551  1315 5819 7551  1996 3068 5820  781 3068 5820  1830 5821 7224  371 7224 9026  2507 5822 9253  1715 5822 9253  952 5823 6471  952 3086 5823  1743 3491 5824  1159 3491 5824  1991 4305 5825  619 4305 5825  154 5826 8486  3017 5306 9380  1379 4766 10255  2450 5828 8995  2450 5828 10454  1645 4332 5829  1478 4332 5829  2103 4383 5830  1181 4383 5830  738 5966 8545  738 5965 5966  1832 5466 8870  1832 5832 8870  1800 4480 8158  4480 8158 10177  3072 6249 7422  536 6249 7422  204 7508 7564  876 5836 7793  2595 5836 7793  805 4314 6392  2059 5837 7503  502 3440 5838  1648 3440 5838  1648 5839 10535  5839 7124 10535  3189 6517 10437  642 3189 5840  1739 4767 5841  1011 4767 5841  4884 5842 7822  1825 5842 7822  577 5843 8363  1662 5843 8363  1662 5845 7069  1662 5844 7069  5845 7069 8328  1151 5845 8328  1030 3259 5846  1647 3259 5846  1679 5847 9893  472 5847 9893  2718 9976 9977  917 5848 9976  2447 7565 8947  653 5954 7565  1937 4938 5850  1439 4938 5850  337 338 7770  338 5851 7770  4169 8902 8903  2417 5852 9335  1657 5629 5854  1657 5853 5854  1677 3756 7405  1677 5854 7405  477 5855 6979  477 3755 5855  2978 8532 8690  2500 8532 8690  424 5857 9723  2552 6179 9723  1741 3086 5858  952 3086 5858  1769 3939 5859  2514 3939 5859  1933 3751 5860  571 3751 5860  717 3734 6230  3734 5861 6230  2855 6678 10888  1776 6678 10888  2775 8023 10057  1761 4783 8023  2242 5864 8743  1133 5864 8743  505 2926 5865  2926 5865 5894  3651 5866 9535  1176 3651 5866  2059 5441 5867  377 5441 5867  1806 5868 10538  1015 5868 10538  513 3608 5869  1735 3608 5869  2547 4085 8469  1735 5870 9054  3833 8145 10145  660 5871 8836  1687 5872 10180  926 8385 10180  2056 5873 10203  43 5873 10203  1418 4877 6842  4157 6842 8781  2192 6988 9895  2192 5874 9895  1187 5876 9757  1678 5876 9757  859 3596 5877  1807 3596 5877  1762 5878 9657  1762 5245 9657  1655 3746 8980  1655 5879 8980  2000 3639 7478  369 3639 5880  2614 9432 9434  1656 5881 9432  1656 3310 5882  3310 5882 5942  649 3310 5883  1656 3310 5883  811 4739 9274  811 5884 9274  4458 5885 9446  1654 4458 5885  1844 3543 8308  1654 3543 5886  711 4043 5887  1778 4043 5887  2127 6428 7319  1778 4887 6428  5527 5889 9702  1608 5889 9702  1719 3267 5890  667 3267 5890  3138 6631 8074  511 6631 8074  2449 6796 7042  1987 5892 6796  1153 3598 8583  1153 5893 8583  2907 5894 10745  1471 4305 10744  1807 5895 7251  1807 3523 7251  1896 5896 6089  3757 6089 9257  2112 5299 6497  1112 3525 5898  2230 3525 5898  1668 3628 5899  1157 3628 5899  1530 4231 5900  1530 3277 5900  1366 4145 5901  1366 3425 7153  4501 6359 10133  5902 6359 10133  5903 5904 7132  4498 6026 7132  760 4049 5904  1732 4049 5904  486 5905 10076  1992 5905 10076  1856 5906 10315  4820 6624 10315  2666 5216 5907  1375 5216 5907  1772 5272 8330  1772 5908 8330  5909 10636 10637  1463 5909 10637  4594 5909 5910  831 4594 5910  4366 9379 9517  2351 9379 9517  5757 5912 8244  386 5757 5912  1003 3012 5913  1709 3012 5913  4431 5914 5915  584 4431 5914  1674 2905 5915  1326 5915 9678  649 5916 10623  2799 5940 10623  1809 4248 5917  1288 4248 5917  974 4829 5918  974 6146 6656  1773 5735 6449  1773 5919 6449  246 5920 10846  1690 3134 5921  3134 5921 6848  5922 8787 10190  482 5922 10190  655 3228 5923  1690 5922 8787  1489 4211 9992  4211 5924 9992  3170 7798 9395  2316 7798 9395  2409 6108 8421  1700 4251 8420  1701 3580 5927  657 3580 5927  5928 9914 9915  1700 5928 9915  3580 5928 5929  1701 3580 5929  657 3580 5930  1700 3580 5930  1095 5931 9513  1095 7511 8326  1985 5932 6194  531 5932 6194  944 3379 5933  1702 3379 5933  1702 5933 8025  1702 5934 8025  3523 4306 10400  1808 4306 5935  690 3681 5936  3002 5936 10434  3436 9804 10198  1203 3863 5938  3863 5938 6479  1331 4097 5939  1955 4097 5939  1675 3310 5940  649 3310 5940  6233 8230 10418  416 8400 10516  2865 10887 10896  951 5942 10887  1304 3813 5943  2677 5308 9906  3324 5944 10323  4322 5944 10323  1487 3305 5945  1487 4308 5945  929 4472 5946  2194 4472 5946  654 3976 5947  1902 3976 5947  1552 3148 5948  1552 3828 5948  1737 2917 5949  394 2917 5949  2355 5949 10425  854 5950 7814  2916 8253 10054  977 5951 10055  4056 5114 10576  761 4056 5952  1937 6797 8444  1937 5851 8444  1680 5954 7565  1680 3560 6998  1680 3560 5955  3560 5955 6635  1680 2881 5956  957 2881 5956  1784 3755 5957  477 3755 5957  2546 9239 10162  2546 6305 6643  2672 5959 6273  545 5959 9529  1930 3629 5960  1157 3629 5960  2351 6217 9379  1188 6217 9379  5653 7113 9668  2971 10075 10457  2694 5462 5963  996 5462 5963  2401 4170 8649  2401 5964 7642  2098 5831 8545  2098 5966 8545  2097 4019 5966  2098 4019 5966  5706 5967 8526  1671 5967 8526  505 4970 8707  505 5968 8707  1014 3055 5969  1615 3055 5969  2103 3730 5970  675 3730 5970  1842 5971 7051  730 5971 7051  686 3987 10093  686 5972 10093  430 3985 5973  1780 3985 5973  2621 9687 10263  888 5974 9685  3726 7336 8636  600 7336 8636  2635 5976 7147  1370 4724 9624  1824 5977 10499  2821 5977 6564  2057 5214 5978  5214 5978 9593  1592 3132 5979  1804 3132 5979  5876 5980 8836  1678 5876 5980  1873 3940 5981  458 3940 5981  3324 5982 6839  1811 3324 5982  1892 4022 5983  707 4022 5983  2095 5984 9539  758 5984 9539  2086 4034 6281  351 4034 6281  982 5986 10273  2582 5986 10332  2653 3930 9862  1566 8506 9861  1553 3343 5988  640 3343 5988  2720 4081 8156  3769 6999 7237  2332 3590 5990  465 5762 6341  2857 4257 9250  8 7700 10360  3152 5678 9877  1178 3152 5992  1717 3113 9043  1717 5993 9043  1717 5993 10123  1717 5994 10123  899 4036 10582  899 4036 5995  1922 3700 5996  963 3700 5996  1922 3572 5997  503 3572 5997  939 5134 5998  2732 5134 5998  2842 5816 6689  1398 4901 10723  673 6000 7581  6000 6782 7581  1213 6001 8291  2456 6001 8291  1497 5938 8408  4190 7307 10615  2301 6003 9537  2301 6003 7016  3454 6004 10890  3355 6004 6438  2856 5436 6005  679 5436 6005  2616 8205 10077  2652 6525 9704  1692 3236 6007  494 3236 6007  1692 3981 6008  3981 6008 7065  6009 8930 10279  1854 6009 10279  996 3147 6010  1854 3147 6010  1854 6011 10202  6011 7402 10202  674 6012 8231  2573 6012 8231  1074 3593 6013  1687 3593 6013  1687 3032 6014  514 7480 10403  1251 4113 8014  4113 8014 9638  2612 6016 7807  897 4141 9562  377 5766 6017  1781 5766 6017  3391 6018 6019  1131 3391 6018  1503 3896 9411  725 3896 6019  1865 4199 6020  688 4199 6020  1845 4172 6021  1004 4172 6021  1729 4934 6022  4934 6022 6969  1852 3633 6023  3633 6023 9727  2347 5581 6024  984 5581 6024  797 6025 6880  2418 6025 6880  2751 6026 10285  1731 4200 7702  875 6027 7566  2350 6027 7566  358 10034 10239  2600 8133 9632  1763 3845 6029  733 3845 6029  1691 2961 6030  655 2961 6030  5159 6031 8218  973 6031 8218  1848 3485 10028  1723 3485 6032  1723 3485 6033  1034 6033 6455  1452 4432 7378  1452 6034 7378  2288 6044 7724  1685 4104 6044  1242 6036 7889  2244 6036 7889  1898 6534 8413  1732 5103 6037  1150 3188 9743  737 3188 6038  2512 6039 10561  1533 6039 10561  2404 4196 7743  1957 6040 8859  1957 3625 6041  395 3625 6041  2478 6042 7521  2478 4636 6042  1388 3575 8172  3575 6043 8172  1685 6035 7724  1685 6044 7724  1634 5774 6045  2637 5774 6045  2159 7819 7820  1779 6047 7819  1455 5307 6047  1779 5307 6047  2356 6050 10148  2357 6048 6050  450 4796 6531  450 6049 6531  2356 4126 7799  2356 6050 7799  1686 3537 6051  2813 3528 10208  1833 3834 6052  3834 6052 7476  808 5021 6053  2052 5021 6053  6054 6204 8747  451 6054 6204  1351 4477 6055  2921 4477 6055  1708 3240 6056  1059 3240 6056  593 3240 6057  1708 3240 6057  2277 7997 8144  914 7996 7997  1078 3386 6059  3386 6059 8770  369 5880 10476  369 6060 10476  2660 5866 9535  2660 6063 9933  1766 6061 10512  1766 6062 10512  6063 7461 8675  1766 6063 7461  2589 3392 10286  1461 6723 10709  2498 5621 6383  555 5621 6383  6066 10547 10548  1694 6066 10548  853 3574 6067  2178 3574 6067  160 3741 6068  2046 3741 6068  2246 4088 6069  2677 4088 6069  4294 6988 8956  1755 4294 8956  2303 4359 6071  627 4359 6071  2899 6072 6533  593 3202 6536  1068 3588 6073  3247 6073 7727  698 6074 10680  2912 6467 10680  359 3513 6075  1843 3513 6075  2266 8258 9948  1843 6076 8258  3114 4228 6077  1021 3114 6077  1716 3619 6078  669 3619 6078  2451 5241 6079  860 8991 9935  1499 3949 6080  1800 3949 6080  6080 6081 9188  1800 6080 6081  1093 3255 6082  3255 6082 9735  3323 7516 10461  3323 6083 7516  1804 3403 6084  892 3403 6084  2033 3924 6085  729 3924 6085  1756 3723 6086  946 3723 6086  1782 3723 6979  1756 3723 6087  1756 2982 6088  2982 6088 7033  5896 6089 7372  763 6089 7372  1090 3309 6090  1896 3309 6090  813 3995 6091  2515 3995 6091  1377 3113 6092  1640 3113 6092  2151 5124 8698  2151 6093 8698  459 3418 8051  1132 3418 6094  842 3595 6095  1760 3595 6095  1760 3595 6096  1208 3595 6096  550 3764 6097  550 3503 6097  1859 3561 10678  696 3561 6098  1177 6099 10007  1792 6099 10007  527 4310 6100  1792 4310 6100  2472 6101 10390  2472 7342 10390  2562 9207 9208  1001 6102 9207  438 4369 6103  3057 4369 6103  2920 6104 9041  2920 6104 6741  1805 3776 6105  745 3776 6105  1805 3859 6106  578 3859 6106  2694 5274 6107  1265 5274 6107  5562 8221 9474  925 5562 9474  860 6109 9935  2847 8991 9935  5981 6110 9833  1036 6110 9833  6438 7125 9440  792 6438 7125  1831 6112 7044  3567 6112 7044  825 3425 6113  2058 3425 6113  2473 6114 9092  2473 6114 6347  791 3813 6115  1877 3813 6115  4318 6116 7305  1877 6116 7305  990 5856 6117  2783 5856 6117  1718 4444 6118  4444 6118 7805  667 3267 6119  1718 3267 6119  1475 3382 6120  3382 3562 6120  2201 7363 9673  2201 6121 7363  2754 7671 7672  2754 6122 8045  4162 4970 6123  1785 4162 6123  691 7674 8494  691 6124 8047  5986 6125 10332  982 5986 6125  1071 3489 6126  1897 3489 6126  3530 5081 6127  1611 5081 6127  1345 4299 6128  1747 4299 6128  1160 3978 6129  1757 3978 6129  1757 6130 9524  908 6130 9524  2925 5715 6131  4504 7408 8826  1196 3785 6132  1837 3785 6132  472 6133 9788  6133 9787 9788  1508 5256 10091  1508 6134 10091  2758 5391 6135  2758 4699 6135  1213 3919 7076  1213 6136 7076  1613 3352 6137  3055 6491 6885  5974 6138 9685  2163 5974 6138  90 3094 6139  1777 3960 6140  928 6140 6339  927 5428 9869  927 6141 9869  89 6139 6142  3096 6139 6142  5507 6143 8482  1051 6143 8482  986 3450 6144  1891 3450 6144  447 3231 6145  2141 3231 6145  2248 6655 6656  2641 4119 9508  1899 6148 6534  1899 6147 6148  817 5183 6556  817 6148 6556  3038 6149 8648  3038 6149 7686  2326 6588 6835  1803 6150 6588  3126 6150 6151  1803 6150 6151  685 5427 8293  3226 10502 10503  4641 6153 8019  1394 4641 6153  3188 5400 6154  1572 5400 6154  1635 4230 6155  922 4230 6155  506 6173 10880  2167 6156 7453  936 5642 6157  2684 5642 6157  1753 9086 9958  1753 6158 8094  315 4068 6160  316 6159 9169  1753 6159 6160  838 4792 8924  838 6161 8924  609 2941 6162  609 4743 6162  2382 6164 8585  6163 6164 8585  2363 5310 7468  267 6748 7468  3538 9473 10006  627 9473 10006  1845 5023 6166  1111 5023 6166  5031 6393 9227  1790 6167 9227  1961 3857 6168  538 3857 6168  379 3618 6169  1716 3618 6169  953 3476 6170  1716 3476 6170  2455 4957 6171  1289 4957 6171  1452 4582 6174  695 4582 6172  1798 6156 7453  1798 6173 7453  4582 6172 6174  1798 6172 6174  1052 6175 10387  1052 3603 6175  2250 3913 6176  96 3913 6176  1671 5968 6177  2979 5968 6177  1721 3372 6178  3846 5369 8937  1969 3983 6179  424 3983 6179  2158 7716 7717  1969 6180 7716  918 8948 9789  2447 6998 8948  2623 5497 6182  947 5497 6182  1724 3476 6183  953 3476 6183  2397 4146 7791  282 4146 7791  155 3577 6185  156 4259 8084  1972 6187 7825  466 6187 7825  1783 4456 6187  1972 4456 6187  2306 7853 9618  2306 3192 6188  1736 5069 6189  128 6189 9796  6028 8133 9632  877 6190 9633  2537 6398 7696  2389 6191 6398  1431 6192 7368  1431 3205 6192  2885 5492 10478  391 7437 8746  2404 4196 6194  531 4196 6194  112 5348 10242  5348 8518 10242  1801 4079 6196  2908 6196 6445  2458 6197 9661  1192 6197 9661  2644 8302 8303  1788 6199 6602  967 7263 10328  967 6199 6602  1788 6198 7731  1788 6200 7348  2531 5288 6201  2531 6201 6283  3069 6771 9950  1820 5262 7301  3544 6310 6950  950 6310 6950  2051 3475 6204  451 3475 6204  2053 4754 7675  870 4754 6205  1782 3787 6206  3787 6206 6904  1829 3642 9599  1829 6207 9599  2431 4280 6208  849 4280 6208  1749 6209 10513  3531 6210 10513  1749 3530 6210  1124 3530 6210  2715 6211 6314  2715 6211 7587  1496 2974 6212  2974 6212 8493  3630 6213 9421  4481 7331 10156  3549 9137 9245  1606 3549 6214  6215 8072 9382  1755 6215 8072  6070 6216 8587  1044 6216 8587  1952 4317 6217  2351 4317 6217  2807 4272 6218  1341 4272 6218  1000 4934 6219  2540 4320 7974  1927 6220 9817  510 6220 9817  2393 4819 6221  1414 4819 6221  1849 4663 6222  2153 7422 9125  2270 4295 6223  802 4295 6223  4981 6224 8827  1156 4981 6224  2398 7021 9095  1640 6092 6226  1640 3049 6226  1802 3465 6227  457 3465 6227  3465 5554 6228  1802 3465 6228  3735 5861 6229  463 3735 6229  1934 3710 6230  717 3710 6230  2361 4638 6373  2540 6231 8347  515 3646 6232  1858 3646 6232  2799 5598 6233  942 5598 6233  961 3441 6234  2650 7907 8250  2532 5591 6235  424 5591 6235  2423 4203 8371  2423 6236 8371  694 4284 6237  1912 4284 6237  2936 3733 10160  3733 6238 10160  2559 6239 6389  841 6239 6389  2522 6240 7215  907 6659 8073  1146 4256 6241  2085 4256 6241  1866 4597 6242  731 4597 6242  2949 4121 6243  1395 4121 6243  1513 3249 6244  1963 3249 6244  2489 8634 8635  1880 6245 8634  599 3299 6246  1880 3299 6246  1880 3516 6247  940 3516 6247  1796 4844 6248  759 4844 6248  3258 6249 6340  536 3258 6249  2144 6250 9109  973 6250 9109  3030 10150 10151  532 3777 10367  869 4296 6252  2259 4296 6252  242 6253 6514  659 3693 9808  1164 3693 6254  2950 5524 6255  428 5524 6255  1866 3613 6256  556 3613 6256  3379 5594 6257  676 5594 6257  1379 5827 6258  3095 9531 10234  2066 7513 8983  2066 5701 8983  648 3486 6260  1774 3486 6260  3244 6261 10096  1609 8122 10096  1494 3602 10149  608 3602 6262  1853 4074 6263  769 4074 6263  994 5808 7213  994 6264 7213  503 3572 6665  503 6265 6665  1751 4232 6266  4232 6266 9726  1751 3955 6267  662 3955 6267  1945 4837 6268  2815 6268 7028  1707 4301 6269  1707 4550 6269  711 5887 6270  2028 5887 6270  1759 3427 6271  433 3427 6271  1759 6272 9313  706 3000 6785  4037 5485 6273  941 5485 6273  4139 5959 6274  1276 4139 6274  945 7033 8814  2126 7032 7033  2080 4468 6276  906 4468 6276  2803 6277 10889  2803 6277 7037  2801 4937 6278  533 4937 6278  1982 4640 6279  2760 6279 7204  3778 6280 9267  1635 3358 9780  251 3272 6281  2086 3272 6281  1847 6282 6647  972 6282 6647  4320 7974 9082  1000 7974 9082  895 4320 6284  1847 4320 6284  3137 3161 8034  3161 6285 9855  1957 3625 10713  1957 6286 10713  2626 6287 10467  1291 6287 10467  1938 6762 9929  1938 5217 9929  1895 3879 6289  602 3879 6289  3683 9870 9871  1895 3683 6290  1861 3167 6291  3167 6291 7010  6292 9679 9680  1861 6292 9680  5458 6293 9635  702 6293 9635  1768 4027 6294  642 4027 6294  1768 3558 6295  870 3558 6295  2991 6296 7070  1196 8580 10604  998 6297 9249  998 4680 9249  1783 6298 10617  703 6298 10617  2862 4050 6299  2862 6299 7466  645 5420 6300  2227 5420 6300  2698 6301 10085  398 7732 10084  5226 6302 8120  1962 5226 6302  857 4144 6303  2423 4144 6303  1881 5350 6304  5350 6304 9610  2341 7038 7221  2359 7038 7221  1672 5613 10413  3074 6516 7027  3636 6307 8154  3166 9902 9903  2356 4126 6308  614 4126 6308  804 6309 6757  2290 6309 7338  2060 3149 6310  3149 6310 6404  1759 6272 6311  3426 6272 6311  635 4749 9294  635 6312 9294  484 5616 6313  5616 6313 8571  858 3175 6314  2037 3175 6314  2292 3768 6315  724 3768 6315  1001 2864 6316  1583 6316 6566  2647 8851 9574  1973 6317 8851  6318 8851 9112  1205 6318 9112  1973 5380 6319  1069 5380 6319  877 6190 10701  877 6320 10701  1765 3612 6321  524 3612 6321  2795 7177 10308  400 4536 8626  2564 4986 7763  882 6323 8997  1819 3021 6324  1122 3021 6324  1040 7694 8332  2205 5427 8293  2333 8143 10899  2333 4811 10899  695 4582 6327  2563 4582 6327  1594 3401 8316  379 3401 6328  4150 4349 6329  1465 4349 6329  634 5810 6330  2690 5810 6330  1942 4366 6331  710 4366 6331  3234 4947 6332  1706 3234 6332  5596 6333 9386  2393 5596 6333  29 6334 8082  29 8082 10803  2939 5994 6335  1717 5994 6335  821 4539 8572  1338 4539 6336  3004 6770 8442  3004 6337 9220  1812 3960 6338  598 3960 6338  3960 6140 6339  1812 3960 6339  1100 3509 9820  1100 6340 9820  465 5990 6341  2332 5990 6341  1184 6342 7884  1978 6594 7884  586 3994 6975  586 6343 6975  303 7609 10716  2741 8673 9859  1948 6509 8673  648 3486 6346  648 3794 6627  962 6347 8101  962 7182 8101  2587 7111 7112  2014 6348 9289  1279 6349 10702  2272 6349 10702  2414 5795 6350  1435 5795 6350  1760 5414 6547  1760 6351 6547  425 3623 6352  2496 3623 6352  770 4244 6743  770 6353 6743  3362 6354 7998  3364 10554 10710  2511 6355 9792  2511 6355 7108  1850 4243 6356  3138 6356 6631  1250 3973 8400  1250 6357 8400  1784 3257 6358  1086 3257 6358  1867 3181 6359  838 3181 6359  1222 3804 6360  1838 3804 6360  475 5055 6361  2560 5055 6361  430 5973 6362  1956 5973 6362  2652 6363 6525  1886 6363 6525  3200 9178 9180  1874 3200 6364  2603 6365 10488  2603 6365 7536  2122 4124 6366  775 4124 6366  2317 6367 6368  1929 6367 6368  1929 6368 7656  3289 6996 7656  4955 6369 8201  1990 6369 8201  193 8463 10336  2186 6371 10619  392 6371 10619  1175 3371 8127  1175 6372 8127  2361 6231 6373  895 6231 6373  911 4636 6374  2478 4636 6374  2045 3925 6375  1030 3925 6375  2429 6376 8928  1271 3880 8929  2752 6377 9998  2752 6377 8239  4426 6378 8352  958 6378 8352  4143 8135 10569  344 8135 10569  1549 5276 6380  5276 6380 10669  2514 6617 7766  1914 6617 7766  3040 5469 6382  641 5469 6382  2048 4103 6383  2498 4103 6383  901 6384 8530  2354 6384 8530  1787 3811 6385  501 3811 6385  5455 6386 8212  1008 5455 6386  887 5273 6387  1964 5273 6387  1995 6388 9311  976 6388 9311  2344 6439 10656  5147 8182 10656  559 6390 8399  1924 6390 8399  645 3261 6391  1468 3261 6391  2290 5837 7503  2290 6392 7503  2596 4798 7150  1511 6393 9485  960 4182 6394  2634 9011 10291  2440 6395 9607  1225 6395 9607  551 3347 6396  2903 6396 8914  2468 6397 8567  2468 6397 6908  907 6191 6398  2537 6398 6659  1908 4467 6399  4467 6399 8560  1852 3633 6400  1852 3027 6400  693 5935 6401  2058 5935 6401  2245 5172 6653  2245 6402 6653  2681 8967 9832  3085 8967 10647  1905 6404 10598  950 6404 10000  19 6405 10859  357 4757 10260  357 6406 10260  1070 3105 6407  3105 6407 8450  1547 3596 6408  1547 5285 6408  1597 5643 6409  1830 5643 6409  756 4878 6410  2192 4878 6410  1260 4154 6411  3178 4154 6411  2258 6412 7711  686 3509 6413  1789 6340 9820  1654 3543 6981  3543 6981 9880  2749 10171 10172  2749 6415 10172  2403 7156 7981  1872 4396 7156  1560 5267 9194  1560 6417 9194  1113 4551 6418  2375 4551 6418  3478 5640 6419  910 5640 6419  3235 7279 7748  1061 7279 7748  2097 5965 6622  2097 6421 6622  1908 6422 6855  1908 4218 6422  1986 3907 6423  1168 3907 6423  1190 3454 6424  1925 3454 6424  1925 3454 6425  372 3454 6425  2042 4411 6426  755 4411 6426  664 3120 8292  664 6427 8292  1778 5888 6428  5888 6428 7319  1455 4577 6879  4577 6879 9020  2358 6429 6430  2358 6430 6470  2139 3599 6431  455 3599 6431  2995 6133 6432  1216 7786 10473  2834 6433 9864  1944 7018 10318  2439 6372 7533  1910 6372 7533  1846 3753 6435  380 3753 6435  1809 5566 8584  1809 6436 8584  1025 3582 6437  1025 3107 6437  792 6111 7125  1835 6438 9440  2344 6440 7137  2344 6439 6440  2055 4574 6440  440 4574 6440  3049 5744 6441  932 5744 6441  1816 6442 6598  2071 6443 6598  1816 4140 6443  1276 4140 6443  3715 6800 8575  1911 3715 6444  1801 3761 6445  967 6445 8820  495 3761 6446  1801 3761 6446  621 3977 6447  3131 6989 10706  3701 9086 9355  2464 9086 9355  682 5919 6449  682 5282 6449  2019 4464 6450  1192 6197 8968  3737 8334 9516  181 9214 10500  2112 4952 7842  2112 6452 7842  369 3639 6453  2000 3639 6453  39 5701 8176  39 6454 8176  3485 6033 6455  1848 3485 6455  1932 3687 6456  1154 3687 6456  3682 6457 10433  3682 6457 9398  1514 6458 10659  1944 6458 10659  1918 3431 6459  1918 4524 6459  1087 3246 8473  130 6460 8706  572 3970 6461  2294 3970 6461  3985 6462 8563  430 3985 6462  1125 3044 6463  1869 3044 6463  748 3872 6464  1829 3872 6464  3555 6465 7330  3367 6465 10672  1087 3320 6466  3320 6466 6792  1844 3941 6467  698 3941 6467  1512 3203 6468  1068 3203 6468  2313 4385 7109  141 4385 6469  2661 7734 8522  1818 6470 7992  3412 5823 6471  1817 3412 6471  3780 8461 8856  1161 6472 8461  3156 6473 6474  1049 8304 10634  2808 9837 10121  529 6474 10205  406 6475 8148  2673 6475 8148  1821 6573 7701  1900 6476 7701  5655 6477 7329  863 5655 6477  2354 4367 6478  1079 4367 6478  712 3160 6479  3160 6479 7307  3847 5776 8691  1034 2997 9741  2369 8621 8622  1813 6482 8620  1813 5674 6483  1813 6482 6483  137 6483 9812  1423 3642 6484  1423 4376 6484  3171 5971 10088  730 3171 6485  1565 3450 6486  986 3450 6486  1838 3804 6487  366 3804 6487  3803 6360 6488  1838 6360 6488  3050 10640 10641  1287 4559 10640  2194 3838 6490  1623 3838 6490  1615 3055 6491  626 6491 6885  3095 6258 6492  1379 6258 6492  1050 6493 6524  1986 6493 6524  801 3129 9716  1019 3129 6494  2964 4778 6495  1171 4778 6495  808 3895 6496  2273 3895 6496  2112 5897 6497  256 6497 9021  1834 4570 6498  3419 8300 9612  484 6313 6499  3024 6313 6499  3720 6709 9002  1822 3720 6500  748 4376 7168  2105 4376 7168  1391 6502 7119  3238 6502 7119  1353 5202 6503  2271 5202 6503  2124 6505 9216  2107 6505 9216  852 5793 6505  2124 5793 6505  2124 4695 9216  827 4695 6506  2107 6504 8411  2107 6507 8411  1840 4223 6508  2550 4223 6508  2741 3817 8673  3817 6509 8673  3002 4805 6510  420 4805 6510  1960 5656 8913  1960 6511 8913  258 6512 9922  258 3283 6512  3842 6513 9373  97 3842 6513  1874 3200 6514  241 3200 6514  1012 3243 8395  1012 6515 8395  3074 6306 6516  1672 6306 6516  3189 5840 6517  1648 5840 6517  2623 6182 6518  1409 6182 6518  3837 6519 10320  2969 6519 7662  2805 4968 6520  884 4968 6520  1212 6521 10259  2828 6521 10259  2033 3829 6522  389 3829 6522  1127 5142 7285  1482 5142 6523  3158 6524 6945  1986 6524 6945  1054 4870 6525  1886 4870 6525  4213 6526 9234  1136 3018 6526  1056 4085 6527  1828 4085 6527  1420 3486 6528  1420 4679 6528  1896 3309 6529  455 3309 6529  586 3994 8095  586 6530 8095  3079 6531 7232  3079 4796 6531  979 3775 6532  1713 2932 7787  1358 6072 6533  2648 8202 9105  777 6037 8413  777 6534 8413  2236 7931 9941  2236 6147 9941  593 6072 6536  2899 6072 6536  75 3695 6537  645 3385 6717  1078 3385 6538  2204 5616 6539  484 5616 6539  2545 6541 8364  326 4802 8652  326 6540 8652  327 6540 6541  3442 6535 6542  1899 6535 6542  1862 4166 6543  502 6543 7003  702 2985 6544  1862 6544 6871  3190 7130 7131  812 7130 7131  2220 4060 6546  931 4060 6546  361 4206 6547  2057 4206 6547  101 6548 10566  100 6548 7949  445 6549 10204  5396 8141 10204  924 6550 10252  2203 6550 6662  1016 4987 10738  1016 6551 10738  2828 5693 7848  1826 5693 7848  2780 5749 6553  1770 5749 6553  2038 4352 7211  1884 6555 7212  5451 6555 10078  1884 5451 6555  1652 3404 6556  1898 3404 6556  1641 3191 6557  1091 3191 6557  2858 6262 6558  608 6262 6558  874 6559 9899  2004 6559 9899  2896 5685 6560  985 5685 6560  1235 4043 6561  1235 4042 6561  4254 5977 10499  1449 4254 6562  4255 6562 6563  880 4255 6563  1824 3253 6564  401 3253 6564  2555 4873 6565  829 4873 6565  2864 6316 6566  457 2864 6566  6 6567 6568  6 4606 6568  1823 6568 6569  1823 4257 10441  6567 6568 6569  7 6567 6569  133 3300 6570  63 6571 6572  63 6572 9162  1821 4958 9168  1821 6572 9168  6476 6573 7701  864 6476 6573  3913 4262 6574  1534 4262 6574  1597 4911 7126  478 4911 7126  1043 3961 6576  2101 3961 6576  6577 6925 7980  3297 6577 6925  6009 6578 8930  225 6009 6578  618 5078 6579  2894 5078 6579  3965 8692 8693  2371 6581 8692  307 308 6583  308 6581 6583  1904 7905 9563  1904 6582 7996  307 3958 7905  307 6583 7905  3140 8148 10657  1827 3140 6584  3202 6584 6585  1827 6584 6585  3197 6450 6586  1192 6450 6586  450 4796 6587  3421 4796 6587  6152 6588 8554  1803 6152 6588  807 5222 6589  807 5702 6589  1883 3488 6590  542 3488 6590  2065 6591 8062  2312 6591 8426  1369 4865 6592  3185 4865 6592  537 6593 9019  2986 8163 9019  2023 6342 6594  6342 6594 7884  436 3654 6595  2023 3654 6595  6594 6596 8952  758 6596 8952  2629 5065 6597  2629 9263 9264  2071 6598 6760  444 6442 6598  382 6599 10074  2229 6599 10074  2237 5019 6600  1636 5019 6600  1974 4799 6601  1888 4799 6601  1788 6198 6602  2644 6602 8302  414 3800 6603  2050 3800 6603  328 9628 10373  329 4154 9628  552 5047 6605  5047 6605 6607  1166 3364 6606  1890 3364 6606  1559 5048 6607  1890 6607 9709  1485 5234 6608  2833 5234 6608  2529 6609 9984  3743 8033 9984  3038 6610 7686  1694 4290 6633  1025 3807 6611  1863 3807 6611  3106 6611 6612  1863 6611 6612  3151 8192 9096  1015 3821 7769  1914 5648 6960  1914 6614 6960  1283 4051 6615  2189 4051 6615  1804 3132 6616  1160 3132 6616  735 5859 6617  2514 5859 6617  2583 7531 9717  2211 7531 9717  14 6619 6620  14 3858 6620  1868 6620 6621  1868 3062 6621  6619 6620 6621  15 6619 6621  2594 5573 6622  1108 5573 6622  6323 6623 8997  1819 6323 6623  1414 4818 6624  1856 6624 6625  4818 6624 6625  1041 4818 6625  1856 4492 6626  818 4492 6626  1301 3794 6627  2436 7683 8988  497 6555 6628  6555 6628 7212  4274 6629 8317  1172 6629 8317  1454 5032 6630  2329 5032 6630  3127 5079 8499  511 5079 8499  1621 6632 7920  1621 4307 6632  1694 6610 6633  3038 6610 6633  1876 3661 6634  1699 3661 6634  2598 7289 10515  363 7289 10515  1373 6636 10229  1999 6636 10229  1604 5432 6637  2825 6639 7240  2171 3967 6638  892 3967 6638  2825 6637 6639  1604 6637 6639  2840 6923 7875  2840 9296 10497  2398 6225 7576  2398 6641 7576  1515 2956 6642  1515 3781 6642  2359 5706 6643  1670 5706 6643  1308 4406 9927  1032 4406 6644  2160 6645 7833  2731 7002 7858  3389 6646 7843  1959 3389 6646  972 4148 8132  972 6647 8132  720 3650 6648  1858 3650 6648  6232 6649 9592  1858 6232 6649  2840 9296 10498  1909 6650 10497  376 4152 6651  1909 4152 6651  1062 4010 6652  1909 4010 6652  887 6387 6653  6387 6653 9157  747 4317 6654  1952 4317 6654  2248 3929 6655  628 3929 6655  2528 5918 6656  974 5918 6656  3269 6657 9233  674 6657 8231  1975 3996 9300  1975 6658 9300  2522 4525 8073  2049 4525 8073  2049 6659 8946  2049 6660 8946  956 3173 6661  1432 3173 6661  2233 6662 10415  4507 8054 10415  2747 5042 6663  1313 5042 6663  2120 5520 6664  2967 6664 7395  1297 3572 6665  1297 3335 6665  3877 6364 6666  1874 6364 6666  3548 6667 8321  3548 6667 7266  2578 6668 9317  565 6668 9317  1281 3110 6669  2031 3110 6669  4216 6669 6670  2031 6669 6670  388 5094 6671  388 6671 9307  1241 4070 7749  561 4070 6672  980 4071 6673  4071 6673 7749  591 5089 6674  2931 8912 10648  2723 5388 10031  1644 6675 8661  1704 3377 6676  407 3377 6676  1307 6290 6677  2536 6290 6677  5525 6678 8822  1776 5862 10888  2738 5458 9635  2738 6679 6976  461 5704 10521  461 6680 10521  1955 3349 6681  1127 3349 6681  1228 4030 6682  2157 4030 6682  707 3043 6683  1893 3043 6683  458 3940 6684  1893 3940 6684  1893 3043 6685  1007 3043 6685  964 4535 6686  2759 4290 8333  3674 6687 9604  3674 6687 8855  1381 4731 10070  1381 6688 10070  2842 5999 6689  940 5999 6689  3463 6690 6737  542 4633 6690  1030 3179 6691  1870 3179 6691  1870 5186 6692  5186 6692 9049  1616 3354 6693  3354 5297 6693  546 3991 6694  1920 3991 6694  1233 3990 7114  700 3990 6695  6694 6696 7881  1920 6694 6696  2927 6697 6806  431 6697 6806  3369 6699 6914  6698 6699 6914  2480 5575 6699  252 5575 6699  1184 6700 7249  1184 3652 7249  1913 4586 6701  735 4586 6701  1913 2993 9889  1913 6702 9889  2858 5024 7103  2858 7103 10082  1316 4114 6704  2044 4114 6704  3651 6705 10735  3122 6705 6726  2240 5247 6706  1578 5247 6706  2411 4300 6707  1167 4300 6707  3229 4363 6708  3229 10382 10383  1881 3340 6709  1147 3340 6709  980 2886 6710  2886 6710 7619  3725 6711 10711  2688 5975 8636  52 6712 9956  53 3322 10792  2836 7206 10504  948 6713 10506  1165 3765 6714  1878 3765 6714  1878 6715 9994  574 6715 9994  387 3796 6716  1643 6716 8097  3385 6538 6717  1817 6538 6717  2348 4008 6718  1248 4008 6718  1871 4269 6720  1871 6719 6720  110 6720 9824  1871 3386 6721  1078 3386 6721  612 3517 6722  1891 3517 6722  1891 3517 6723  1461 3517 6723  2412 6159 8322  316 6159 6724  2241 4832 7170  1065 7358 10884  2328 5430 7960  2026 5430 7960  2035 4776 6727  4776 6727 7590  1173 3792 6728  3098 6728 7270  2179 5067 6729  1456 5067 6729  2082 4328 6730  970 4328 6730  5535 7550 9764  1939 6731 7756  2871 4616 6732  1492 4616 6732  813 4523 6733  2007 4523 6733  938 5778 6734  2726 5778 6734  2448 6735 6736  753 6735 6736  2075 3952 6736  753 3952 6736  2818 6737 10574  542 6590 9556  2415 3271 6924  373 6738 8832  874 4179 9899  1396 4179 6739  2631 9268 9269  886 6740 9268  2771 8119 10356  415 3222 8119  1974 6742 10727  490 6742 10727  4244 6743 10450  1988 4075 6743  1255 4027 6744  1768 4027 6744  1609 5077 6745  2352 5077 6745  2541 5393 6746  2541 6746 7804  1883 3948 6747  1229 3948 6747  266 5310 7468  266 6748 7468  2486 4879 6749  856 4879 6749  374 6750 9111  2190 6750 9111  1649 5692 6751  5692 6751 7932  1415 4398 6752  2702 4398 6752  394 4976 6753  1926 4976 6753  512 3213 7718  1062 3213 6754  647 3327 6755  1885 3327 6755  1063 3326 6756  3326 6756 7718  2790 4615 6757  1491 4615 6757  5544 6758 9014  721 6758 9014  1323 3290 6759  3290 4403 6759  2463 4446 6760  444 4446 6760  3209 3919 7076  1088 3621 7343  6288 6762 9929  299 6288 6762  901 6763 9730  1938 6763 9730  2287 3778 6764  886 3241 7903  988 5049 8778  988 6765 8778  956 3522 6766  2247 3522 6766  4485 6767 9772  494 4485 6767  2144 4258 6768  785 4258 6768  2009 6769 7015  2199 6769 7014  1923 5502 6770  384 5502 6770  779 3069 6771  3069 9701 9950  5113 6772 7452  3053 10101 10102  521 4016 6773  2805 4016 6773  2428 8664 9177  232 8664 10794  1900 3745 6775  1371 3745 6775  65 6776 8392  1894 3437 6777  834 3437 6777  60 6779 10754  61 6778 7588  1894 6778 6779  1970 6626 6780  818 6626 6780  1693 4251 6781  1693 3366 6781  5054 6501 6782  2105 6501 6782  2919 5775 6783  1634 5775 6783  2689 6784 10136  5514 10049 10136  706 6272 6785  2088 7256 9313  168 5535 8614  168 6786 8614  6786 6787 8614  169 6786 6787  2774 5638 6788  1632 5638 6788  1103 3206 6789  3206 6789 10105  3233 5743 7655  1676 5743 7655  1087 3321 7784  1889 3321 6791  548 3193 6792  1889 6792 6793  3193 6792 6793  1105 3193 6793  2937 6794 6795  1123 4135 10664  3906 5461 6795  572 5461 6795  535 6796 8283  2449 6796 8283  5953 6797 8444  339 5953 6797  1892 3644 6798  1121 6798 9863  2283 4826 9215  540 6799 7894  729 3715 6800  2243 6800 8575  2909 5815 6801  969 6801 7310  2407 8878 8879  759 6248 6803  2878 6803 7101  3429 6804 8035  1188 3429 6804  2487 8035 9117  1950 6804 8035  3649 6804 6806  431 3649 6806  1164 3857 6807  1961 3857 6807  1961 3275 6808  837 3275 6808  1661 5788 6809  1661 5786 6809  4531 4786 6810  821 4786 6810  773 3155 7608  3155 6811 7608  1691 5210 6812  2943 5210 6812  3639 5880 6813  1655 5880 6813  212 6802 8546  3007 6802 6814  3597 7629 7959  1258 7629 7959  583 4428 6816  2726 6816 7639  115 6817 8181  115 8181 10874  1281 3110 6818  1281 4023 6818  2914 4907 6819  598 4907 6819  1943 4035 6820  772 4035 6820  262 3104 6822  263 6821 10303  1943 6821 6822  2013 6545 6823  812 6545 6823  2338 4605 6824  1163 4605 6824  2013 6825 7036  2013 4210 7036  2628 4914 6826  1324 4914 6826  700 3990 6827  1921 3990 6827  1921 3992 6828  399 3992 6828  2564 4986 6829  1332 4986 6829  4430 6308 6830  867 4430 6830  1248 4057 8257  850 4057 6831  1968 4443 6832  81 6832 10697  945 5140 6833  2706 6275 8814  3176 4994 10603  1897 6834 8197  6150 6588 6835  1027 6150 6835  1097 6836 9695  3488 6836 9583  2843 5831 6837  1236 5831 6837  2064 6838 8949  436 4530 6838  1057 3323 6839  3323 10461 10462  632 6687 9604  632 6840 9604  2806 9603 9605  1935 6840 9321  70 4157 6842  2737 5458 6843  919 4651 6941  2500 6844 9688  1227 6844 9688  901 6763 6845  2786 6763 6845  2132 4517 6846  1481 4517 6846  1222 3803 6847  2132 3803 6847  2941 5196 6848  966 5196 6848  2398 6849 9095  878 6849 9095  576 4053 8753  2982 6850 7032  3026 6572 9854  3026 3046 6851  1983 4683 6852  1120 4683 6852  1042 6853 7225  2778 6853 7225  2063 4846 6854  508 4846 6854  2960 4849 6855  421 4849 6855  723 6355 6856  3128 6856 9848  528 4361 6857  2072 4361 6857  2318 4897 6858  4897 6858 8744  1168 3702 6859  2322 3702 6859  1926 4976 6860  1027 6835 8366  4313 4891 6861  1926 4313 6861  4647 6862 7678  432 4647 6862  2220 4502 6863  782 4502 6863  3510 5144 6864  1954 3510 6864  3232 5722 6865  1954 3232 6865  1432 3173 6866  3173 6866 9572  3115 5531 6867  1666 5531 6867  2533 9459 9460  414 6868 7563  1397 3299 6869  1397 4296 6869  624 3978 6870  624 5540 6870  2985 6544 6871  1004 2985 6871  2155 4275 6872  864 4275 6872  2432 8048 9265  4259 8793 9265  379 3618 6874  4656 6874 10749  2035 6727 6875  3122 6727 6875  2530 4171 8467  1928 6877 9995  704 5358 6877  1928 5358 6877  2814 10562 10563  1475 4838 10564  1818 6430 9020  1818 6879 9020  1234 7555 10183  2418 7555 10183  3592 6881 7928  541 3592 6881  2310 4845 6882  4845 6882 10693  1134 3584 6883  2030 3584 6883  2438 6884 7315  708 6884 7315  3055 6137 6885  1613 6137 6885  2169 5162 6886  1507 5162 6886  3263 8643 10687  1919 6889 8193  2575 5088 9594  700 6695 9595  464 3263 8193  464 6889 8193  3821 7769 8378  2554 7769 8378  701 3150 6891  3150 6891 9360  3157 6891 6892  1927 6891 6892  1593 3260 6893  236 6893 10762  402 4092 6894  402 3448 6894  554 5679 6895  3352 5679 6895  2426 5661 6896  1131 5661 6896  917 3673 6897  1931 3673 6897  1931 6897 6898  2454 6898 6899  1931 4192 6899  4192 6899 7203  1148 6900 8511  2279 6900 8511  2871 6732 6901  1580 6732 6901  788 3114 8858  788 6902 8858  3952 7357 9607  2075 3952 6903  703 6298 9236  703 6904 9236  1010 4699 6905  2758 4699 6905  1288 6906 10210  3097 6906 10210  1355 4488 6907  1940 4488 6907  2467 4847 6908  1262 4847 6908  1033 5226 6909  2405 5226 6909  3072 6249 6910  1012 3072 6910  1171 4381 6911  3199 4381 6911  1028 3157 8001  1028 6912 8001  2113 6913 8525  1045 6913 8525  2113 6914 6915  2113 6915 8525  254 6915 8684  504 6916 8012  2330 6916 8012  949 4390 6917  1953 4390 6917  1953 6917 6919  1953 6918 6919  341 6919 8613  3581 4667 6920  1916 4322 8046  3954 6921 9647  2130 3954 6921  2308 4477 6922  1351 4477 6922  647 6755 7875  3214 6755 7875  6738 6924 8832  2004 6738 6924  2569 5677 6925  1075 5677 6925  1025 3106 6926  1507 3106 6926  1372 3929 6927  2248 3929 6927  3732 4045 6928  1996 3732 6928  6787 6929 9825  169 6787 6929  3684 6434 6930  1910 6434 6930  3244 6930 6931  1910 6930 6931  625 3548 6932  2274 3548 6932  2073 6933 7569  2440 6933 7357  2117 6935 9585  2117 6934 9585  495 5886 6935  2117 6936 7951  4100 6934 6936  2117 6934 6936  2954 4680 6937  1554 2954 6937  2216 4975 9035  2216 6938 9035  1098 6939 8680  1098 3332 6939  1832 4382 6940  687 4382 6940  919 6843 6941  2737 6843 6941  762 4963 6942  1963 4963 6942  2260 4059 6943  1264 4059 6943  2519 6790 7655  938 6944 8222  580 3907 6945  1986 3907 6945  4384 6946 10628  4384 6946 9761  3026 6572 6947  1821 6572 6947  873 5012 8603  2572 5012 8603  631 5447 6949  3208 5447 6949  1853 6203 6950  1853 3544 6950  3772 7921 8226  2193 6951 8226  2961 6031 6952  973 6031 6952  433 3427 6953  2370 7988 9932  2084 4645 8279  2084 6954 8279  2804 6978 10540  878 6955 10541  935 5545 10601  2614 6956 9433  1459 5079 6957  3127 5079 6957  437 4552 6958  3181 4552 6958  3926 6959 7591  2081 3498 6959  2391 4283 6960  995 4283 6960  2182 5996 6961  963 5996 6961  4794 5362 6962  1924 4794 6962  3417 6962 6963  1924 6962 6963  1156 3760 6964  1156 4981 6964  1767 5412 6965  2433 5412 6965  3882 6966 9904  1290 5298 9404  3262 5794 6967  709 5794 6967  4429 6968 8200  1596 3111 9323  2276 4589 6969  661 4589 6969  866 6048 6970  2504 6048 6970  934 4115 6971  2305 6971 8234  717 3750 6972  1933 3751 7883  5860 6973 8960  1139 6973 8960  2620 4914 8236  460 4914 8236  1339 4355 6975  2345 4355 6975  6680 6976 10521  1860 6680 6976  1980 4483 6977  859 4483 6977  488 5188 6978  2804 5188 6978  3723 6087 6979  477 6087 6979  641 5469 6980  2915 5469 6980  965 6414 9880  965 6981 9880  2915 5469 6982  1584 5469 6982  3219 7586 8873  1035 3219 6983  2437 4956 6984  578 4956 6984  2283 6985 7895  2283 4826 6985  3536 6986 7541  92 3536 6986  989 3006 6987  3006 6987 8341  670 5875 9895  670 6988 9895  1019 4562 6989  3131 10704 10705  1019 3129 6990  1541 3129 6990  1936 5811 6991  799 5811 6991  1100 6340 6992  3083 7760 9925  1911 4169 8064  1911 3715 6993  1372 5768 6994  2764 5768 6994  1929 4336 6995  4336 6995 8745  1158 4336 6996  1929 4336 6996  942 5598 6997  2724 5598 6997  1680 6998 7565  2447 6998 7565  1211 5989 6999  2720 5989 6999  781 3641 7000  3641 7000 8776  2160 3907 7001  580 3907 7001  2731 6645 7002  2160 6645 7002  4166 6543 7003  2021 4166 7003  2021 4120 7004  988 4120 7004  1006 7005 8288  2761 7005 8288  5565 8299 8896  2502 7006 8299  1562 7007 9900  3538 7007 9472  2087 4568 7008  2909 6801 7310  526 4416 7009  3490 4416 7009  3167 7010 9339  987 7010 10349  1510 4526 7011  1970 5906 9097  3112 4956 7012  1309 4956 7012  2009 6769 7014  2009 7013 7014  885 6650 9319  885 7014 9319  567 3643 7015  2009 3643 7015  2009 3643 7016  1209 3643 7016  1383 4763 7017  4763 7017 10094  948 10036 10319  948 7018 10319  2420 5005 7019  1359 5005 7019  2591 7021 9706  7020 7021 9706  2398 6225 7021  249 7021 9913  2523 7022 9309  1088 6761 9242  1519 4924 10484  352 4924 7023  2570 4755 7024  420 4755 7024  2646 5233 7025  1486 5233 7025  1476 4899 7026  1994 4899 7026  2111 4278 10625  1994 4278 7027  1049 6473 10537  1049 7028 10537  5529 7029 8412  2020 2951 7029  1315 3869 7030  1315 3249 7030  200 5247 8774  2240 5247 7031  2966 7668 9492  2126 7032 7668  2126 6275 7033  6275 7033 8814  3540 9492 9493  1083 7034 8358  965 6414 7035  2912 6414 7035  6825 7036 10381  452 7036 10381  1089 7037 10465  4129 8815 10465  5968 7038 8707  1671 5968 7038  3030 7039 10150  1053 3774 7039  1758 3466 7040  1758 3796 7040  594 3541 7041  2245 3541 7041  1286 3877 7042  1987 3877 7042  872 7043 8495  2365 7043 8495  699 4454 7044  3567 7044 7703  1946 3614 7045  1946 3342 7045  345 4096 7046  2425 4096 7046  3336 7047 7811  646 4289 8579  1696 3435 7048  1081 7048 10572  470 4248 7049  2467 4847 8568  2578 7050 10694  1243 7050 10694  730 4912 7501  730 7051 7501  750 3460 7052  1965 3460 7052  1965 3599 7053  3599 7053 9548  5318 7054 10530  455 7054 10530  2556 8808 10262  2556 7055 9650  3034 5108 7056  1989 5108 7056  903 3928 7057  2363 3928 7057  108 7058 9989  3084 6719 10275  431 3649 7059  1942 3649 7059  3211 7060 7354  2392 7060 7354  1840 7061 9009  1840 4340 7061  1457 4191 7062  1457 3340 7062  2590 7063 9943  1564 7063 9943  930 9559 9892  930 7064 9559  2142 3228 7065  655 3228 7065  3259 6692 7066  451 6692 7066  2791 5758 7067  1261 5758 7067  797 3446 7068  2012 3446 7068  5844 7068 7069  2012 7068 7069  2354 4367 7469  2354 7070 7469  3892 5182 7071  757 5182 7071  4338 7072 10739  3036 4338 7072  1530 4231 7073  1949 4231 7073  375 4077 7074  4077 7074 9445  2030 5480 9139  22 3668 7075  3209 6761 7076  2209 6761 7076  2111 5045 7077  1568 5045 7077  1991 7078 10620  1303 7078 10620  1391 3178 7079  330 3178 7079  582 4837 7080  3780 7080 8857  2228 4740 7081  1406 4740 7081  2388 5193 7082  547 5193 7082  2410 5188 7083  488 5188 7083  3767 7011 7084  665 3767 7084  2479 8861 9340  2146 7085 9340  485 3443 7086  2146 3443 7086  2146 4107 7087  952 4107 7087  2619 4503 8196  1552 7088 9403  3291 4277 7089  1085 3291 7089  2653 5987 7090  672 5987 7090  2923 6282 7091  972 6282 7091  2499 5499 7092  1437 5499 7092  581 4189 7093  2794 4189 7093  3125 7094 9251  2069 3125 7094  928 3078 7095  2069 3078 7095  2962 6035 7096  1685 6035 7096  1224 4016 9634  521 4016 7097  2870 5658 9443  718 5658 9443  3066 4683 7261  1983 4683 7099  1280 4244 7100  2129 4244 7100  759 5359 7101  2067 5359 7101  525 6244 7102  1963 6244 7102  2149 6703 10082  2149 7103 10082  1237 4067 8276  551 4067 7104  1052 2996 7105  2029 7105 7828  1026 3430 7106  2029 3430 7106  6497 7107 9103  256 6497 7107  1972 5248 7108  723 5248 7108  4385 6469 7109  142 6469 7109  1328 4385 7110  2313 4385 7110  3437 9256 10199  992 7111 9256  6348 7112 9289  527 6348 7112  1126 5962 7113  3409 5962 7113  3990 6695 7114  1920 6695 7114  855 7115 9819  2463 7115 9819  732 3349 7116  1955 3349 7116  376 5939 7117  1955 5939 7117  1387 4589 7118  2276 4589 7118  720 6648 7119  3238 6648 7119  4899 7135 9469  1993 7120 9469  1805 3776 7121  1805 6106 7798  1960 4281 7122  767 4281 7122  7123 7940 10350  2175 7123 10350  1255 4026 7124  2175 4026 7124  2040 4593 7125  2782 4593 7125  478 6575 7126  2101 6575 7126  2681 6403 7127  1386 6403 7127  3600 6387 9157  487 3600 7128  7129 8232 10040  2288 7129 8232  2336 4634 7130  3190 4634 7130  2337 3705 7131  812 3705 7131  1732 5904 7132  1732 4498 7132  3061 7133 7643  2803 7133 10038  1993 3480 7134  3480 9228 9229  1993 5205 7135  739 5205 7135  1073 4395 7136  2018 4395 7136  440 5754 7137  2005 5754 7137  733 3844 7138  2086 3844 7138  2086 3272 7139  3272 7139 8185  1505 7140 10338  1505 3463 7140  2837 5131 7415  750 5027 7401  5718 7142 7143  787 5718 7142  1630 5719 10391  1630 7143 10391  3607 9737 10329  183 3607 7144  389 4476 7145  389 3829 7145  3345 7146 10477  740 7146 8689  522 4703 7147  2183 4703 7147  3163 7624 10236  1116 7624 10236  73 7149 10486  2860 5325 9699  6393 7150 9485  1790 6393 7150  3242 6251 7151  532 6251 7151  2484 5791 7152  1750 5791 7152  825 7153 8922  2390 7153 8922  374 7154 9244  2171 7154 9244  657 3921 7155  657 3366 7155  1872 6416 7981  1872 7156 7981  1055 4725 7157  1964 4725 7157  941 5485 7158  3879 5485 7158  224 7159 7403  223 7159 7403  2550 7160 8872  600 7160 8872  979 4992 8100  979 7161 8100  1292 4093 7162  1981 7162 10253  2311 4639 7163  1024 4639 7163  1765 4551 7164  3496 4551 7164  443 7165 7930  2703 7165 7930  872 5371 10577  872 7166 10577  1801 4079 7167  1245 4079 7167  2106 4543 7168  748 4543 7168  1832 6712 7169  3322 6712 7169  778 4832 7170  778 2999 7170  1433 4869 7171  2476 4869 7171  532 4408 10023  532 3777 7172  1859 3503 10429  550 3503 7173  1974 6601 7174  978 6601 7174  2768 7175 8787  3228 7175 8787  1176 3612 7176  1765 3612 7176  400 6322 7177  6322 7177 10308  508 6015 7178  508 2922 7178  2025 5084 7179  745 5084 7179  18 4588 8883  2025 4588 7180  3776 7179 7181  1336 3776 7181  2155 4275 8101  2155 7182 8101  2002 3162 7183  722 3162 7183  2002 3270 7184  1079 3270 7184  3339 6441 8650  932 6441 8650  913 4613 7186  2263 4613 7186  2118 7187 7486  2118 7486 7487  2639 4909 7188  1558 4909 7188  2931 6674 7189  591 6674 7189  1976 4219 7190  716 7190 7196  1237 4219 7191  1976 4219 7191  1976 3434 7192  391 3434 7192  1345 3337 7193  3337 3974 7193  2592 5763 9100  834 7194 9101  3451 4184 9198  4184 7195 9198  4219 7190 7196  1977 4219 7196  3347 7104 7197  1189 3347 7197  570 3410 7199  1183 3410 7198  3410 7198 7199  1978 7198 7199  2103 5970 7200  5970 7200 10396  2423 4203 7201  1104 4203 7201  1084 3015 7202  2163 3015 7202  1982 4642 7203  734 4642 7203  1982 4192 7204  1071 4192 7204  1263 3875 7205  3104 7205 9878  1878 6713 10506  1878 7206 10506  2057 4206 10321  2434 4206 7207  1525 3479 7208  187 3479 7208  3817 7209 10254  3785 7209 10254  2038 4352 7210  800 4352 7210  1884 6554 7212  1117 6554 7211  6554 7211 7212  2038 7211 7212  1842 6264 7213  1842 5406 7213  4105 6257 9270  676 6257 9270  2044 4114 7215  623 4114 7215  277 3144 7216  3144 7216 7217  2237 4831 7217  276 4831 7217  1664 4779 7218  2901 5014 10613  2472 7219 10614  2472 7219 7342  2618 5218 7220  1488 5218 7220  2341 7221 10904  4972 8438 10904  3070 4779 7222  518 4779 7222  1232 9430 9884  2563 6327 9430  1830 3464 7224  371 3464 7224  2777 4581 7225  2778 9490 9491  77 5619 9356  2156 5619 7226  5619 7227 8889  1535 7227 8889  1989 7228 8376  4971 7228 8376  2534 7023 7229  2534 7229 7684  3947 7230 10265  2215 4925 7355  2169 6886 7874  2169 7231 7874  6830 7232 10148  867 6830 7232  2686 4965 7233  1710 4965 7233  2068 7234 9753  1197 7234 9753  3472 7234 7235  620 3472 7235  2235 3648 7657  3648 7236 7657  2070 3801 7237  1211 3801 7237  4138 8015 9767  2070 3801 7238  314 4068 7239  2070 4068 7239  422 6639 7240  422 4602 7240  2593 4318 7241  1338 4318 7241  718 3135 7242  718 3632 7242  740 4825 7243  2020 4825 7243  4201 7245 9842  7244 7245 9842  234 7245 9030  234 7543 9030  981 4951 7246  3001 7246 9484  1992 3798 7247  940 3798 7247  486 5715 10076  1620 5715 7248  2441 6701 9122  2441 7249 9122  2417 3923 7250  777 3923 7250  5895 7251 8591  2526 7251 8591  1827 4841 7252  1827 3140 7252  3139 4145 10169  3139 4187 7253  447 4682 7254  2042 4682 7254  2042 4682 7255  1067 7672 9191  1759 6271 7256  2678 6271 7256  237 4568 8762  237 7257 8762  7257 7258 8762  238 7257 7258  1021 7664 9911  1021 3114 7259  1160 6129 7260  2190 6129 7260  4683 7099 7261  514 7099 7261  808 3895 7262  808 3865 7262  967 6602 7263  2644 6602 7263  2874 4158 7264  1219 4158 7264  1939 3997 7265  1939 5134 7265  3118 5595 7266  1570 5595 7266  4058 5093 7267  3108 4058 7267  2247 3522 7268  789 7268 7414  2972 4596 7269  562 4596 7269  1173 3793 7270  1997 3793 7270  2402 8278 9752  1566 4746 10592  3611 4604 7272  1443 4604 7272  3810 7273 8577  993 7273 8577  1802 4950 7274  2924 4950 7274  2945 6369 8535  1066 7275 10097  2347 5362 7276  705 5362 7276  1113 3495 7277  1767 3495 7277  1373 4691 10229  404 4691 7278  1061 6420 7748  1999 3235 7279  319 7280 8738  846 3897 7281  1998 3897 7281  1998 5304 7283  41 5304 7282  5304 7282 7283  42 7282 7283  3102 5057 7284  3102 7284 8550  5142 6523 7285  2015 6523 7285  567 3351 7286  2015 3351 7286  3321 6791 7287  728 6791 7287  1243 3380 7288  2008 5037 8547  4024 9334 9542  2598 9334 9542  2947 7110 7290  2313 7110 7290  4684 7291 7293  727 4684 7291  2006 5271 7292  5271 7292 9490  2006 7293 10272  1408 7293 10272  3656 8372 9798  1254 8372 9798  3570 7291 7295  727 7291 7295  2875 9416 9417  2330 7296 10692  1165 7297 9694  1165 3361 7297  2048 6065 7298  2988 6065 7298  1979 4864 7299  712 4864 7299  3526 5825 10620  2063 3526 7300  1820 6202 7301  3069 6202 7301  2965 5478 7302  1839 5478 7302  2017 4822 7304  2017 7303 7304  305 7304 9037  2593 6115 7305  1877 6115 7305  2796 4738 7306  2062 4738 7306  3076 6002 7307  1497 6002 7307  3963 7309 8419  2353 7309 8419  2353 7308 8419  376 3963 7309  2909 7008 7310  2087 7008 7310  3888 7311 7961  1256 3888 7311  1 7313 10789  2 7312 9293  2011 7312 7313  1485 5231 7314  1485 4617 7314  2992 4383 7315  708 4383 7315  716 3789 7316  2054 3789 7316  3816 6413 9413  1012 3816 7317  4365 7318 10317  493 4042 7318  493 5728 7319  5728 7319 7320  1622 4368 7320  2127 4368 7320  1340 3953 7321  3953 7321 10330  1771 5772 7322  3900 5772 7322  545 5007 7323  2206 5007 7323  2206 4233 7324  1009 5797 9298  5007 6143 7325  1051 6143 7325  3666 4756 7326  1472 4756 7326  2203 3738 8437  3738 7327 9586  2034 3384 7328  368 3384 7328  2034 3826 7329  1828 3826 7329  3430 6285 9299  1302 7330 8124  2161 7331 9639  970 7331 9639  2161 4481 7332  800 4481 7332  7312 7333 8227  2 7312 7333  2016 4408 7334  1308 4408 7334  1067 3242 7335  2016 3242 7335  2959 7160 7336  600 7160 7336  2072 4733 7337  1430 4733 7337  804 4733 7338  2072 4733 7338  419 4242 7339  2307 4242 7339  3066 7136 7340  2018 7136 7340  6507 7341 8411  1017 6507 7341  2108 4386 7342  518 4386 7342  1088 6761 7343  3209 6761 7343  615 5343 7344  3013 5343 7344  382 7345 10074  382 3866 7345  3197 6450 7346  724 3197 7346  975 4131 7347  2109 4131 7347  784 4033 7348  2119 4033 7348  2698 5249 9570  1022 5249 9570  1670 5706 8739  1670 7350 8739  500 5678 9713  500 7351 9713  2260 5008 10281  2260 7352 10281  2260 5008 7353  227 7353 10860  825 5292 7354  2392 5292 7354  2215 7230 7355  3947 7230 7355  5686 7356 10565  2896 7356 10565  753 8460 8823  753 7357 8460  2999 7605 10884  2212 7359 7605  3716 7359 7605  1145 3716 7359  1987 3877 7360  796 3877 7360  643 5967 7361  3308 5967 7361  2067 5799 7362  2977 8091 9486  2944 7363 9098  2944 8680 9098  2695 4992 9070  2362 4992 9070  2411 7365 9811  1194 7365 9811  3831 6676 7366  407 6676 7366  3975 6062 7367  2148 3975 7367  3453 7368 9140  3566 7368 9140  6189 7369 7578  128 6189 7369  1031 5042 7370  2747 5042 7370  1238 5392 7371  2024 5392 7371  1159 3491 9691  763 3491 7372  1542 4127 7373  2946 4127 7373  1347 4506 7374  4506 7374 8331  2094 4246 7375  4246 7375 8682  2094 4007 7376  758 4007 7376  2797 7650 10471  1143 7397 8211  388 4432 9307  4432 7378 9307  4086 5982 7379  2150 4086 7379  2150 4086 7380  530 4086 7380  2150 5370 7381  5370 7381 7413  2075 7382 9094  2075 4711 7382  2627 5346 7383  579 5346 7383  5495 7384 8361  589 5495 7384  716 3699 7385  1956 7385 8123  1860 6680 7386  3411 6680 7386  54 8911 10778  54 7387 8911  55 7387 7388  7901 8151 9616  6111 7389 8821  1112 7389 8821  290 5651 8797  2221 3481 9423  2221 7391 9423  641 4117 7392  4117 7392 8431  782 4064 7393  2221 4064 7393  4245 7394 8848  2120 4245 7394  2120 4293 7395  575 4293 7395  2041 4706 7396  1652 4706 7396  1795 4805 7397  4805 7397 10098  1074 3313 7398  3313 7398 9916  1204 3924 7399  2033 3924 7399  1723 6033 7400  2998 6033 7400  750 7141 7401  2837 7141 7401  802 4295 7402  2039 4295 7402  1356 3822 8485  223 3822 7403  3449 7243 7404  2020 7243 7404  650 4418 7405  4418 7405 9297  3099 4665 7406  582 4665 7406  1357 4131 7407  1357 3622 7407  897 6131 7408  2925 6131 7408  2949 6243 7409  1495 6243 7409  2615 4500 7410  3245 7410 9614  981 4951 7411  2100 4951 7411  2100 4951 7412  4951 7412 7946  3502 7412 7413  744 3502 7413  3522 7268 7414  1546 3522 7414  2837 7141 7415  1967 7141 7415  1782 3353 7416  946 7055 9650  1489 5192 7417  2876 8849 9601  5277 7264 7418  1219 7264 7418  4243 4835 7419  2528 4243 7419  1013 5096 7420  3101 5096 7420  5110 7421 9813  219 5110 7421  3072 4663 9125  3072 7422 9125  2953 6186 7423  466 6186 7423  1902 3988 7424  1322 3988 7424  2102 3961 7425  1043 3961 7425  2102 7426 7704  2102 7427 7704  871 4913 8155  2102 3961 7427  1186 3395 7428  2099 3395 7428  2099 5614 7429  5614 7429 9636  3164 7429 7430  588 3164 7430  396 6660 8946  396 7431 8946  562 4596 7433  2091 4596 7433  2367 3779 7433  562 3779 7433  6919 7434 8864  341 6919 7434  1225 4941 7435  2123 4941 7435  775 4065 7436  2123 4065 7436  2123 4066 7437  391 4066 7437  2190 6130 7438  908 6130 7438  908 5303 7439  2559 5303 7439  5624 7349 7440  1022 7349 7440  2134 7442 8671  217 4050 7442  217 7441 7442  7441 7442 8671  2134 4979 7443  801 4979 7443  801 3626 7444  2165 7444 8261  5725 7445 8478  2242 5725 7445  507 3383 7446  1806 3383 7446  2201 7447 9673  525 7447 9673  2141 3231 7448  1059 3231 7448  691 7449 7674  2141 7449 7674  2974 7674 8494  1496 2974 7674  587 3172 8219  2579 4553 9058  3576 7452 10444  1141 7452 9390  506 5256 7453  2167 6134 10091  1310 3911 8748  745 3911 7454  993 5252 7455  2798 5252 7455  2050 3800 7456  1152 3800 7456  717 3710 7457  2050 3710 7457  2050 3710 7458  1193 3710 7458  547 6188 7459  3621 6188 7459  3054 8892 8893  3054 7460 10102  2147 3975 7461  1766 3975 7461  175 7462 7463  175 7463 10830  2195 5424 8998  2195 7463 8998  2195 2948 7464  1050 2948 7464  581 4315 7465  2165 4315 7465  2165 4315 7466  1227 4315 7466  2888 7467 10389  1212 7467 10389  267 6164 7468  2363 6164 7468  483 7094 7469  4367 7094 7469  2133 4032 7470  1582 4032 7470  2250 3842 7471  1182 3842 7471  790 4262 7472  2250 4262 7472  2077 4151 7473  4151 7473 7648  737 5434 7474  2077 5434 7474  356 4094 7475  2138 4094 7475  2138 3155 7476  773 3155 7476  596 3451 7477  1314 4389 8187  3639 6813 7478  1200 6813 7478  1616 5569 7479  2693 5569 7479  2115 7480 10403  2115 3033 7540  2114 5057 9587  2114 7481 9587  1073 4554 7482  2114 4554 7482  2115 3033 7483  783 4763 10094  1081 7484 10572  2506 7484 10572  3221 7485 9092  3221 3222 7485  4099 7187 7486  407 4099 7486  3297 7486 7487  1075 3297 7487  3657 7092 7488  3657 7488 7973  2535 7489 10115  2535 7489 10124  1663 5362 7490  2347 5362 7490  1804 4183 7491  462 4183 7491  1274 4061 10235  663 4061 7492  2675 4467 7493  421 4467 7493  2121 5498 7494  4065 7494 7738  1810 3945 7495  1810 3718 7495  1586 5498 7496  1586 5101 8262  1484 4905 7497  2755 4905 7497  131 4777 7498  2414 5795 10295  2414 7500 10295  2078 5123 7500  464 5123 7500  2713 7051 7501  2719 7501 8786  2297 3929 7502  1372 3929 7502  3423 4903 9703  2059 3423 9703  3359 7504 9072  3764 10009 10129  2583 7499 7505  814 6618 7531  2078 3692 7506  3692 7506 7715  636 7507 7818  636 3890 7818  2761 5835 7564  204 5835 7564  843 5879 7509  2542 5879 7509  2560 5303 7510  908 5303 7510  2904 5688 7511  2904 7511 7827  39 5701 8282  2066 5701 7512  6259 7513 8983  899 6259 7513  4090 7513 7514  1311 4090 7514  5024 7103 7515  2149 7103 7515  4327 6703 7516  418 4327 7516  1335 3109 7517  2321 3109 7517  1365 4359 7518  2303 4359 7518  1449 4254 7519  3216 4254 7519  2303 6071 8895  2989 6071 8895  385 5108 7521  2225 5108 7521  2543 5747 7522  882 5747 7522  2657 6384 9730  722 7183 8377  385 4978 7524  2253 4978 7524  1005 4047 7525  2253 4047 7525  3565 7526 10901  836 3565 7526  5275 7527 8561  1979 5035 7527  2765 5052 7528  1573 5052 7528  1293 3343 7529  1293 3194 7529  1035 3220 7530  1035 3219 7530  814 7505 7531  2583 7505 7531  439 7532 8590  3550 7532 8590  2684 4626 7640  2684 7640 8391  2785 6896 10256  1131 6896 10256  1521 4781 7535  2735 4781 7535  2602 5515 7536  1589 5515 7536  688 3733 7537  2090 7537 7554  1217 3669 7538  2090 3669 7538  5684 7539 7830  2844 3851 7539  2115 7540 10403  3032 7540 10403  1442 6986 7541  4237 7541 8605  991 4303 7542  2626 4303 7542  233 4614 9030  233 7543 9030  3608 8145 10145  2174 3608 7544  809 3891 7545  2174 3891 7545  513 3212 7546  2174 3212 7546  2189 4730 7547  1392 4730 7547  2557 5690 7548  566 5690 7548  5602 9144 10895  3230 7549 7673  1014 5969 7550  3056 5969 7550  386 5757 9203  3573 5757 9203  5384 7552 8766  1039 5384 7552  601 3980 7553  2131 7552 8766  3733 7537 7554  1094 7554 10161  2772 4005 7555  1234 4005 7555  2330 3957 7556  2330 3910 7556  2082 3303 7557  3303 8489 9494  4319 10468 10708  2225 4319 7558  5364 7558 7559  2225 7558 7559  2032 3736 7560  543 3736 7560  2766 5127 7561  1567 5127 7561  3233 6944 7562  2235 6944 7562  2074 4969 9212  2074 7563 9212  205 4865 7564  2761 4865 7564  653 5849 7565  5849 7565 8947  3902 4435 7566  2350 7566 7800  494 5578 8152  2574 5578 8152  2534 7023 7568  352 7023 7568  3689 6933 7569  571 3689 7569  1152 3984 7570  2073 6933 8460  1144 4345 7571  2334 4345 7571  6312 7572 10649  1250 7572 10649  453 4717 7573  2216 4717 7573  1102 4048 7574  2216 4048 7574  1579 5228 7575  2481 5228 7575  1151 3748 7576  3748 6225 7576  2443 8136 8266  24 8136 10842  3246 6460 8706  3246 3937 7578  2181 3287 7579  3287 7579 7829  2181 3646 7580  515 3646 7580  4377 7581 7582  673 4377 7581  2105 4376 7582  1423 4376 7582  2124 5792 7583  366 5792 7583  3057 4369 9600  4369 7584 9600  1245 4078 7585  4078 7585 9971  761 5059 7586  2204 5059 7586  2204 5059 7587  1531 5059 7587  6778 6779 7588  60 6779 7588  2055 4574 7589  2055 4953 7589  2424 4928 7590  383 4928 7590  1214 3932 7591  2081 3932 7591  1101 3498 7592  2081 3498 7592  2884 5106 7593  1400 5106 7593  2959 5780 7594  1020 5780 7594  2692 7595 9878  261 7595 9891  2138 3834 7596  1089 3834 7596  1211 3801 7597  2079 3801 7597  2514 6966 7598  1290 6966 7598  3080 6046 7599  1779 6046 7599  2372 4391 7600  399 4391 7600  1574 5166 7601  2255 7601 7602  5166 7601 7602  665 5166 7602  4975 7574 7603  2217 4975 7603  3523 7604 10400  693 7604 10400  2212 7358 7605  7358 7605 10884  2137 3156 7606  529 3156 7606  3414 7606 7607  1099 3414 7607  2137 3432 7608  773 6052 8894  302 10716 10732  302 7609 10716  2203 5031 7610  1511 5031 7610  746 4839 7611  4103 4839 7611  5552 7612 7613  638 5552 7612  2263 5694 7613  1879 5694 7613  1163 4605 7614  2257 4605 7614  2287 4653 7615  461 4653 7615  3238 6648 7616  1858 6648 7616  1282 7410 7617  3245 7410 7617  1281 4215 7618  2446 4215 7618  850 4057 7619  2089 4057 7619  504 4845 7620  2310 4845 7620  606 4373 7621  606 3035 7621  603 4677 7622  3206 7622 9990  3013 5343 7623  1551 5343 7623  2824 7624 8871  1116 9402 10297  1362 4543 7625  2106 4543 7625  1501 4479 7626  2231 4479 7626  634 5445 7627  2231 5445 7627  4714 8266 10662  25 8266 10662  3534 4054 7629  3534 7629 8865  2744 7630 10673  4478 9777 10673  2088 7631 10064  1643 5794 7631  2151 5308 7632  5308 7632 9906  3344 7090 7633  672 7090 7633  2143 4402 7634  4402 7634 10143  354 4921 7635  2143 4921 7635  4370 7634 7636  1300 4370 7636  3320 6792 7637  2286 3320 7637  2838 6302 7638  1962 6302 7638  583 6816 7639  3015 7639 10263  355 7533 8391  355 7640 8391  145 5630 7641  3182 5630 7641  2300 5208 7642  828 5208 7642  2300 4624 7643  523 4624 7643  1473 4624 7644  2300 4624 7644  826 4824 7645  2224 4824 7645  2224 7645 10748  2224 7646 10748  1117 3508 7647  2177 3508 7647  2177 3508 7648  410 3508 7648  800 4352 7649  2177 4352 7649  517 5683 10470  517 7650 10470  171 4220 7651  2322 4220 7651  795 3184 7652  2188 3184 7652  4729 7653 7654  1392 4729 7653  5168 7654 10099  442 5168 7654  3233 6944 8222  3233 7655 8222  417 4658 7656  3289 4658 7656  4658 7657 7856  2235 4658 7657  1341 4272 7658  2296 4272 7658  1533 4894 7659  2096 4894 7659  2096 3698 7660  738 3698 7660  683 4140 7661  683 4037 7661  4612 7662 10018  2841 7662 7963  4767 6000 7663  673 6000 7663  2739 9909 9911  5026 9909 9968  1198 3708 7665  2110 3708 7665  3551 7665 7666  2110 7665 7666  3449 7243 7667  3449 7667 9481  7034 7668 8358  2126 7034 7668  4473 4905 7669  1484 4905 7669  1035 3218 7670  3218 7670 8180  2187 5120 7671  836 5120 7671  2754 6122 7672  1067 6122 7672  2816 7673 10435  810 7673 8220  1496 7450 7674  2141 7450 7674  4754 6205 7675  2051 6205 7675  783 4763 7676  2116 4763 7676  859 5877 7677  2104 5877 7677  2220 6863 7678  2704 6863 7678  2173 4484 7679  529 4484 7679  3414 4484 9062  2173 4484 7680  614 3145 7914  2173 3145 7681  1980 4121 7682  3824 7682 9190  1420 6346 7683  2436 6346 7683  2528 4243 7684  1060 4243 7684  2338 4238 7685  538 4238 7685  819 4129 7686  2196 4129 7686  6149 7687 9881  2196 6149 7687  3426 6272 7688  706 6272 7688  2980 4646 7689  983 4646 7689  918 4425 7690  2249 4425 7690  2249 4425 7691  4425 7691 9654  2145 3771 7692  1205 3771 7692  2145 4095 7693  4095 7693 9573  2145 3273 7694  3273 7694 10502  4024 7517 7695  2321 7517 7695  1280 3927 7696  2389 3927 7696  3800 7563 7697  2074 7563 7697  1642 6330 7698  2690 6330 7698  1684 6341 7699  2332 6341 7699  3930 5991 7700  5991 7700 10360  1821 4958 7701  1900 4958 7701  1731 6026 7702  2751 6026 7702  699 7044 7703  699 3207 7703  457 7426 7704  457 2864 7704  1270 5013 7705  2180 5013 7705  2180 5013 7706  5013 7706 10101  1980 4483 7707  1980 4121 7707  1434 3035 8606  3035 4869 7708  196 6412 9949  2258 6412 7709  1066 7710 10700  7710 10699 10700  3067 5146 10643  2258 7710 10699  2208 7712 9619  1105 7712 9619  857 3841 7713  3841 7713 7714  2589 9619 9682  2208 9619 9682  2787 9937 9938  1128 7962 9937  4252 7716 9961  1969 4252 7716  6180 7716 7717  923 6180 7717  3213 6754 7718  1885 6754 7718  1829 3872 7719  1279 7719 10702  3573 5757 7720  1744 5757 7720  2521 9252 9391  2182 7721 9391  2262 4038 7722  780 4038 7722  2387 5436 7723  1561 5436 7723  4965 7129 7724  2288 7129 7724  3280 6794 7725  1123 6794 7725  2129 3048 7726  563 3048 7726  1068 3203 7727  2218 3203 7727  2218 3203 7728  616 3203 7728  2218 3332 7729  1098 3332 7729  3089 9012 10733  3089 10733 10734  1788 7348 7731  2119 7348 7731  2698 9570 10084  2368 7349 9570  2267 5577 7733  3487 9363 10560  876 6470 7992  876 7734 7992  5678 7735 9877  2268 7735 9877  786 5224 7736  2268 5224 7736  3024 6313 7737  2037 6313 7737  2121 4067 7738  1237 4067 7738  551 4067 7739  2121 4067 7739  2468 4723 7740  847 4723 7740  2651 4848 7741  2651 7741 8251  1647 3558 7742  1647 3475 7742  6040 7743 8859  980 6040 7743  4036 5995 7744  1922 5995 7744  1864 4866 7745  4866 4886 7745  3497 5637 7746  512 5637 7746  3739 5804 7747  1240 7747 9581  1850 4835 7748  3235 4835 7748  4070 6672 7749  1903 6672 7749  1647 5338 7750  1647 3558 7750  826 3047 7751  2223 3047 7751  1085 2975 8476  1085 7752 8476  520 2975 7753  2223 7752 8476  679 5436 7754  2387 5436 7754  2395 8369 8370  2286 7755 8369  2732 5134 8464  1939 5134 7756  1421 5283 7757  1421 4890 7757  1301 3794 7758  1653 7758 9645  273 7759 7994  2273 7759 7994  1411 7760 10746  3083 7760 10746  1011 4953 7761  4953 5303 7761  2535 7762 10466  629 7762 10466  3022 4917 7763  585 4917 7763  1697 7764 10576  1697 3869 7764  1711 5716 7765  2995 4108 10472  3376 7598 7766  1914 7766 9630  472 5716 7767  2717 5848 9893  3891 7768 7891  3832 7768 7892  1015 6613 7769  3151 6613 7769  2184 4014 7770  337 4014 7770  1439 4936 9406  1031 4936 7771  3261 6001 7772  2456 6001 7772  3278 8632 8759  544 3278 7773  3374 7774 10509  1084 3374 7774  2493 8163 8164  2493 8163 10342  1906 7745 7776  1906 4369 7776  2230 4644 7777  793 4644 7777  1454 3306 7778  2140 3306 7778  5033 7778 7779  2140 7778 7779  824 4161 7780  4161 7780 7781  1266 4159 7781  2136 4159 7781  2136 4159 7782  358 4159 7782  2272 4544 7783  564 4544 7783  3321 7287 7784  1736 7287 7784  3620 5586 7785  1022 5586 7785  2767 7786 10249  1216 3943 10250  2932 6532 7787  979 6532 7787  2885 4055 10230  2152 4055 7788  2274 3547 7815  2152 3547 7789  571 3689 7790  2152 3689 7790  283 3812 7791  2397 3812 7791  1906 7584 7792  1906 3853 7792  3770 7793 9698  2595 7793 9698  1962 5056 9934  1962 7794 9934  3819 7795 7797  1266 3819 7795  2135 4161 7796  824 4161 7796  3165 7797 9903  549 3165 7797  2316 6106 7798  2316 5925 9395  866 5130 7799  4126 5130 7799  3902 7566 7800  449 3902 7800  1295 3316 7801  2350 3316 7801  1793 7802 8685  1793 4267 7802  3342 6814 7803  210 3342 7803  2518 4444 7804  997 4444 7804  359 3513 10481  359 7805 10481  821 4786 7806  2213 4786 7806  2213 5351 7807  368 5351 7807  4082 4552 7808  2733 4082 7808  2852 5336 7809  830 5336 7809  880 4255 7810  2154 4255 7810  1601 5444 7811  2154 5444 7811  2154 4255 7812  1449 4255 7812  2355 4313 7813  1498 4313 7813  4893 7813 7814  854 4893 7814  3547 7789 7815  752 7789 7815  353 4538 7816  1975 4538 7816  931 4690 10707  931 7817 10707  2269 7507 7818  2984 7818 7840  1779 6046 7819  6046 7819 7820  479 4178 7820  2159 4178 7820  513 3212 7821  2547 4246 10071  2623 6518 7822  1825 6518 7822  1426 4705 9282  816 4705 7823  5620 7059 7824  2320 5620 7824  4241 7825 8963  466 7825 8963  5732 7826 8430  793 7826 8430  2889 5544 7827  1095 5544 7827  2996 4773 7828  555 4773 7828  1047 3524 9452  1047 7829 9452  1114 3186 7830  2172 3186 7830  2172 4413 7831  1380 4413 7831  694 3851 7832  2172 3851 7832  1168 6645 7833  1168 3907 7833  2543 4902 7834  568 4902 7834  191 4410 7835  1576 4410 7835  1361 4054 7836  1361 4671 7836  1714 4532 7837  1714 4343 7837  2383 4758 7972  2383 5644 7838  3171 6485 7839  1882 6485 7839  2800 10517 10518  942 7840 10517  1250 3973 7841  3973 7841 10518  1045 8632 8759  1045 7842 8632  459 3690 7843  2207 3690 7843  2207 4013 7844  4013 7844 9073  3389 7843 7845  2207 7843 7845  2705 6070 8587  2457 7846 9809  1440 7847 10392  2849 7847 10392  535 5892 7848  2828 5892 7848  2324 7850 8018  2324 7849 7850  4017 7954 9547  4017 9547 10122  613 5162 7851  2169 5162 7851  2060 3544 7852  489 3544 7852  934 4520 7853  2306 4520 7853  2306 6188 7854  547 6188 7854  2306 4520 7855  1467 4520 7855  3288 3758 10558  3289 7856 10559  3743 7857 8033  683 3743 7857  854 4893 7858  2396 4893 7858  820 7895 9056  820 5184 9056  2284 5183 7860  817 5183 7860  2227 5315 7861  5315 7861 8290  6001 6300 7862  2227 6300 7862  892 4686 10341  892 7863 10341  1600 4961 10267  1600 7864 10267  2237 7217 7865  3144 7217 7865  874 4163 7866  2159 4163 7866  826 3433 7867  2222 3433 7867  2222 3291 7868  405 3291 7868  3461 7867 7869  2222 7867 7869  2291 4361 7870  528 4361 7870  801 7871 9716  2166 7871 9716  2166 4188 7872  1269 4188 7872  4188 8468 9538  2166 4188 7873  3139 4145 7874  754 4145 7874  2840 6640 7875  647 6640 7875  842 4394 7876  3685 4394 7876  1431 3566 7877  630 3814 10137  997 4571 7878  1718 3267 8000  2232 5373 7879  1064 5373 7879  844 4304 7880  2232 4304 7880  1208 3595 7881  3595 7881 7882  842 5589 7882  5589 7882 9615  1933 6972 7883  3750 6972 7883  3653 7199 7884  1978 7199 7884  1988 5681 8009  1412 4418 9297  3922 7886 8596  1814 3685 8637  6729 7887 8582  401 7887 8582  1253 4143 7888  2425 4143 7888  2244 7889 8174  2244 3405 8174  2200 6155 7890  922 6155 7890  809 4026 7891  2176 4026 7891  2176 4028 7892  411 4028 7892  3830 5812 7893  1689 5812 7893  4521 7859 7894  540 4521 7894  7859 7895 9056  2283 7859 7895  3768 7346 7896  1241 7896 8396  1053 7897 8171  1053 4102 7897  1430 4734 7898  2226 7898 7899  4734 7898 7899  453 4734 7899  3105 7900 7901  1070 3105 7900  56 7901 8151  2541 5393 7902  644 5393 7902  2631 6764 9268  2287 6764 7903  1478 4653 7904  2287 4653 7904  1904 6583 7905  3766 7905 9563  1947 4062 7906  1263 3875 8169  443 4334 7907  2650 4334 7907  1084 3374 7908  2725 3374 7908  733 3971 7909  3971 7909 9158  922 3058 7910  1502 7910 8157  2198 4564 7911  590 4564 7911  1445 4564 7912  2198 4564 7912  1742 5660 7913  3005 5660 7913  3145 7681 7914  1341 7681 7914  5002 9450 10066  2302 5002 7915  45 5002 9625  45 7916 9625  7916 7917 9625  46 7916 7917  2302 7915 9591  2302 7918 9591  1997 3793 7919  721 3793 7919  689 4309 7920  689 4325 7920  2994 9187 9222  591 7921 10532  3484 6951 7922  756 3484 7922  34 4863 9579  34 7923 9579  7923 7924 9579  35 7923 7924  1042 4164 7925  2264 4164 7925  2436 6627 7926  1301 6627 7926  1706 3234 7927  2185 3234 7927  2185 3234 7928  1206 5631 9327  5782 7927 7929  2185 7927 7929  1332 3686 7930  2703 8117 8118  6535 7931 9941  389 6535 7931  823 4575 7932  4575 7932 8683  977 5135 7933  2916 5437 10055  2711 4078 7934  1245 4078 7934  2323 4353 7935  1257 4353 7935  4104 7935 7936  848 4104 7936  4353 5934 7937  2323 4353 7937  692 7938 8584  692 3986 7938  1780 3985 7939  1390 5696 8563  5551 7545 7940  2335 5551 7940  1219 4158 7941  2335 4158 7941  2335 4158 7942  4158 7942 10655  3557 7943 10457  3282 5653 9668  429 3569 7944  3569 4672 7944  2622 4806 9721  2332 7699 9720  2309 4291 7946  1106 4291 7946  3001 7948 10223  152 7947 10557  2309 7947 7948  2304 3664 7949  100 3664 7949  934 4851 7950  2304 4851 7950  2117 6935 7951  5886 6935 7951  1931 3673 7952  1071 3673 7952  845 7953 9136  2782 7953 9136  1344 7954 10508  2645 7954 10508  3168 5366 7955  1186 5366 7955  2205 6325 7956  1040 8332 9477  2205 5427 7957  1346 5427 7957  1487 5072 7958  1487 5012 7958  3346 7959 9850  3597 7959 9850  383 5607 7960  2328 5607 7960  2724 5914 7961  584 5914 7961  2787 8972 9937  2319 7963 8972  971 9936 10019  971 7963 8972  2211 7964 10894  1396 7964 10894  2743 5583 7965  2062 5583 7965  456 5422 7966  2230 5422 7966  245 4674 10324  3446 4674 7967  4020 7475 7968  2197 4020 7968  3482 7969 7970  1544 3482 7969  2197 4129 7970  819 4129 7970  2383 4758 7971  1091 4758 7971  2383 7838 7972  883 7838 7972  1611 5675 9784  896 5675 7973  2540 6219 7974  1000 6219 7974  2046 3741 7975  1493 3741 7975  3087 7976 10511  868 7976 10005  566 7548 7977  3519 7977 9025  4716 4925 7978  3529 4716 7978  3678 6330 7979  3678 5421 7979  1376 4184 7980  2569 4184 7980  3330 8489 9494  2403 3330 9494  2825 4603 7982  1016 4603 7982  2785 5517 7983  851 5517 7983  473 4747 7984  473 4339 7984  1868 3062 7985  1336 3062 7985  3350 4152 10361  1127 3350 7986  605 3578 7987  2007 7987 10892  2370 4061 7988  1274 4061 7988  3681 7377 7989  690 3681 7989  1969 3983 7990  1969 4252 7990  707 6683 7991  3082 6683 7991  1818 4578 8592  1818 7992 8592  1636 6496 7993  2273 6496 7993  4842 7993 7994  2273 7993 7994  1515 2956 7995  786 7995 9185  2551 6426 8104  2551 7997 8104  914 6058 7997  6058 7997 8144  574 7998 9427  3362 7998 9427  1360 5893 7999  3727 5893 7999  3267 7878 8000  997 7878 8000  2495 6912 8001  2495 8001 10333  1272 3553 8002  1620 3553 8002  1584 5011 8003  2327 5011 8003  1043 4638 8004  2573 4638 8004  2573 6373 8005  895 6373 8005  890 4525 8006  3121 10245 10289  883 5645 8007  2385 5645 8007  2760 5199 8008  1275 5199 8008  1677 5681 8009  1677 3756 8009  7624 8010 8871  3163 7624 8010  3719 6253 8011  242 6253 8011  3306 3910 8012  2330 3910 8012  2202 4676 8013  1102 4676 8013  1808 6015 9638  1808 8014 9638  2079 4138 8015  2079 3801 8015  981 7411 8016  2823 7411 8016  2084 3725 8017  520 3725 8017  2645 7850 8018  1201 8657 8953  2324 3887 8019  848 3887 8019  2176 4026 8020  1255 4026 8020  179 3093 8656  1438 8021 8325  3504 5334 8314  1354 5334 8314  1761 5863 10057  1761 8023 10057  492 3694 8024  2036 8024 10605  467 5625 8025  2606 5625 8025  364 4153 9864  2295 4153 8026  2295 4741 8027  1569 4741 8027  3018 8027 8028  712 7299 9425  1669 4146 8029  2397 4146 8029  2397 3812 8030  1304 3812 8030  742 4922 8031  3946 4922 8031  4442 5604 8032  348 5604 8032  1816 6442 8033  2529 6442 8033  3161 6285 8034  1026 6285 8034  1950 6805 8035  6805 8035 9117  1409 4591 8036  1409 4438 8036  2365 4773 8037  1425 4773 8037  555 4773 8038  2365 4773 8038  900 5234 8039  2663 5234 8039  2239 4480 8040  524 4480 8040  2239 3612 8041  1176 3612 8041  2389 5071 8042  1149 5071 8042  3029 4660 10552  2254 4660 8043  836 3565 8044  2254 3565 8044  2254 4660 8045  1446 4660 8045  1916 6920 8046  3581 6920 8046  1785 4162 8047  2364 4162 8047  6873 8048 9265  157 6873 8048  849 4280 8049  2432 4280 8049  2254 8043 8050  2254 3565 8050  3418 6094 8051  1834 6094 8051  2610 4889 8052  1421 4889 8052  2605 8053 9150  1139 8053 9150  1347 4505 8054  2233 4505 8054  2233 4505 8055  558 4505 8055  1716 3618 8056  1178 3618 8056  423 5454 8058  1712 5454 8057  5454 8057 8058  2219 8057 8058  3256 5058 8059  1512 3256 8059  1946 3614 8060  731 3614 8060  2612 7807 8061  368 7807 8061  2065 3531 8062  1124 3531 8062  1082 3737 8063  1082 3406 8063  1911 6993 8064  3924 6993 8064  538 3857 8065  2257 3857 8065  3693 4885 8066  2257 4885 8066  5826 8486 10215  1532 4815 8068  3224 4815 8068  1322 4977 8069  3266 4977 8069  2566 5075 8942  1710 3898 8071  1710 4965 8071  2308 4294 8072  1755 4294 8072  907 6240 8073  2522 6240 8073  2217 8074 10355  3138 8074 10355  904 4106 8075  4106 8075 9970  2345 3371 8076  936 3371 8076  2483 5273 8077  887 5273 8077  2483 8077 8742  409 4775 8078  5273 7157 8079  2483 5273 8079  1865 4199 8080  1865 4021 8080  1483 3293 8081  1483 4035 8081  4784 6334 8082  2475 4784 8082  3722 8082 8083  2475 8082 8083  4259 6185 8084  155 6185 8084  772 8085 9823  772 4035 8085  2238 4412 8086  1380 4412 8086  2043 3766 8087  3766 8087 9564  2151 5124 8088  3133 5124 8088  1841 5809 9526  1841 8089 9526  1169 4933 8090  3251 4933 8090  2977 7362 8091  2067 7362 8091  1642 3679 8092  1642 3469 8092  1363 4546 8093  2336 8093 9142  855 7115 8094  2464 7115 8094  2158 8095 9961  2158 3994 8095  1646 3478 10080  1810 3478 8096  3796 6716 8097  3000 3796 8097  2955 5819 8098  1697 5819 8098  2683 4134 8099  1303 4134 8099  2362 5443 8100  2362 4992 8100  2014 6347 8101  2014 4275 8101  2349 5511 8102  1603 5511 8102  3216 4254 8103  768 4254 8103  7254 8104 8416  2042 7254 8104  3705 4238 8105  2338 4238 8105  2935 5589 9615  546 4509 9519  3407 5333 8107  1528 5333 8107  2315 5339 8108  794 5339 8108  1147 3340 8109  1457 3340 8109  2474 5176 8110  1023 5176 8110  2474 4201 8111  1197 4201 8111  3240 6585 8112  1827 6585 8112  2965 7302 8113  782 7302 8113  3306 8012 8114  504 8012 8114  3786 4684 8115  3786 8115 9259  1385 3133 8116  1385 8989 9315  1331 4493 9838  4493 9838 10357  2703 7930 8118  1332 7930 8118  415 6741 8119  6741 8119 10356  398 4853 8120  2405 4853 8120  755 4407 8121  755 4411 8121  6261 8122 10096  1609 3540 8122  3699 7197 8123  1189 7197 8123  2378 5765 8124  3430 5765 8124  524 6321 10337  524 8125 10337  3521 3763 8126  3521 10684 10685  2439 5642 8127  3371 5642 8127  2918 3783 8242  790 8128 10674  2252 5570 8129  443 5570 8129  4935 8128 8130  790 8128 8130  2847 5285 8131  1547 5285 8131  2531 8132 10168  4148 5802 8132  1775 6190 9633  1775 8133 9633  2792 4143 8135  2792 8135 9758  2792 9689 9758  344 8134 8135  24 7577 8136  7577 8136 8266  1134 8137 10261  2443 8137 10261  564 8068 8139  3224 8068 8139  2625 7783 8139  564 7783 8139  2443 4714 8140  1279 4714 8140  445 4311 8141  2243 4311 8141  2243 4311 8142  4311 8142 8768  6326 8143 10899  120 6326 8143  1708 5381 8144  2277 5381 8144  3608 7544 8145  1187 7544 8145  3090 9012 10733  3090 8146 9012  3360 5465 8538  3360 8147 8538  3140 5175 8148  2673 8148 10657  279 3217 8150  280 8149 8642  2259 8149 8150  55 7388 9616  55 8151 9616  2923 6007 8152  494 6007 8152  3636 8153 8154  860 3636 8153  2452 8154 10414  1038 8154 10414  2101 4913 8155  2101 3961 8155  2720 8156 8598  1009 8156 8598  3058 7910 8157  3058 8157 10053  2360 5833 10177  2360 8158 10177  2280 4797 8159  4797 8159 9322  2280 4228 8160  1707 4228 8160  2280 4516 8161  33 4516 8161  652 3374 8162  1519 3374 8162  537 7775 10342  537 8163 10342  1119 4375 8164  2493 4375 8164  4593 7953 8165  2493 4593 8165  2579 4553 8166  1343 4553 8166  2733 4556 8167  894 4556 8167  1683 5751 8168  2622 5751 8168  3875 7906 8169  1947 7906 8169  1159 5392 8170  3492 5392 8170  2275 3774 8171  1053 3774 8171  2275 4698 8172  1388 4698 8172  2793 8173 10164  222 8173 10163  4082 7889 8174  437 4082 8174  2244 3407 8175  3407 8107 9879  1764 5261 8176  1764 5701 8176  2290 7338 8177  2072 7338 8177  1814 4687 8178  1814 3811 8178  432 4039 8179  4039 8179 9482  2401 5964 8180  1563 5964 8180  2346 5349 10408  2346 8181 10408  4123 7295 8830  1575 4123 8182  2590 3634 9943  373 3634 8183  2924 4950 8184  1746 4950 8184  2480 4694 8185  1223 4694 8185  2480 3369 8186  954 3369 8186  1314 7477 8187  3451 7477 8187  1016 4603 10300  4603 8188 10300  937 8189 10560  2267 8189 10560  2266 5577 8190  1121 6798 8260  2267 8190 8191  1121 8191 8259  3151 6613 8192  1863 6613 8192  1919 6887 8193  3263 6887 8193  1154 3687 8194  2433 5163 8488  714 8195 9188  714 3373 8195  2881 5955 8196  363 5955 8196  3176 5161 8197  1092 5161 8197  147 4919 8198  2298 4919 8198  1342 4263 8199  2298 4263 8199  367 3939 8200  1769 3939 8200  3180 6370 8201  1990 6370 8201  2648 6533 8202  1358 6533 8202  2536 5330 8203  5330 8203 9048  1054 8204 9704  2616 8204 9704  2652 6006 9704  1041 6006 8205  373 8183 10077  373 8206 10077  3270 8207 8377  2657 8207 8377  1025 3582 8208  2553 3582 8208  469 5734 8209  2553 5734 8209  3807 8192 9096  2553 3807 9096  1143 7377 8211  2797 8211 10471  1787 6386 8212  1787 4450 8212  1438 4788 8213  2261 4788 8213  177 4229 8214  2261 4229 8214  3338 4312 8215  681 8215 10021  2378 7330 9238  2378 8216 9238  2378 3603 8217  1052 3603 8217  2470 4939 8218  973 4939 8218  2579 7451 9058  3123 7451 8219  2816 5003 8220  1464 5003 8220  1693 4251 8221  2409 4251 8221  2519 5778 8222  938 5778 8222  2746 4076 9626  2746 8223 9626  932 5744 8367  5744 8367 9549  2089 4057 8225  1248 4057 8225  3772 8226 8274  1218 6951 8226  2446 7618 9029  2446 8227 9029  3 8227 8228  1989 4047 8229  1989 5108 8229  416 5941 10516  1675 5941 8230  3269 8004 8231  2573 8004 8231  1394 4641 8232  2288 4641 8232  799 4897 8233  2318 4897 8233  4115 8234 8849  959 8234 8849  1246 3920 8235  2328 3920 8235  2109 3622 8236  2620 3622 8236  3223 6098 8237  2281 3223 8237  3104 7595 8238  261 7595 8238  2751 5608 8239  1625 5608 8239  2321 4193 8240  2321 4565 8240  2749 6415 9133  3225 8241 10171  8128 8242 10674  2252 8128 8242  10 8243 8506  4746 8243 8506  1744 4817 8244  1744 5757 8244  958 6865 8245  3510 6865 8245  2753 3667 9171  2868 4012 8247  851 4012 8247  2674 5418 8248  1330 5418 8248  611 3429 8249  611 4529 8249  2650 6234 8250  961 6234 8250  1064 7879 10305  1064 8251 10305  246 5920 10181  246 8252 10181  2916 5437 9712  3542 8253 10054  3713 8324 9627  1491 3713 8254  1246 5451 8255  3627 5451 8255  833 5446 8401  833 8256 8401  4057 6831 8257  1968 6831 8257  5577 6075 8258  1843 6075 8258  8190 8191 8259  2266 8190 8259  3043 4999 8260  3043 4022 8260  1269 3626 8261  1269 4189 8261  1107 5101 8262  2902 8914 9882  5667 8263 8320  184 5667 8263  2885 8264 10230  1140 8264 10230  661 4589 8265  2711 4589 8265  25 7628 10662  2443 4714 8266  1064 3497 8267  2157 3497 8267  1181 3311 8268  3311 9120 10668  2173 7679 8269  2808 8269 10205  1944 3856 8270  739 3856 8270  837 5646 8271  2434 5646 8271  1447 4916 8272  2294 4916 8272  754 3696 8273  2167 3696 8273  3436 8274 9804  1218 8274 9804  1368 4508 8275  1368 3712 8275  4067 7104 8276  1977 7104 8276  3867 8076 8277  936 8076 8277  7271 8278 9752  12 7271 8278  1389 8279 10310  1389 4645 8279  4618 8280 9241  2293 4618 8280  4030 8281 10340  1228 4030 8281  5701 7512 8282  38 7512 8282  4620 4727 8283  2449 4620 8283  644 3629 8284  644 5393 8284  2442 5636 8285  5636 8285 9083  3098 7097 8286  521 7097 8286  2317 7809 8287  830 7809 8287  3071 5835 8288  2761 5835 8288  3398 7446 8289  1806 7446 8289  2532 4740 8290  771 4740 8290  1213 3918 8291  3918 8291 8441  2497 6427 8292  3120 8292 8978  2205 7956 8293  3226 7956 8293  1301 4801 8294  3688 4801 8294  2936 5322 8295  438 5322 8295  2693 5726 8296  1651 5726 8296  2839 4559 8297  831 4559 8297  1713 3204 8298  656 9577 10220  3498 7006 8299  3498 5565 8299  2700 6498 8300  1834 6498 8300  2450 4577 8301  1455 4577 8301  6198 6602 8302  1076 6198 8302  3388 8302 8303  3388 8303 9560  1049 7028 8304  3155 8304 10634  6906 8305 9543  569 4249 8305  2270 3977 8306  1356 3977 8306  621 3977 8307  2270 3977 8307  3543 5886 8308  495 5886 8308  3872 7719 10702  748 3872 8309  4544 8310 9985  2272 4544 8310  2475 5066 8311  2475 4784 8311  2822 5423 8312  1466 5423 8312  789 5375 8313  789 4447 8313  2779 8314 8639  3504 8314 8639  669 3005 8764  2552 3005 8315  3401 6328 8316  1724 6328 8316  1172 8317 9571  1172 8654 9571  536 3258 8318  2486 3258 8318  2925 5715 8319  486 5715 8319  185 3759 8320  2278 8320 8792  1118 3547 8321  2274 3547 8321  6159 6724 8322  317 6724 8322  2412 4130 8323  1330 4130 8323  6858 8324 9258  651 8324 9258  3093 8021 8325  1393 3093 8325  1095 8326 9513  4284 8326 9513  1836 5911 8327  2351 5911 8327  3748 8328 8329  1151 3748 8328  8252 8329 10181  247 8252 8329  1750 5792 8330  1750 5272 8330  822 4344 8331  2180 4344 8331  3045 6325 9477  3045 8332 9477  2759 6686 8333  964 6686 8333  2863 6451 8334  1528 6451 8334  569 4249 10117  1289 4249 8335  1160 7260 8336  3402 7260 8336  1784 3754 8337  1174 3754 8337  3852 7815 8338  752 7815 8338  3917 5179 8339  3917 8339 8616  756 4156 8340  756 6410 8340  835 6630 8341  2329 6630 8341  2329 5032 8342  567 5032 8342  1465 3081 8343  1604 3081 8343  1316 4337 8344  4337 8344 10479  839 4601 8345  2282 4601 8345  474 3854 10479  1199 3854 8346  2361 6575 8347  478 6575 8347  1199 5327 9453  1199 3854 8348  563 6670 8349  3731 6670 8349  468 4150 8350  2289 4150 8350  3900 8350 8351  2289 8350 8351  5722 8352 8360  958 5722 8352  392 6192 8353  3205 6192 8353  1479 5130 8354  2503 5130 8354  3028 7148 8355  1116 7148 8355  963 3700 8356  2448 3700 8356  2118 4033 8357  784 4033 8357  2966 5520 8358  1083 5520 8358  2296 4327 8359  2296 4272 8359  2340 4343 8360  1714 4343 8360  2080 7384 8361  2080 6276 9186  3590 5990 8362  2385 5990 8362  2772 5844 8363  1662 5844 8363  1314 4389 8364  2545 4389 8364  719 3424 9145  2710 3424 8365  1027 6860 8366  4976 6860 8366  3037 7185 8367  932 7185 8367  5512 8368 10081  1104 8368 10081  2395 4807 8369  2286 4807 8369  7755 8369 8370  955 7755 8370  548 4807 8371  4203 4807 8371  3158 5417 8372  5417 8372 9211  623 5448 8373  623 4114 8373  3199 7340 8374  2018 7340 8374  2495 3564 8375  1115 9305 10125  1005 4047 8376  1005 4971 8376  722 7523 8377  2657 7523 8377  2501 3821 8417  3821 8378 8417  2299 4861 8379  4861 8379 10009  919 4861 8380  2299 4861 8380  1413 4503 8381  2598 4503 8381  1603 3422 8382  1185 3422 8382  3295 7482 8383  2114 7482 8383  2375 4814 8384  1239 4814 8384  2424 4928 8385  2424 5872 8385  678 4465 8386  3356 4465 8386  1360 3467 8387  3467 8387 8388  853 6067 8388  2508 6067 8388  2508 4401 8389  293 8389 10475  3455 8390 10125  4392 8390 10125  2439 5642 8391  2439 7533 8391  4958 6776 8392  64 4958 8392  3190 3979 10284  403 3979 8393  1162 3705 8394  2337 3705 8394  1976 7190 8395  3243 7190 8395  3768 7896 8396  2292 3768 8396  4175 8397 9581  2292 4175 8397  4070 8396 8398  2292 8396 8398  3419 6963 8399  1924 6963 8399  416 3670 8400  3973 8400 10516  1598 5633 8401  2458 5633 8401  1247 5570 8402  3571 7522 9921  1629 8403 8404  2407 8403 8404  3007 6802 8404  2407 6802 8404  1415 4400 8405  1415 4399 8405  516 5062 8406  2506 5062 8406  5062 7184 8407  1079 7184 8407  1497 6002 8408  3363 6002 8408  865 3898 8409  1621 3898 8409  4719 5217 8410  297 4719 8410  2108 7341 8411  2108 6504 8411  5528 7404 8412  2020 7404 8412  1898 5103 8413  5103 6037 8413  1683 4242 8414  419 4242 8414  441 8454 8638  4040 8454 8638  2277 8104 8416  2277 5381 8416  378 3824 8417  2501 3824 8417  1291 5605 8418  3870 9342 9344  844 4493 8419  3963 4493 8419  1700 5926 8420  2409 8420 8421  5926 8420 8421  481 5926 8421  738 3698 8422  3698 8422 8436  336 5459 8423  336 4014 8423  2244 3405 8424  1082 3405 8424  3586 8425 10224  2312 3586 8425  6591 8062 8426  1124 8062 8426  3591 8426 8427  617 3591 8427  186 8428 8843  3016 4513 10449  3016 8429 10449  2788 7777 8430  793 7777 8430  2704 7393 8431  2221 7393 8431  2704 4117 8432  1582 4117 8432  541 5900 8433  3277 5900 8433  2676 4321 8434  1352 4321 8434  471 3628 8435  1668 3628 8435  1189 3347 8436  2594 3347 8436  3738 7327 8437  915 7327 8437  1548 4970 8438  2341 4970 8438  2186 8439 10619  2186 4557 8439  106 8441 10808  107 8440 10873  2456 8440 8441  3004 6337 8442  984 6337 8442  705 3417 8443  1610 3417 8443  338 5851 8444  338 5953 8444  5063 8445 10536  1669 5063 8445  2231 5446 8446  833 5446 8446  1085 2975 8447  2688 2975 8447  2688 6711 8448  1220 6711 8448  2972 6407 10158  2427 6407 10158  2427 8450 8451  2427 8449 8451  58 8451 9090  2484 7152 8452  852 7152 8452  2127 4360 8453  798 4360 8453  441 4526 8454  2315 4526 8454  3471 8108 8455  1270 3471 8455  6197 8256 8456  2459 6197 8456  2274 3852 8457  1571 8457 9155  1651 5727 8458  2702 5727 8458  4926 8459 8981  1310 4387 8459  2073 7570 8460  3984 7570 8460  4451 6472 8461  3780 4451 8461  1300 3808 10427  1300 4370 8462  3180 4410 10336  192 4410 10336  5134 7756 8464  2125 7756 8464  1946 3266 8465  209 8465 10799  3624 8285 8466  1138 8285 8466  1928 6876 9217  577 6876 8467  2349 5401 8468  5401 8468 10314  5870 8469 9054  863 5870 8469  2317 5743 8470  2317 4000 8470  846 5100 8471  1586 5100 8471  1264 5170 8472  1264 4059 8472  3246 6460 8473  1855 6460 8473  1210 8351 8474  4314 8351 8474  1283 5397 8475  3300 5397 8475  2223 7753 8476  2975 7753 8476  2722 8477 9415  1419 8477 9415  2129 4244 8478  770 4244 8478  1136 3456 8479  4213 9234 10110  1110 7060 8480  3499 8951 9669  1432 7149 8481  2860 7149 8481  2673 8482 10657  1051 8482 10657  2387 4788 8483  1438 4788 8483  2297 3894 8484  3894 4907 8484  3822 7403 8485  2039 7403 8485  153 8067 10215  153 8486 10215  3222 5519 8487  1202 9072 9116  2433 8194 8488  3687 8194 8488  3303 7557 9494  1348 3303 8489  516 4260 9123  516 5034 8490  3428 8491 8492  663 3428 8491  3427 6953 9932  1086 3427 9932  2364 4971 8493  1005 4971 8493  691 8047 8494  2364 8047 8494  2988 8038 8495  2365 8038 8495  2802 5714 8496  1523 5714 8496  1539 5925 8497  2316 5925 8497  2316 6106 8498  578 6106 8498  1850 6420 8499  3127 6420 8499  1214 3926 8500  2408 3926 8500  2408 3314 8501  767 3314 8501  2408 5399 8502  1572 5399 8502  4558 8439 10619  2325 4558 8503  1041 4818 8504  3019 4818 8504  2488 5601 8505  5601 8505 10539  1566 4746 8506  3942 8506 9861  1826 6551 10738  1826 4475 8507  5261 5304 8508  40 5261 8508  2326 4380 8509  2326 5223 8509  1669 3511 8510  281 3511 8510  2853 8511 8512  1148 8511 8512  2778 5271 8512  1148 5271 8512  1137 4988 8513  2413 4988 8513  3749 5770 8514  2413 3749 8514  3253 5061 8515  1361 5061 8515  1790 6167 8516  4919 6167 8516  2367 4982 8517  1448 4982 8517  3915 7758 8518  1653 7758 8518  3346 6815 8519  1437 6815 8519  736 6658 8520  3724 6658 8520  2983 5999 8521  1398 5999 8521  1235 4043 8522  2661 4043 8522  2386 3677 8523  1191 3677 8523  3554 5431 8524  470 5431 8524  3279 6452 8525  1045 6452 8525  2359 7038 8526  1671 7038 8526  1984 7390 8527  2976 7390 8527  550 7173 10075  4861 10009 10010  2752 5174 8529  943 5174 8529  2991 7070 8530  2354 7070 8530  214 8532 10843  215 8531 9205  2500 8531 8532  2162 5517 8533  4452 5517 8533  1781 5766 8534  3208 5766 8534  2945 7275 8535  1451 7275 8535  1734 5902 8536  2491 5902 8536  3237 4155 8537  1260 4155 8537  4041 8538 9435  4041 5465 8538  2331 5073 8539  1318 5302 9530  4404 8539 8540  387 4404 8540  3567 7703 8541  1594 7703 8541  2251 4808 8542  568 8542 10209  1115 8375 8543  3564 8375 8543  1046 4545 10522  1046 8544 10522  2843 7660 8545  738 7660 8545  6802 6814 8546  211 6814 8546  2008 7288 8547  3380 7288 8547  543 5659 8548  3805 8548 8658  7400 8549 10377  324 8549 10377  3011 8078 8550  409 8078 8550  2696 5891 8551  511 5891 8551  5891 7603 8552  2696 5891 8552  1271 8553 9141  2638 8553 9141  2326 6588 8554  2326 4380 8554  3470 8286 8555  521 8286 8555  578 4956 8556  3112 4956 8556  1780 5973 8557  2054 3789 9528  2444 5508 8558  832 5508 8558  2444 5508 10724  2444 8559 10724  2675 6319 8560  1069 6319 8560  664 5275 8561  664 4297 8561  2668 5526 8562  1327 5526 8562  1390 7939 8563  3985 7939 8563  2014 6347 8564  2473 6347 8564  1567 5127 8565  2342 5127 8565  5036 7592 8566  2342 5036 8566  562 3779 8567  2468 3779 8567  2467 7049 8568  470 7049 8568  893 4208 8569  2339 4208 8569  1294 3373 8570  1294 4329 8570  2715 6314 8571  2037 6314 8571  4539 6336 8572  2214 6336 8572  1002 4652 8573  2746 4652 8573  2749 8241 10171  2746 8574 10172  3715 6444 8575  1145 6444 8575  1174 5488 8576  1174 3754 8576  993 5252 10104  993 8577 10104  533 4937 8578  3250 4937 8578  646 7047 8579  3336 7047 8579  1940 4488 8580  1196 4488 8580  2411 7365 8782  2411 8581 8782  2821 6564 8582  401 6564 8582  295 3294 8583  295 3598 8583  3044 7938 8584  3044 5566 8584  268 3849 8585  2382 3849 8585  1241 7896 8586  1241 4071 8586  7846 8587 9809  1044 7846 8587  3318 6412 8588  196 6412 8588  465 5990 8589  465 4648 8589  1502 4177 8590  1502 3550 8590  448 5240 9038  448 8591 9038  2661 4043 8592  711 4043 8592  539 3254 8593  3067 8593 10700  2458 5633 8594  560 5633 8594  843 4598 8595  2416 4598 8595  2416 4599 8596  501 4599 8596  3721 8595 8597  2416 8595 8597  5989 8598 9729  1009 8598 9729  3025 7383 8599  579 7383 8599  1334 3979 8600  3190 3979 8600  2186 4557 8601  2186 3874 8601  4186 8602 9705  2839 8602 9705  2571 4996 8603  873 4996 8603  2449 7042 8604  969 3878 8867  1442 7541 8605  1442 3441 8605  3035 7708 8606  1054 7708 8606  1575 3795 8607  1575 4123 8607  652 3962 8608  3962 4253 8608  3729 7198 8609  1183 7198 8609  2911 8610 9358  388 8610 9358  2352 3661 8611  1876 3661 8611  2352 5077 8612  726 5077 8612  6918 6919 8613  340 6918 8613  2125 6787 8614  2125 5535 8614  2565 4629 8615  1374 4629 8615  4629 8616 9370  2565 4629 8616  4709 6560 9967  82 4109 8619  82 8617 8619  83 8617 8618  8617 8618 8619  2348 8618 8619  1813 6481 8620  2369 8620 8622  1283 3416 8621  2369 3416 8621  6481 8620 8622  795 6481 8622  3313 4354 8623  1170 10016 10316  3533 4536 8624  1419 4536 8624  3663 6609 8625  2529 6609 8625  3397 7177 8626  2471 3397 8626  959 5192 8627  2471 5192 8627  3213 5637 8628  1555 5637 8628  2879 8629 8630  570 8629 8630  570 5653 9841  570 8630 9841  3583 8631 9045  540 3583 8631  2442 8285 8632  3278 8285 8632  2489 4862 8633  486 4862 8633  2489 3516 8634  1880 3516 8634  6245 8634 8635  869 6245 8635  2688 8448 8636  3726 8448 8636  3685 7886 8637  501 7886 8637  2394 4820 8638  441 4820 8638  579 5346 8639  3504 5346 8639  3941 7585 8640  1844 3941 8640  862 8641 8921  862 6350 8921  8149 8150 8642  279 8150 8642  3263 6887 8643  1046 6887 8643  2918 5290 8644  1534 5290 8644  537 5491 8645  3252 5491 8645  2470 5159 8646  413 5159 8646  452 8647 10492  452 10381 10382  1010 6633 8648  3038 6633 8648  3218 5343 8649  615 5343 8649  2549 5659 8650  3339 5659 8650  1723 4802 8651  4802 8651 8652  6540 6541 8652  2545 6541 8652  1371 3394 8653  1371 3772 8653  2927 6749 9571  2927 8654 9571  2571 5890 8655  667 5890 8655  3093 8656 9138  178 8656 9138  1201 8018 8657  2645 8018 8657  543 3736 8658  2379 3736 8658  2379 4632 8659  827 4632 8659  1273 4632 8660  2379 4632 8660  2723 4694 8661  954 4694 8661  2012 4674 8662  245 4674 8662  546 8106 9519  2935 8106 8663  232 6774 8664  6774 8664 9177  4614 8110 8665  1023 8110 8665  2065 3586 8666  476 3586 8666  2384 4759 8667  1500 4759 8667  353 3393 8668  2384 3393 8668  883 4759 8669  2384 4759 8669  3752 7162 8670  1981 7162 8670  218 3966 8671  2134 3966 8671  2950 6255 8672  1749 6255 8672  1948 6345 8673  6345 8673 9859  3545 6825 8674  1163 6825 8674  697 6063 8675  697 5305 8675  3480 4898 9228  1198 4898 9228  104 8677 9277  4447 7414 8678  1546 7414 8678  2079 4138 8679  1276 4138 8679  1098 4371 9098  1098 8680 9098  3720 6709 8681  1147 6709 8681  2547 4085 8682  1056 4085 8682  1349 4391 8683  2372 4391 8683  6914 6915 8684  253 6914 8684  473 4909 8685  473 4747 8685  2831 5096 8686  601 3980 8837  1238 3492 8687  2893 3460 10653  3121 8006 8688  890 8006 8688  3345 7146 8689  2111 3345 8689  990 5669 8690  2978 5669 8690  3606 5776 8691  1682 8691 9959  6580 6581 8692  309 6580 8692  1358 4732 8693  2371 4732 8693  2027 4185 8694  1287 4185 8694  666 5005 8695  2420 5005 8695  2059 5441 8696  2059 3423 8696  3438 5132 8697  360 3438 8697  285 5124 10529  2440 6933 10436  2440 8699 10436  1428 3631 8700  3631 4194 8700  590 4564 8701  2721 4564 8701  3893 8514 8702  2413 8514 8702  2438 6884 8703  1569 6884 8703  2992 7315 10394  2438 7315 10394  390 4983 8705  2867 4983 8705  3246 7578 8706  129 7578 8706  2341 7038 8707  2341 4970 8707  410 3508 8708  2636 3508 8708  37 2933 10793  2933 8709 8710  36 8710 8711  3195 7924 8711  35 7924 8711  2811 9793 9794  2811 8712 8713  271 8713 8714  2812 8713 8714  2812 8714 8942  1905 4588 8715  18 4588 8715  3526 5825 8716  619 5825 8716  853 4463 8717  4463 8717 9750  5413 8623 8718  1170 8623 8718  481 5413 8719  2509 5413 8719  3955 7646 8720  2224 7646 8720  1259 4053 8721  4053 8721 8753  1207 3717 8722  2460 3717 8722  1205 3771 8723  2460 3771 8723  2460 3771 8724  3771 8724 10549  1693 5562 8725  2636 5562 8725  3649 6804 8726  1188 6804 8726  2609 5015 8727  111 5015 8727  3413 7202 8728  2163 7202 8728  312 4940 8729  2720 4940 8729  4081 8729 8730  311 4081 8730  3001 8731 9484  2596 8731 9484  2393 6221 8732  822 8732 8733  6221 8732 8733  2394 6221 8733  1820 4052 8734  1820 5262 8734  2431 4572 8735  1277 4572 8735  421 3564 8736  2495 3564 8736  1134 8138 8737  3224 8138 8737  7280 8738 9693  318 8738 9693  643 5706 8739  1771 3901 9725  2525 4619 9372  2382 4619 8740  2382 4619 8741  903 4619 8741  1384 4774 8742  1384 4775 8742  3087 7976 10005  3087 8743 8940  2374 4336 8744  1158 4336 8744  2374 5265 8745  704 5265 8745  391 6193 8746  2885 6193 8746  2052 6054 8747  2052 5022 8747  3911 7454 8748  2060 7454 8748  1076 8146 8749  3360 8146 8749  2342 8565 8750  2342 5036 8750  2499 6256 8751  3806 10335 10573  2325 5334 8752  1179 5334 8752  6850 7032 8753  2399 6850 8753  384 5656 8754  3348 5656 8754  3570 7295 8755  2005 7295 8755  2396 4893 8756  1498 4893 8756  4892 8756 8757  554 4892 8757  2764 6024 8758  984 6024 8758  3278 7773 8759  2164 7773 8759  3281 7079 8760  330 7079 8760  1032 6345 9859  1032 4091 8761  2087 7258 8762  2087 4568 8762  1638 4363 8763  4363 4478 8763  3005 8315 8764  1741 8315 8764  1185 4768 8765  3356 4768 8765  2131 7553 8766  3980 7553 8766  445 3075 8767  2380 3075 8767  2380 4632 8768  1273 4632 8768  3860 6506 8769  827 6506 8769  912 4889 8770  2610 4889 8770  3032 4995 8771  1058 4995 8771  668 4848 10742  668 8772 10742  4033 7487 8773  1075 7487 8773  5247 7031 8774  199 7031 8774  1556 5109 8775  2376 5109 8775  1190 6424 8777  1925 6424 8776  6424 8776 8777  2376 8776 8777  2045 3866 8778  2045 5049 8778  2603 5755 8779  889 5755 8779  6038 8780 10411  737 6038 8780  1754 4157 8781  1754 5874 8781  3589 5796 8880  3589 8782 8880  1493 4514 8783  2498 4514 8783  2498 4514 8784  1026 4514 8784  2835 5588 8785  1203 5588 8785  2713 4904 8786  1387 4904 8786  1690 5923 8787  3228 5923 8787  1921 3990 8788  1233 3990 8788  781 3068 8789  1556 3197 9353  2116 4763 8790  1383 4763 8790  2462 5419 8791  855 4165 8918  3759 6224 8792  1156 6224 8792  1277 4259 8793  2432 8793 9265  827 4695 8794  2465 4695 8794  366 3804 9775  1222 3804 8795  5154 5946 8796  2194 5946 8796  2976 7390 8797  289 7390 8797  546 4509 8798  2421 4509 8798  2421 5227 8799  1233 8799 8802  2422 5227 8800  857 5227 8800  857 5227 8801  2421 5227 8801  5227 8799 8802  2422 5227 8802  1612 3959 9897  1190 3959 8803  1441 4599 8804  1441 4998 8804  4059 7353 8805  227 7353 8805  5457 7962 8806  2576 5457 8806  2576 5457 8807  893 5457 8807  1695 5352 8808  2556 5352 8808  2556 5352 8809  355 5352 8809  3124 4837 8810  1320 4837 8810  139 8811 9235  4385 5006 8812  140 5006 8812  2614 3146 8813  935 9433 10601  2706 6833 8814  945 6833 8814  4020 7596 8815  1089 7596 8815  3082 6683 8816  1893 6683 8816  1815 4037 8817  683 4037 8817  4811 5463 8818  118 5463 8818  4541 6009 8819  224 4541 8819  2789 6199 8820  967 6199 8820  2827 3525 8821  1112 3525 8821  654 3951 8822  1776 3951 8822  3984 8460 8823  2074 3984 8823  2441 6614 8824  995 6614 8824  1573 3838 8825  1573 5051 8825  2854 6016 8826  897 6016 8826  1525 3479 8827  1525 4981 8827  2733 4082 8828  1242 4082 8828  1200 3746 8829  2809 3746 8829  4123 8182 8830  2344 8182 8830  2415 3271 8831  862 3271 8831  2415 5125 8832  373 5125 8832  1434 5125 8833  2415 5125 8833  557 3512 8834  3286 3512 8834  1558 7188 8835  1558 3904 8835  3833 5871 8836  3833 5876 8836  601 8686 8837  2831 8686 8837  2566 8942 10905  269 8070 8838  1327 4830 8839  2403 4830 8839  2400 5449 9565  839 4601 8840  1588 5449 8841  2400 5449 8841  5310 5311 8842  265 5311 8842  3759 8428 8843  185 3759 8843  991 5501 8844  2627 5170 9544  754 6034 8845  754 4145 8845  944 5933 8846  2606 5933 8846  923 6180 8847  2552 6180 8847  1129 3198 8848  3292 8848 10686  959 5192 9601  959 8849 9601  1952 4529 8850  1410 4529 8850  2647 8851 9112  1973 6318 8851  1100 3509 8852  2419 3509 8852  2419 5580 8853  367 5580 8853  1477 5580 8854  2419 5580 8854  2658 5379 8855  1916 5379 8855  2658 3674 8856  1161 3674 8856  582 4665 8857  2658 4665 8857  2279 4180 8858  3114 4180 8858  2404 4288 8859  1957 4288 8859  2479 6078 8860  669 6078 8860  953 6170 8861  2479 6170 8861  3769 7239 8862  313 3769 8862  2406 4069 8863  1405 4069 8863  342 4069 8864  2406 4069 8864  2510 7973 9200  2510 8865 9200  3534 5496 8866  617 5496 8866  3878 8604 8867  2449 8604 8867  2401 7642 8868  2401 4170 8868  675 6642 8869  3781 6642 8869  1236 3116 8870  3116 5466 8870  1153 5689 8871  2824 5689 8871  5975 8872 9670  600 5975 8872  3219 6983 8873  1958 6983 8873  1208 8874 9470  4142 8874 9470  6191 8042 8875  1149 8042 8875  474 4046 8876  2655 4046 8876  4511 8877 10544  659 4511 8877  213 8878 8879  2407 6802 8879  212 6802 8879  2435 5047 8880  552 5047 8880  2947 7110 8881  2947 3850 8881  2090 7538 8882  2090 4569 8882  4588 7180 8883  17 7180 8883  1886 4870 8884  1433 4870 8884  1368 4508 8885  2593 4508 8885  1645 5829 8886  3358 5829 8886  78 8887 8888  2430 5619 8888  77 5619 8888  2430 5374 8889  1535 5374 8889  1901 5611 8890  1901 5610 8890  2492 4986 8891  585 4986 8891  2558 8055 8892  558 8055 8892  3054 7460 8893  1342 7460 8893  773 7608 8894  3432 7608 8894  2989 7520 8895  1146 7520 8895  2161 7332 8896  7332 8896 9303  4416 7006 8897  2502 7006 8897  1112 5898 8898  2788 5898 8898  2788 5732 8899  1111 5732 8899  2507 5672 8900  1017 5672 8900  2511 5302 8901  989 5302 8901  2417 5852 8902  539 5852 8902  1204 3923 8903  2417 3923 8903  3382 8904 10741  1475 3382 8904  1866 8751 8905  3806 8751 8905  1853 6263 8906  2613 6263 8906  1285 4098 8907  1930 4098 8907  2240 6706 8908  3307 6706 8908  2848 5291 8909  1534 5291 8909  1079 4367 8910  2069 4367 8910  7387 7388 8911  2445 7388 8911  6104 8912 9041  2930 6104 8912  3348 8913 10362  3348 5656 8913  551 7739 8914  2902 7739 8914  1048 3899 10575  3899 8915 10575  4388 8916 10886  1309 4388 8916  588 4173 8917  2462 4173 8917  4165 8791 8918  2462 8791 8918  2142 7065 8919  3981 7065 8919  1633 4515 8920  1633 3858 8920  7499 8641 8921  2414 7499 8921  3211 8922 10906  2390 8922 10906  2775 5122 8923  1135 5122 8923  1417 4335 9152  1417 4792 9152  1357 4131 8925  2640 4131 8925  2640 5360 8926  496 5360 8926  2429 4678 8927  1461 4678 8927  728 4678 8928  2429 4678 8928  1271 6376 8929  2429 6376 8929  226 5008 8930  2851 5008 8930  1681 4727 8931  2601 4727 8931  446 5165 8932  2418 5165 8932  1226 3614 8933  1226 3613 8933  2725 5753 8934  938 5753 8934  2725 3374 8935  652 3374 8935  1294 4328 8936  3630 8936 9225  3846 6178 8937  1721 6178 8937  3709 7458 8938  1193 7458 8938  3672 7364 8939  2362 7364 8939  2970 8940 10511  1133 8940 9028  1013 5096 8941  1013 4261 8941  270 8838 10905  270 8942 10905  2986 6021 8943  1004 6021 8943  1313 4910 8944  2520 4910 8944  2520 5154 8945  334 5154 8945  2537 7431 8946  2537 6659 8946  1679 6181 8947  2447 6181 8947  2447 6181 8948  6181 8948 9789  2064 4528 8949  1410 4528 8949  3500 4583 10753  1215 8950 8951  1110 9046 9669  3500 9046 9669  3729 5984 8952  758 5984 8952  3885 8657 8953  3885 5410 8953  671 5369 8954  671 3944 8954  1093 3512 8955  1617 3512 8955  670 6070 8956  1755 6070 8956  2582 5709 8957  1786 5709 8957  775 7436 8958  4941 7436 8958  3262 5319 8959  1109 5319 8959  3215 8053 8960  1139 8053 8960  2238 4284 8961  694 4284 8961  598 6338 8962  598 3894 8962  2934 8963 9952  5065 9736 9952  581 3251 8964  2783 3251 8964  1713 5409 8965  2542 5409 8965  2189 4730 8966  2189 4051 8966  2681 6403 10647  2681 8967 10647  1192 6450 8968  4464 6450 8968  2353 4010 8969  1062 4010 8969  102 4519 9308  1173 3625 8971  1173 3792 8971  2319 7962 8972  7962 8972 9937  595 8616 8973  3917 8616 8973  2472 8974 10614  1018 8974 10614  1738 7633 8975  3855 7633 8975  2637 5774 8976  491 5774 8976  4003 5663 8977  1628 4003 8977  2497 5433 8978  1457 5433 8978  843 5433 8979  2497 5433 8979  5879 8979 8980  2497 8979 8980  3859 6984 8981  1310 3859 8981  1309 4956 8982  2437 4956 8982  1764 5701 8983  1764 6259 8983  1406 4740 8984  2532 4740 8984  2640 5361 8985  2640 4131 8985  877 4160 8986  2469 4160 8986  1266 3819 8987  2469 3819 8987  4247 7926 8988  861 4247 8988  3862 8116 9315  1385 8116 9315  1719 6948 8990  2572 6948 8990  860 6079 8991  2451 6079 8991  5285 6408 8992  2451 5285 8992  1711 5337 8993  3815 8993 9060  2096 4168 8994  2096 4894 8994  1295 3964 8995  2450 3964 8995  1726 5242 9420  1726 8996 9420  2564 6829 8997  882 6829 8997  176 7462 8998  176 5424 8998  4618 8999 9000  79 4618 8999  80 8999 9000  80 4443 9000  2134 7443 9001  2862 7443 9001  3720 6500 9002  715 6500 9002  1985 6758 9003  4288 6758 9003  1342 7460 9004  3182 7460 9004  1614 4567 9005  3603 6175 9617  2275 4350 9006  4350 9006 9080  1615 6491 9007  3555 6491 9007  5313 9008 10531  1915 5313 9008  1599 4906 9009  1599 4223 9009  1791 5367 9010  2634 5367 9010  2634 6394 9011  960 6394 9011  1076 6198 9012  3089 6198 9012  2381 4084 9013  1080 4084 9013  2889 4455 9014  721 4455 9014  1891 6723 9015  3675 6723 9015  847 4723 9016  4723 9016 9066  4481 7210 9017  2709 4481 9017  922 4230 9018  2637 4230 9018  6021 6593 9019  2986 6021 9019  4577 9020 10717  449 6430 9020  5897 6497 9021  255 5897 9021  3493 5813 9022  3493 5266 9022  2522 7215 9023  623 7215 9023  955 5242 9024  2516 8996 9420  566 9025 9964  2516 9025 9964  1882 4722 9026  1882 5821 9026  2488 6641 9027  2488 3747 9027  2970 8227 9028  2446 8227 9028  8227 8228 9029  4 8228 9029  2474 7245 9030  2474 4614 9030  2503 5130 9031  866 5130 9031  2503 5300 9032  1267 5300 9032  4077 9032 9033  375 4077 9033  3016 4513 9034  765 4513 9034  806 4716 9035  806 4975 9035  604 4819 10292  604 9036 10292  7303 7304 9037  304 7303 9037  1666 3839 9038  2526 3839 9038  2159 4178 9039  1396 4178 9039  2527 5559 9040  828 5559 9040  1305 4112 9041  2920 4112 9041  2761 4865 9042  1369 4865 9042  603 4736 9043  3113 4736 9043  7860 9044 10591  817 7860 9044  2453 5201 9045  1103 5201 9045  1110 5731 9046  2656 5731 9046  2656 5330 9047  602 5330 9047  2656 9048 9052  1364 9048 9052  2642 6054 9049  451 6054 9049  3241 8379 9050  1333 8379 9050  1175 3370 9051  3390 9533 9759  2922 4846 9052  1364 4846 9052  194 4874 9053  3319 7709 10533  2547 5869 9054  1735 5869 9054  5028 8473 9055  1855 8473 9055  2284 5184 9056  2284 7859 9056  4670 9804 10198  2756 4670 9057  7451 8219 9058  587 8219 9058  1389 4645 9059  1389 3469 9059  1711 5716 9060  2454 5716 9060  1242 4083 9061  1242 3059 9061  4484 7680 9062  1325 7680 9062  2466 5871 9063  660 5871 9063  1272 4930 9064  2466 4930 9064  2569 4184 9065  596 4184 9065  1448 4983 9066  2455 4983 9066  2455 4983 9067  390 4983 9067  3199 8374 9068  594 8374 9068  903 4619 9069  2525 4619 9069  986 5268 9070  2695 5268 9070  699 4212 9071  1517 4212 9071  2771 8119 9116  2771 9072 9116  2485 5128 9073  766 5128 9073  1144 3691 9074  2485 3691 9074  1191 5421 9075  1191 3677 9075  4125 7180 9076  4125 9076 10087  7185 9077 10501  1221 9077 10501  543 5659 9078  2549 5659 9078  4445 8918 9819  1317 4445 9079  3559 7278 9080  404 7278 9080  1093 5321 9081  1093 3916 9081  1847 6283 9082  1847 4320 9082  2496 3623 9083  1138 3623 9083  5046 9084 9085  1568 5046 9084  2496 5636 9085  741 5636 9085  1753 8094 9086  2464 8094 9086  2461 4941 9087  1225 4941 9087  2331 5073 9088  2331 3957 9088  464 5123 9089  2576 5123 9089  8450 8451 9090  57 8450 9090  380 9091 9569  380 3753 9091  1177 6099 9092  2473 6099 9092  762 4963 9799  762 9093 9799  2461 9087 9094  6903 9087 9094  2591 5611 9095  878 5611 9095  2553 8210 9096  879 8210 9096  1970 7011 9097  4526 7011 9097  1545 7363 9098  1545 4371 9098  946 7055 9099  4932 7055 9099  7194 9100 9101  2092 7194 9100  2592 5270 9101  834 5270 9101  1359 3972 9102  2654 3972 9102  257 4595 9103  2654 4595 9103  310 3965 9105  310 311 9105  311 9104 9105  2648 9104 9105  1637 4611 9106  4611 9106 10691  608 5106 9107  608 4572 9107  1791 5368 10528  1791 9108 10528  3236 6952 9109  973 6952 9109  2562 5632 9110  871 5632 9110  3402 7260 9111  2190 7260 9111  4095 7692 9112  1205 7692 9112  2965 8536 9113  2491 8536 9113  683 3743 9114  3743 3744 9114  2760 7204 9115  1071 7204 9115  1202 8487 9116  3222 8487 9116  856 5294 9117  2487 5294 9117  3429 8035 9118  2487 8035 9118  999 3311 9120  999 9119 9120  1407 8268 10668  3311 8268 10668  2798 5252 9121  4759 5252 9121  1913 6700 9122  1913 6701 9122  5504 8490 9123  3028 5504 9123  2200 6425 9124  2200 5377 9124  2153 6222 9125  4663 6222 9125  1442 4828 9126  2848 4828 9126  1144 4345 9127  1144 3690 9127  3706 8393 9128  403 8393 9128  1166 6606 9129  2588 6606 9129  2771 6740 9130  886 6740 9130  2402 4499 9131  840 4499 9131  1178 8056 9132  1178 3152 9132  2749 8241 9133  573 8241 9133  1941 3714 9134  1469 3714 9134  553 9135 10069  3505 9135 10069  2782 9136 9440  2782 7125 9440  3549 6214 9137  1125 6214 9137  4229 8021 9138  178 4229 9138  1705 5480 9139  1705 3668 9139  1180 3903 9140  3566 3903 9140  3562 9141 9568  2638 9141 9568  4546 8093 9142  592 4546 9142  2485 3691 9143  636 3691 9143  3230 7549 9144  1797 7549 9144  3424 8365 9145  1520 8365 9145  2930 8912 9147  2930 9146 9147  962 7182 9147  2931 7182 9147  2505 5396 9148  1145 5396 9148  1343 6161 9149  1343 4553 9149  2913 3682 9150  1139 6973 10432  587 4335 9151  4335 9151 9152  4792 8924 9152  2490 8924 9152  1321 3902 9153  1321 5523 9153  799 5264 9154  799 5811 9154  3852 8338 9155  2153 8338 9155  3096 6492 9156  1379 6492 9156  3600 7128 9157  2246 7128 9157  1223 5388 9158  2513 5388 9158  592 4546 9159  2513 4546 9159  2513 4546 9160  1363 4546 9160  1776 5862 9161  1776 3950 9161  6572 9162 9854  62 9162 9854  1404 6091 9163  2515 6091 9163  412 4827 9164  2515 4827 9164  3515 9164 9165  2515 9164 9165  3707 8501 9166  767 8501 9166  931 4501 9167  1734 4501 9167  64 6571 9168  64 4958 9168  6159 6160 9169  315 6160 9169  3470 7971 9170  1091 7971 9170  2753 8246 9171  190 9171 9546  2753 5174 9172  1585 5174 9172  943 5174 9173  2753 5174 9173  2938 4908 9174  1097 6836 9583  1907 5672 9175  1907 4386 9175  2424 5872 9176  2424 4776 9176  233 4614 9177  2428 4614 9177  2784 9180 10602  240 9178 10379  3200 9178 9179  240 9178 9179  3200 6364 9180  1286 6364 9180  6762 9181 9202  299 6762 9181  1478 4332 9182  2494 9184 9975  2494 3411 9183  461 3411 9183  845 4332 9975  845 9184 9975  2956 5626 9185  1577 5626 9185  1403 4193 9186  1403 3998 9186  4156 6922 9187  1351 6922 9187  4685 8195 9188  4685 6080 9188  1980 6977 9190  859 6977 9189  6977 9189 9190  2501 9189 9190  1067 7255 9191  4682 7255 9191  3092 5981 9192  458 5981 9192  1799 3627 9193  497 6555 10078  437 3405 9194  437 5267 9194  2434 4612 9195  2434 4206 9195  1349 8683 9196  4575 8683 9196  3970 9197 10144  2954 9197 10144  1875 4710 9198  3451 4710 9198  4745 10119 10212  454 10119 10212  3657 6815 9200  1258 6815 9200  1940 6845 9201  2786 6845 9201  3912 9201 9202  2786 9201 9202  2955 5200 9203  386 5200 9203  1081 4149 9204  3348 4149 9204  8531 8532 9205  214 8532 9205  3892 5182 9206  2606 3892 9206  4132 9110 9207  1001 4132 9207  1839 3464 9208  2562 3464 9208  2507 5672 9209  2507 5822 9209  3186 6258 9210  607 6258 9210  2948 4038 9211  1254 4038 9211  2533 6868 9212  2533 4969 9212  1504 4852 9213  2405 4852 9213  2863 9515 10500  180 9515 10852  1892 6799 9215  1892 4826 9215  4695 6506 9216  2107 6506 9216  6876 8467 9217  2530 8467 9217  2530 4171 9218  1278 4171 9218  861 4247 9219  2346 4247 9219  2730 6339 9220  1812 6339 9220  3004 6770 9221  384 6770 9221  2193 7921 10532  2193 9222 10532  957 2882 9223  2774 2882 9223  1567 5128 9224  2485 5128 9224  1294 8936 9225  1294 3956 9225  916 8458 9226  2702 8458 9226  915 5031 9227  915 6167 9227  575 7134 9229  3480 7134 9229  2967 7395 9229  575 7395 9229  2101 6575 9230  2361 6575 9230  806 3947 9231  2217 9231 10355  894 4556 9232  2578 4556 9232  1746 5662 9233  3268 5662 9233  2846 8479 9234  1136 8479 9234  3680 8811 9235  3680 9235 10282  1971 4456 9236  4456 6298 9236  2750 6797 9237  339 6797 9237  3555 6491 9238  626 6491 9238  528 5363 9239  5363 9239 9240  1631 5365 9240  2546 5365 9240  1155 8280 9241  1155 3459 9241  1088 7022 9242  2523 7022 9242  900 5215 9243  2662 5215 9243  2662 5567 9244  2171 5567 9244  2512 6039 9245  687 6039 9245  2928 7310 9246  2928 9246 9283  2470 4371 9247  1545 4371 9247  5424 8214 9248  176 5424 9248  6186 6297 9249  2953 6186 9249  2857 5991 9250  1422 5991 9250  2729 5428 9867  2729 3125 9251  534 9490 9491  2777 9491 10032  4770 6549 9253  6549 9253 10201  4166 6871 9254  1004 6871 9254  2403 4830 9255  4830 9255 9844  2092 7194 9256  3437 7194 9256  2527 6090 9257  1896 6090 9257  3288 3758 9258  651 3758 9258  3709 8938 9259  1470 8938 9259  832 5341 9260  832 4441 9260  2617 3669 9261  1217 3669 9261  3671 6312 9262  635 6312 9262  2629 5143 9263  732 5143 9263  3802 5750 9264  1268 5750 9264  156 4259 9265  156 6873 9265  1522 5259 9266  5259 9266 9588  2631 2919 9267  633 2919 9267  6764 7903 9268  886 7903 9268  6740 9268 9269  1995 6740 9269  2680 7214 9270  1257 4105 9970  117 4781 9271  2735 5463 9272  1524 5463 9272  1122 6324 9273  1122 4916 9273  2388 9274 9357  4739 9274 9357  2946 4127 10494  4127 9275 10494  2815 4094 9276  356 4094 9276  3637 8970 9277  103 8970 9277  2758 5391 9278  412 5391 9278  2524 4910 9279  1313 4910 9279  2520 4910 9955  2524 4910 9280  609 5117 9281  2524 5117 9281  4705 7823 9282  2320 7823 9282  2784 9178 10379  2928 7258 9284  238 7258 9284  2793 5382 9285  1296 5382 9285  1376 6577 9286  3377 6577 9286  1311 9287 9499  1311 4581 9499  2587 7111 9288  992 7111 9288  2587 5091 9289  2014 5091 9289  1137 4988 9290  3088 9694 9763  2759 9278 9291  412 9278 9291  3017 5306 9292  87 5306 9292  7312 7313 9293  1 7313 9293  2334 4345 9294  4345 4749 9294  680 5791 9295  2484 5791 9295  885 6650 10497  885 9296 10497  1412 7885 9297  3756 7885 9297  1009 7324 9298  4233 7324 9298  2685 9299 10672  3367 9857 10672  736 5699 9300  3996 5699 9300  2148 3946 9301  1024 9301 10660  606 3265 9302  3265 4545 9302  4417 8897 9303  2502 8897 9303  2577 4891 9304  701 4891 9304  3455 9305 10125  2577 3455 9305  1498 4891 9306  2577 4891 9306  2168 5901 9307  5901 6671 9307  103 8970 10810  2523 8970 9308  1467 4519 9309  2523 4519 9309  2082 6730 9310  2859 6730 9310  2920 4112 9311  976 4112 9311  3818 7572 9312  3691 3818 9312  2088 6785 9313  6272 6785 9313  2281 3728 9314  527 3728 9314  3740 9315 9963  3862 9315 9963  4778 9316 10397  287 4778 9316  2578 4083 9317  565 4083 9317  895 6284 9318  2574 6284 9318  4152 6650 9319  4152 9319 10361  3023 6344 9320  303 6344 9320  1935 6841 9321  2806 9321 9605  2853 6902 9322  788 6902 9322  3111 6968 9323  1769 6968 9323  3075 8900 9324  1017 8900 9324  2756 4877 10188  2756 9325 10188  2756 4877 9326  1418 4877 9326  1206 7928 9327  3234 7928 9327  2538 6493 9328  1986 6493 9328  2538 9332 10546  2538 9329 9330  173 9329 9330  9329 9331 10277  172 9331 10277  2538 9330 9332  174 9330 9332  573 4340 9333  1840 4340 9333  4468 8381 9334  2598 8381 9334  1451 4840 9335  1451 5852 9335  2859 4757 9336  2859 4896 9336  1602 6890 9337  2554 6890 9337  5556 9337 9338  2554 9337 9338  1862 6543 9339  2873 6543 9339  2479 4107 9340  2146 4107 9340  989 5328 9341  2934 5328 9341  230 5237 9343  231 9342 9367  2584 9342 9343  3870 8418 9344  1291 8418 9344  3040 5554 9345  933 5554 9345  3604 6350 9346  1435 6350 9346  1251 3523 9347  2526 3523 9347  1353 4654 9348  2561 4654 9348  2561 5582 9349  1252 5582 9349  621 4205 9350  2561 4205 9350  960 3282 9351  2849 3282 9351  2406 8863 9352  4622 8863 9352  1556 8789 9353  3068 8789 9353  1508 6134 9354  1508 5255 9354  774 7238 9355  3701 7238 9355  5619 7226 9356  76 7226 9356  1406 7081 9357  1406 4739 9357  4432 7223 9358  388 4432 9358  2364 4162 9359  1548 4162 9359  3126 9360 10721  1927 9360 9817  889 5755 9361  2597 5755 9361  2251 4902 9362  4902 9362 9532  937 5994 9363  2939 5994 9363  2939 6119 9364  1718 6119 9364  1503 3896 9365  1503 3845 9365  3892 7071 9366  1875 7071 9366  9342 9343 9367  230 9343 9367  2511 8901 9368  4241 8901 9368  265 5311 9676  2710 3424 9369  595 4974 9370  2525 4974 9370  2525 4974 9371  1444 4974 9371  4619 8740 9372  1374 8740 9372  99 5191 10638  3537 5191 9373  3616 5720 9374  1941 5720 9374  1415 4400 9375  2617 4400 9375  2671 4830 9376  1327 4830 9376  719 4474 9377  719 4267 9377  708 5376 9378  708 4383 9378  4366 8726 9379  1188 8726 9379  3017 5827 9380  1114 5827 9380  3638 7630 9381  480 3638 9381  491 6215 9382  491 4477 9382  2890 7601 9383  2255 7601 9383  1901 5611 9384  2591 5611 9384  925 5468 9385  2721 5468 9385  1522 5260 9386  2581 5260 9386  604 5596 9387  2581 5596 9387  1966 5460 9388  2910 5460 9388  1130 4672 9389  1130 3568 9389  3576 7641 9390  3182 7641 9390  4036 7744 9391  2182 7744 9391  3559 9080 9392  1659 9080 9392  4307 9393 9801  365 4307 9393  2697 5080 9394  1460 5080 9394  743 4270 9395  3170 4270 9395  4263 8198 9396  146 4263 9396  3215 5860 9397  571 5860 9397  5405 9398 9399  362 5405 9398  5044 6667 9399  1570 6667 9399  1465 4349 9400  2555 4349 9400  2555 4240 9401  1231 4240 9401  2002 3162 9402  2002 4260 9402  2619 4859 9403  881 4859 9403  1290 6966 9404  3882 6966 9404  3656 8372 9405  3656 9405 9712  4936 7771 9406  2184 7771 9406  3084 6719 9407  1871 6719 9407  413 3333 9408  413 3247 9408  556 3613 9409  3613 5618 9409  834 6777 9410  834 5270 9410  3896 6019 9411  1728 6019 9411  2609 5347 9412  912 5347 9412  3816 7317 9413  2054 7317 9413  2358 5523 9414  3770 5523 9414  3357 5119 9415  1419 5119 9415  1002 7296 10692  1002 9416 10692  3060 4362 9417  1230 4362 9417  3184 5674 9418  1142 5674 9418  2325 4558 9419  1354 4558 9419  2516 9024 9420  5242 9024 9420  497 6628 9421  2709 6628 9421  3338 8215 10021  1137 3338 9422  1001 6316 9423  3481 6316 9423  2469 4393 9424  1231 4393 9424  712 8028 9425  3018 8028 9425  815 8088 9426  3133 8088 9426  574 3363 9427  3362 9427 10027  1462 4420 9428  1462 5151 9428  6474 9429 10205  1951 6474 9429  2563 7223 9430  7223 9430 9884  1452 4432 9431  2563 4432 9431  2614 3146 9432  1656 3146 9432  935 8813 9433  2614 8813 9433  489 4787 9434  2614 4787 9434  3650 6649 9435  2630 3650 9435  2630 5052 9436  482 5052 9436  1573 5052 9437  2630 5052 9437  1747 4299 9438  674 4299 9438  1837 4696 9439  1388 4696 9439  4298 9136 9440  1835 4298 9440  893 4142 9441  2575 4142 9441  2268 7735 9442  2268 5224 9442  1983 6852 9443  2870 6852 9443  3372 4631 9444  476 4631 9444  3452 7073 9445  1949 7073 9445  644 5885 9446  644 4098 9446  1411 9447 10746  1411 5001 9447  3511 8149 9448  3051 9448 10593  1162 5048 9449  3457 5048 9449  3473 5873 9450  44 5873 9450  3623 6516 9451  1672 6516 9451  3237 8537 9452  3524 8537 9452  1199 8348 9453  3855 8348 9453  1795 7024 9454  1795 3954 9454  4327 6703 9455  1399 6703 9455  2271 5592 9456  434 5592 9456  1167 6002 9457  3076 6002 9457  349 4442 9734  349 9458 9734  2533 6868 9459  1408 6868 9459  4769 9459 9460  963 4769 9460  4568 6893 9461  236 6893 9461  2726 6816 9462  2726 5778 9462  3300 8475 9463  134 9463 10821  3416 9463 9464  134 9463 9464  978 5138 9465  2679 5138 9465  2679 3658 9468  2679 9466 9468  122 9466 9467  9466 9467 9468  123 9467 9468  1476 4899 9469  1476 7120 9469  2575 3594 9470  2575 4142 9470  1877 5943 9471  2677 5943 9471  1562 4490 9472  2989 4490 9472  2989 6071 9473  627 6071 9473  2409 6108 9474  925 6108 9474  601 3368 9475  1350 3368 9475  468 5772 9476  2599 5772 9476  1040 7956 9477  6325 7956 9477  6457 9478 10152  2366 4922 9478  1381 3989 9479  3989 4351 9479  3431 5038 9480  1650 5038 9480  3448 7666 9481  2110 7666 9481  1254 4038 9482  2262 4038 9482  1559 3457 9483  1559 3275 9483  981 5030 9484  2596 5030 9484  2596 5030 9485  1511 5030 9485  4549 9135 9486  2626 4549 9486  5018 9280 9487  2524 9280 9487  920 5344 10666  920 9488 10666  3477 4754 9489  2053 4754 9489  534 9252 10032  534 9491 10032  2778 7225 9491  2777 7225 9491  7032 7668 9492  576 7032 9492  5520 7394 9493  2966 5520 9493  2403 7981 9494  891 7981 9494  2702 5727 9495  370 5727 9495  1588 5450 9497  370 5450 9496  5450 9496 9497  2597 9496 9497  5727 9496 9498  1651 5727 9498  9287 9499 10032  2777 9499 10032  2018 4395 10611  3295 4395 9500  3033 8771 9501  1058 8771 9501  2544 4794 9502  1663 4794 9502  5361 9502 9503  975 5361 9503  1509 5140 9504  1509 3143 9504  296 297 9505  297 4719 9505  1224 4455 9506  2889 4455 9506  2641 8926 9507  496 8926 9507  2641 6146 9508  974 6146 9508  2950 8672 9509  1018 8672 9509  3992 8802 9510  2422 8802 9510  556 5711 9511  2567 5711 9511  2567 4933 9512  1169 4933 9512  1912 5931 9513  1912 4284 9513  9 3930 9641  9 9514 9641  180 9214 9515  9214 9515 10500  4803 9515 9516  2863 9515 9516  710 5911 9517  710 4366 9517  2819 5126 9518  1244 5126 9518  8106 8663 9519  2819 8663 9519  1008 5126 9520  2819 5126 9520  1380 3527 9521  2773 3527 9521  419 4414 9522  2773 4414 9522  2773 5402 9523  1063 5402 9523  2691 7510 9524  908 7510 9524  1029 6841 9525  2807 6841 9525  1007 6076 9527  3041 6076 9527  3042 6685 9527  1007 6685 9527  3789 8557 9528  1780 8557 9528  2672 5007 9529  545 5007 9529  1318 8539 9530  5073 8539 9530  3095 6492 9531  1072 6492 9531  7522 9532 9921  1247 9532 9921  2745 9051 9533  1175 9051 9533  1149 5071 9534  3731 5071 9534  1766 6061 9933  968 6061 9535  2861 6003 9536  1209 6003 9536  2861 4648 9537  465 4648 9537  4188 7873 9538  435 7873 9538  3655 7376 9539  758 7376 9539  2142 4148 9540  2769 4148 9540  1142 5674 9541  2845 5674 9541  2249 7691 9542  4024 7691 9542  1289 6171 9543  1289 4249 9543  5170 8844 9544  991 8844 9544  1264 5170 9545  2627 5170 9545  8246 9171 9546  189 8246 9546  2645 7850 9547  519 7850 9547  3432 7607 9548  1099 7607 9548  1640 4736 9549  2548 4736 9549  603 4677 9550  2548 4677 9550  3909 7360 9551  796 7360 9551  4487 9552 10732  301 4487 9552  4017 8008 9553  1275 8008 9553  4828 6986 9554  92 6986 9554  3840 8041 9555  1176 8041 9555  542 6737 9556  2818 6737 9556  2844 3851 9557  694 3851 9557  2844 3315 9558  985 3315 9558  7064 9540 9559  2769 9540 9559  2769 5802 9560  381 5802 9560  1272 4141 9561  4141 9561 9562  897 6016 9562  2612 6016 9562  1904 7996 9563  2551 7996 9563  2551 6426 9564  755 6426 9564  1316 8344 9565  4601 8344 9565  847 4276 9566  2467 4276 9566  126 9568 10763  127 9567 10827  2638 9567 9568  3905 9091 9569  2085 3905 9569  2368 7732 9570  7732 9570 10084  2486 8317 9571  2486 6749 9571  2705 6070 9572  670 6070 9572  2647 6220 9573  510 6220 9573  6317 8851 9574  1028 6317 9574  2476 4869 9575  606 4869 9575  4315 8964 9576  2783 8964 9576  3204 4992 10220  2695 4992 10220  1982 4640 9578  1394 4640 9578  2264 7924 9579  2264 4863 9579  789 5375 9580  2624 5375 9580  3739 7747 9581  2624 3739 9581  2076 7318 9582  4042 7318 9582  1097 9174 9583  2938 9174 9583  784 6200 9584  2789 6200 9584  6934 9584 9585  2789 9584 9585  2233 8055 9586  2558 8055 9586  783 3103 9587  3103 5057 9587  393 4667 9588  2580 4667 9588  2580 4434 9589  875 4434 9589  1319 4434 9590  2580 4434 9590  5573 6396 9591  2903 6396 9591  3090 8147 9592  3090 6232 9592  3665 5111 9593  715 5111 9593  700 6888 9595  1919 6888 9594  6888 9594 9595  2575 9594 9595  2602 8779 9596  889 8779 9596  2602 5297 9597  460 5297 9597  5291 6574 9598  94 5291 9598  28 3642 10807  1527 5326 9600  3057 5326 9600  2876 7417 9601  5192 7417 9601  1365 4360 9602  1365 3753 9602  1161 3674 9603  3674 9603 9604  6840 9321 9604  2806 9321 9604  6841 9321 9605  1029 6841 9605  5828 8995 9606  2590 5828 9606  3952 6903 9607  1225 6903 9607  639 3908 9608  639 3640 9608  498 5116 9609  2687 5116 9609  3077 5350 9610  426 10615 10616  2930 6104 9611  415 6104 9611  559 5453 9612  2700 5453 9612  397 5549 9613  2615 5549 9613  2615 5550 9614  935 5550 9614  2935 8106 9615  2210 8106 9615  2265 7901 9616  2265 7388 9616  3603 9005 9617  1614 9005 9617  2306 7854 9618  2876 7854 9618  2589 9619 10286  1105 9619 10286  4104 7935 9620  1257 7935 9620  978 4838 9621  4838 9621 10564  4087 8773 9622  1075 8773 9622  3579 7208 9623  187 7208 9623  1370 5976 9624  2635 5976 9624  2302 7917 9625  2302 5002 9625  387 6716 9626  4076 6716 9626  3713 8254 9627  2568 8254 9627  4154 6604 10373  4154 9628 10373  1265 5274 9629  2779 5274 9629  3376 4942 9630  569 4942 9630  2869 6405 9631  19 6405 9631  358 4159 9632  2600 4159 9632  2600 4160 9633  877 4160 9633  4016 7097 9634  1997 7097 9634  2738 6679 9635  702 6679 9635  3177 4566 9636  1092 4566 9636  416 3670 9637  2586 9637 9660  4113 9638 9887  508 6015 9638  2859 6730 9639  970 6730 9639  678 4122 9640  678 4198 9640  3942 9514 9641  3930 3942 9641  2781 5733 9642  1667 5733 9642  648 4890 9643  2608 4890 9643  912 5347 9644  5347 9644 9645  3794 9643 9645  2608 9643 9645  3936 8655 9646  1377 3936 9646  873 4996 9647  2570 4996 9647  1377 4755 9648  2570 4755 9648  4373 7621 9649  1434 7621 9649  946 7416 9650  3353 7416 9650  1262 4960 9651  1262 4847 9651  2633 5738 9652  671 5738 9652  2633 4425 9653  918 4425 9653  2633 5070 9654  1335 5070 9654  4949 9655 9686  1324 4914 9655  2071 6448 9767  2071 9656 9767  5878 8189 9657  2699 8189 9657  1226 7045 9658  3342 7045 9658  5651 5889 9659  290 5651 9659  3670 9637 9660  1217 3670 9660  3605 6586 9661  1192 6586 9661  93 9662 9663  93 4828 9663  5291 9662 9663  2848 5291 9663  1639 5355 9664  5355 9664 9666  4147 9664 9665  2585 9664 9665  549 3165 9666  2585 3165 9666  4600 8298 9667  656 8298 9667  3282 7943 9668  1126 7943 9668  3499 8480 9669  1110 8480 9669  4223 8872 9670  1599 4223 9670  3136 5604 9671  347 5095 9991  2731 5425 9672  939 5425 9672  2944 4466 9673  525 4466 9673  2710 9369 9674  1483 9369 9674  3293 9674 9675  264 3293 9675  2710 9675 9676  264 9675 9676  2611 4506 9677  1347 4506 9677  2905 4326 9678  1326 4326 9678  360 5112 9679  2737 5112 9679  2737 5458 9680  1861 5458 9680  1537 9681 10063  1537 4966 9681  1244 5236 9682  2589 5236 9682  3392 10271 10709  2589 3392 9683  1966 7401 9684  2837 7401 9684  2621 4949 9685  888 4949 9685  4403 9686 9687  1324 4403 9686  583 7639 10263  583 9687 10263  3999 6299 9688  1227 6299 9688  2792 5064 9689  1405 5064 9689  8099 9488 9690  920 9488 9690  3491 7372 9691  2024 7372 9691  2674 7955 9692  1186 7955 9692  318 9693 9805  318 9711 9805  3088 7297 9694  4312 9694 9763  3865 6836 9695  2642 3865 9695  4388 9637 9696  2586 9637 9696  356 5378 9697  2595 5378 9697  1320 5790 9698  2595 5790 9698  2860 7149 9699  73 7149 9699  2860 5325 9700  1546 5325 9700  3069 6202 9701  1006 6202 9701  2178 4522 9702  4522 9702 10016  2059 7503 9703  805 7503 9703  6006 8205 9704  2616 8205 9704  1287 4559 9705  2839 4559 9705  4461 9384 9706  2591 9384 9706  2913 6456 9707  1154 6456 9707  1166 6354 9708  3362 6354 9708  5048 6607 9709  1162 5048 9709  1172 6629 9710  1172 3790 9710  4130 9711 9805  317 4130 9711  2916 8253 9712  580 8253 9712  1742 5660 10126  1742 9713 10126  1554 6157 9714  2684 6157 9714  3215 4693 9715  1118 4693 9715  3129 6494 9716  2166 6494 9716  3938 8641 9717  2211 9717 10894  3467 4482 9718  1727 4482 9718  4236 6570 9719  132 4236 9719  2332 7945 9720  2622 9720 9721  7945 9720 9721  884 7945 9721  2734 4943 9722  638 4943 9722  5857 8315 9723  2552 8315 9723  1553 3168 9724  320 3168 9724  3901 8739 9725  643 8739 9725  2796 7306 9726  1037 7306 9726  512 3633 9727  512 3326 9727  2876 7854 9728  547 7854 9728  2898 7324 9729  1009 7324 9729  2657 7523 10452  2657 9730 10452  729 4202 9731  2032 4202 9731  1482 5143 9732  2629 5143 9732  713 9733 10174  713 4475 9733  1503 4771 9734  1503 4442 9734  260 3255 9735  2692 7595 9891  2934 6523 9736  1482 6523 9736  3607 7144 9737  2061 7144 9737  485 8052 9738  1817 3387 10898  796 6666 9739  2952 6666 9739  5325 6537 9740  74 5325 9740  2997 6480 9741  1682 6480 9741  4153 8026 9742  1203 8026 9742  3188 6038 9743  1696 6038 9743  841 5147 9744  2646 5147 9744  2000 5017 9745  1628 5407 10534  2669 4500 9746  1282 4500 9746  5317 9747 9810  2669 5317 9747  4500 9613 9748  2669 4500 9748  5468 6108 9749  3153 6108 9749  3153 8719 9750  2509 8719 9750  4877 6842 9751  69 4877 9751  11 4746 9752  11 7271 9752  5176 8111 9753  1197 8111 9753  2607 5061 9754  880 5061 9754  5220 9755 10127  589 5220 9755  1361 5061 9756  2607 5061 9756  3832 5816 9757  1678 5816 9757  342 4069 9758  342 343 9758  500 5225 9759  2745 5225 9759  2745 5225 9760  1699 5225 9760  3183 5760 9761  1733 5760 9761  403 3285 9762  3088 3285 9762  3088 9290 9763  1137 9290 9763  1014 6731 9764  1014 7550 9764  1239 3967 9765  1239 4814 9765  2668 4512 9766  898 9766 10048  774 8015 9767  774 6448 9767  909 4542 9768  2670 5635 10630  3115 5531 9769  3115 5522 9769  469 5281 9770  2618 5281 9770  278 3217 9771  1397 3217 9771  2144 6768 9772  2707 6768 9772  3876 8169 9773  1947 8169 9773  1015 4662 9774  2104 4662 9774  3804 8795 9775  2465 8795 9775  639 5017 9776  639 4424 9776  764 4256 9777  2744 4256 9777  1146 3638 9778  2744 3638 9778  888 4949 9779  2620 4949 9779  3358 6280 9780  633 6280 9780  4314 8351 9781  2289 8351 9781  5756 7720 9782  762 5756 9782  3966 5110 9783  218 3966 9783  5675 7973 9784  2510 7973 9784  2979 5865 9785  1471 5865 9785  3702 9672 9786  939 9672 9786  1722 5564 9787  2632 5564 9787  2632 5847 9788  472 5847 9788  5564 9653 9789  918 9653 9789  393 4650 9790  2676 4650 9790  2604 4321 10252  2676 4321 9791  1318 3466 9792  1318 5302 9792  272 9793 9794  2811 8713 9794  271 8713 9794  2273 3895 10103  3895 10103 10258  5069 6189 9796  127 5069 9796  1402 4635 9797  1402 4862 9797  2133 5437 9798  3656 5437 9798  1579 3154 9799  1579 4963 9799  4781 5349 9800  116 5349 9800  2962 4308 9801  1306 4308 9801  3889 8562 9802  584 3889 9802  4650 9677 9803  393 4650 9803  4670 9057 9804  1218 9057 9804  8248 9693 9805  4130 8248 9805  3250 6211 9806  1531 6211 9806  2957 7523 9807  722 7523 9807  3693 6254 9808  1825 6254 9808  2705 5324 9809  2457 5324 9809  909 5538 9810  2667 5540 9996  3077 6707 9811  1194 3077 9811  6482 6483 9812  136 6482 9812  220 4089 9813  3174 4089 9813  2628 6826 9814  890 6826 9814  1589 5515 9815  2628 5515 9815  2294 6461 9816  2294 4916 9816  3126 6151 9817  510 6151 9817  2171 7154 9818  2171 6638 9818  4445 9079 9819  2463 9079 9819  1789 6413 9820  3509 6413 9820  2639 5571 9821  5571 9821 9907  1274 4062 9822  2755 4062 9822  2755 4062 9823  772 4062 9823  6719 6720 9824  109 6719 9824  170 4985 9825  2732 4985 9825  2373 4729 9826  442 4729 9826  877 8986 9827  5098 8986 9827  605 4731 9828  2649 6688 10070  949 4622 9829  2649 4622 9829  2666 4959 9830  902 4959 9830  405 4341 9831  2666 4341 9831  7127 9475 9832  1350 9475 9832  3092 9833 10088  1036 9833 10088  1020 5251 9834  5251 9834 9835  1500 5252 9835  2643 8577 10104  696 5173 9836  2634 5173 9836  1029 9525 9837  4271 9525 9837  2492 8117 10357  2492 9838 10357  1846 5769 9839  1846 4491 9839  4264 8199 9840  2298 8199 9840  2849 3282 9841  3282 5653 9841  235 7244 9842  3260 6893 10762  259 3283 9843  259 3255 9843  2671 5543 9844  462 5543 9844  1591 5538 9845  2670 5538 9845  2670 5635 9846  475 5635 9846  664 5275 9847  2809 5275 9847  723 6856 9848  723 5248 9848  573 9333 9849  4362 9333 9849  401 8515 9850  3597 8515 9850  2311 4639 9851  2311 5779 9851  3327 5751 9852  1683 5751 9852  3046 3437 10199  3026 3046 9853  3026 6851 9854  62 6851 9854  2685 9857 10672  2685 9855 9856  163 9855 9856  2685 9856 9857  164 9856 9857  3539 5204 9858  1514 5204 9858  1032 8761 9859  2741 8761 9859  597 3817 9860  2741 3817 9860  1566 5987 9861  2653 5987 9861  2653 7090 9862  1422 7090 9862  3644 5245 9863  2699 5245 9863  4153 9742 9864  2834 9742 9864  2696 4991 9865  4991 9865 9928  2893 5668 9866  751 5668 9866  2729 9251 9867  483 9251 9867  1777 3125 9868  2729 3125 9868  6141 9868 9869  2729 9868 9869  2906 3934 9870  406 3934 9870  3683 6290 9871  1307 6290 9871  1350 4560 9872  2659 4560 9872  2659 4703 9873  522 4703 9873  1426 4703 9874  2659 4703 9874  3815 9060 9875  2454 9060 9875  689 3556 9876  1794 9876 10470  3152 5992 9877  2268 5992 9877  1263 3286 9878  2692 3286 9878  4548 7142 9879  787 7142 9879  1844 3543 9880  1844 6414 9880  523 4624 9881  3039 4624 9881  2902 8262 9882  1107 8262 9882  739 4316 9883  1994 4316 9883  3744 9884 9885  1232 3744 9884  2911 8950 9885  1215 8950 9885  1174 8337 9886  1971 3787 10487  2063 6854 9888  508 6854 9887  6854 9887 9888  2682 9887 9888  436 4530 9889  2993 4530 9889  2736 8528 9890  550 8528 9890  2692 9735 9891  260 9735 9891  5141 9559 9892  3360 5141 9892  2717 7767 9893  472 7767 9893  1954 4994 9894  1954 4821 9894  1754 5874 9895  1754 5875 9895  2201 4370 9896  785 4370 9896  3959 8803 9897  2386 8803 9897  2750 6918 9898  1953 6918 9898  4179 6739 9899  2004 6739 9899  813 3995 9900  813 5475 9900  3165 9901 9902  1038 9901 9902  3166 6307 9902  1038 6307 9902  2135 7796 9903  3166 7796 9903  367 5580 9904  3882 5580 9904  3932 7844 9905  766 7844 9905  2677 5943 9906  1304 5943 9906  2664 4339 9907  473 4339 9907  5096 8941 9908  2311 8941 9908  2377 7664 9909  7664 9909 9911  2739 4180 9910  440 4180 9910  1021 7259 9911  2739 7259 9911  2289 4150 9912  1480 4150 9912  6225 7021 9913  248 6225 9913  1687 3593 10180  2714 3593 9914  2714 5926 9915  1700 5926 9915  481 5926 9916  2714 5926 9916  566 9917 9964  566 5690 9917  2019 4072 9918  395 4072 9918  2894 3914 9919  1659 3914 9919  2894 5078 9920  1459 5078 9920  3571 8402 9921  1247 8402 9921  4595 6512 9922  257 4595 9922  909 4415 9923  4415 9923 9986  856 4879 9924  3083 4879 9924  3083 6992 9925  1100 6992 9925  786 5224 9926  786 5137 9926  4406 6644 9927  2017 6644 9927  2697 9394 9928  911 9394 9928  298 5217 9929  298 6288 9929  1485 5231 9930  2663 5231 9930  2663 5231 9931  463 5231 9931  1086 8492 9932  2370 8492 9932  6061 9535 9933  2660 9535 9933  3123 7451 9934  5056 7451 9934  2083 10089 10185  2083 6109 10185  971 8972 9936  2787 8972 9936  1128 7715 9937  7715 9937 9938  2256 5086 9938  2787 5086 9938  2665 5083 9939  1444 5083 9939  902 5083 9940  2665 5083 9940  1899 6147 9941  1899 6535 9941  1090 5707 9942  3061 5707 9942  3634 8183 9943  1564 8183 9943  4520 7950 9944  2304 7950 9944  765 3874 9945  2083 3874 9945  1541 5110 9946  3174 5110 9946  3174 4089 9947  1296 4089 9947  1007 4999 9948  2266 4999 9948  6412 7709 9949  195 7709 9949  3070 7222 9950  1907 7222 9950  322 4001 9951  322 3606 9951  466 5065 9952  466 8963 9952  7010 9953 10349  2873 7010 9953  1633 4499 9954  1633 4302 9954  4910 9280 9955  929 9280 9955  5466 6712 9956  51 5466 9956  3308 6177 9957  983 6177 9957  2070 3701 9958  2070 4068 9958  3606 8691 9959  323 3606 9959  4930 6477 9960  863 6477 9960  6530 8095 9961  2722 6530 9961  4252 9961 9962  2722 9961 9962  594 7041 9963  3862 7041 9963  2880 5512 9964  2516 5512 9964  4474 7669 9965  1453 4474 9965  321 4176 9966  321 4001 9966  4008 6560 9967  2348 4008 9967  1011 4767 9968  2377 4767 9968  2680 7214 9969  1703 7214 9969  4105 9270 9970  2680 9270 9970  994 5808 9971  2712 5808 9971  698 3941 9972  2712 3941 9972  1453 5477 9973  2678 5477 9973  2678 6271 9974  433 6271 9974  2494 9182 9975  4332 9182 9975  2718 5145 9976  917 5145 9976  1679 5849 9977  2718 5849 9977  2718 5849 9978  653 5849 9978  4174 4273 9979  1344 4273 9979  1078 4688 9980  1078 3385 9980  1465 6329 9981  1465 4347 9981  823 4728 10489  1392 9982 10294  1724 4342 9983  682 4342 9983  1232 6609 9984  1232 3743 9984  4542 9923 9985  2727 9923 9985  1282 4266 9986  2727 9986 9987  4266 9986 9987  564 4266 9987  84 7356 9988  2896 7356 9988  4167 7058 9989  107 4167 9989  603 5993 9990  2748 5993 9990  347 9671 9991  3136 9671 9991  2471 5192 9992  1489 5192 9992  1641 3996 9993  2690 3996 9993  2835 3864 9994  574 3864 9994  1928 9217 9995  5336 9217 9995  2667 9810 9996  5538 9810 9996  3609 5439 9997  1595 5439 9997  684 6377 9998  684 4793 9998  1383 4764 9999  4764 9999 10022  2869 4649 10000  950 4649 10000  2869 9631 10001  20 9631 10001  1984 5658 10002  2870 5658 10002  2870 6852 10003  1120 6852 10003  1822 4394 10365  842 4394 10004  3087 8743 10005  2242 8743 10005  627 2892 10006  2892 6165 10006  3561 6098 10007  1792 6098 10007  4985 7651 10008  170 4985 10008  3764 9890 10009  1333 10009 10129  919 4651 10010  2736 4651 10010  916 9226 10011  2701 9226 10011  2701 4749 10012  1416 4749 10012  2701 4397 10013  635 4397 10013  2830 6375 10014  1030 6375 10014  642 3189 10015  2830 3189 10015  3632 5211 10016  1608 5211 10016  4974 9939 10017  595 4974 10017  361 5386 10018  2841 5386 10018  4015 8024 10019  2036 8024 10019  1843 3513 10020  2912 3513 10020  3338 9422 10021  1658 9422 10021  968 6061 10022  2687 6061 10022  532 7172 10023  2740 7172 10023  2740 4091 10024  1032 4091 10024  2740 4406 10025  1308 4406 10025  1506 3828 10026  3828 5040 10026  1167 10027 10404  1167 6002 10404  3485 6032 10028  757 6032 10028  3045 5097 10029  1646 5097 10029  354 5097 10030  3045 5097 10030  2723 6675 10031  592 6675 10031  2521 9287 10032  2521 9252 10032  3788 8553 10033  2638 8553 10033  4134 10034 10239  2683 4134 10034  4863 8161 10035  33 8161 10035  2835 6713 10036  948 6713 10036  1597 4912 10037  2719 4912 10037  7037 7687 10038  2803 7037 10038  734 4642 10039  2686 4642 10039  2686 4642 10040  1394 4642 10040  454 5783 10041  2810 4745 10119  2703 7880 10042  2232 7880 10042  1399 6558 10043  2884 6558 10043  1224 4809 10044  2307 4809 10044  2711 4589 10045  1387 4589 10045  4078 9971 10046  2711 4078 10046  1268 9197 10047  4680 9197 10047  4512 9766 10048  2689 4512 10048  5513 10048 10049  2689 10048 10049  2689 4512 10050  1326 4512 10050  2879 10051 10179  2879 7847 10179  1292 7162 10052  3752 7162 10052  2770 6216 10053  1044 6216 10053  5951 10054 10055  1737 5951 10054  5437 7933 10055  977 7933 10055  557 8023 10056  2775 8023 10056  1529 5122 10057  2775 5122 10057  2976 5651 10058  1608 5651 10058  3057 5326 10059  840 5326 10059  3086 5857 10060  424 5857 10060  1706 5783 10061  3020 5783 10061  2952 6666 10062  1874 6666 10062  2952 3719 10063  1537 3719 10063  2088 5395 10064  709 5395 10064  3473 10065 10066  1107 10065 10066  5002 7915 10066  1107 7915 10066  1081 7484 10067  3078 7484 10067  4330 8945 10068  334 8945 10068  3506 5442 10069  3505 10069 10731  2649 9828 10070  4731 9828 10070  4246 7821 10071  513 7821 10071  4991 9928 10072  1459 4991 10072  5078 10072 10073  618 5078 10073  4006 7345 10074  2229 4006 10074  550 8528 10075  2971 8528 10075  5715 7248 10076  1992 7248 10076  3704 8205 10077  3704 8183 10077  497 9193 10078  3627 9193 10078  4092 6894 10079  1529 6894 10079  3478 8096 10080  658 8096 10080  2880 5691 10081  1104 5691 10081  1399 6558 10082  1399 6703 10082  1576 4200 10083  4955 10083 10417  398 6301 10084  2698 6301 10084  5249 7288 10085  2698 5249 10085  522 5976 10086  3085 5976 10086  16 10087 10844  3171 7839 10088  1036 7839 10088  4496 4497 10089  2083 4497 10089  3099 7406 10090  1321 7406 10090  2167 7453 10091  5256 7453 10091  2064 5654 10092  2064 4823 10092  1780 7939 10093  3987 7939 10093  783 7483 10094  3033 7483 10094  5316 10095 10644  206 5316 10095  3244 5077 10096  1609 5077 10096  2945 6369 10097  1990 6369 10097  3002 10098 10434  1143 10098 10434  1574 5207 10099  1574 5168 10099  1270 3471 10100  3053 3471 10100  3054 8892 10101  558 8892 10101  3053 6772 10102  1141 6772 10102  3003 9795 10258  3003 10103 10258  2643 9835 10104  5252 9835 10104  2748 5878 10105  1762 5878 10105  937 5878 10106  2748 5878 10106  662 4702 10107  4702 10107 10108  1378 4633 10108  2938 4633 10108  2846 5376 10109  1536 5376 10109  708 5376 10110  2846 5376 10110  531 4945 10111  2897 4945 10111  985 3315 10112  2897 3315 10112  1248 4008 10113  2897 4008 10113  1395 7682 10114  3824 7682 10114  872 7166 10115  872 7043 10115  1646 3142 10116  3142 3808 10116  4249 8335 10117  2391 8335 10117  1743 5824 10118  2810 5824 10118  2810 10041 10119  454 10041 10119  2810 5824 10120  1159 5824 10120  2808 9429 10121  3820 9429 10121  519 9547 10122  519 6279 10122  2748 10106 10123  2748 5993 10123  1267 3452 10124  1267 7489 10124  1115 8543 10125  4392 8543 10125  2829 5296 10126  923 5296 10126  2607 9755 10127  2607 5219 10127  3329 8556 10128  3112 8556 10128  3764 7504 10129  3359 7504 10129  4697 10130 10131  1388 4697 10130  2728 4692 10131  927 4692 10131  404 4691 10132  2728 4691 10132  1734 5902 10133  1734 4501 10133  3094 5749 10134  1072 5749 10134  3056 5533 10135  167 10135 10840  397 6784 10136  397 5514 10136  630 7877 10137  3566 7877 10137  402 7666 10676  402 10138 10675  2010 6833 10139  2706 6833 10139  1612 4876 10140  2827 4876 10140  2827 6111 10141  792 6111 10141  1345 6128 10142  2707 6128 10142  2707 6768 10143  785 6768 10143  572 5461 10144  2954 5461 10144  3833 5871 10145  1735 5871 10145  589 5220 10146  2708 5220 10146  881 4859 10589  1413 4859 10147  2357 7232 10148  2357 6050 10148  3602 6262 10149  1857 6262 10149  3029 4102 10150  1053 4102 10150  3030 6251 10151  1446 6251 10151  362 5383 10152  2366 5383 10152  2895 3399 10153  1104 3399 10153  1649 6751 10154  2895 6751 10154  3309 4708 10155  1090 3309 10155  970 6213 10156  2709 6213 10156  5136 8126 10157  427 8126 10157  1261 4596 10158  2972 4596 10158  792 6438 10159  3355 6438 10159  1864 5322 10160  2936 5322 10160  3733 7554 10161  2936 3733 10161  1670 6643 10162  1670 5958 10162  8173 10163 10165  221 10163 10165  1356 5382 10164  2793 5382 10164  4089 9285 10165  221 4089 10165  3611 7272 10166  1796 7272 10166  2572 5043 10167  471 5043 10167  2531 5288 10168  381 5288 10168  3139 7253 10169  1366 7253 10169  3139 6886 10170  1507 6886 10170  8574 10171 10172  1109 8574 10171  6415 8573 10172  2746 8573 10172  1689 5812 10173  5812 10173 10174  4118 9733 10174  2742 4118 10174  2742 4118 10175  1212 4118 10175  4436 5439 10176  158 5439 10176  2239 4480 10177  2239 5833 10177  4784 5429 10178  30 4784 10178  3652 10051 10179  995 3652 10179  3593 9914 10180  926 9914 10180  2539 8329 10181  2539 5920 10181  2432 8048 10182  3609 8048 10182  4004 8932 10183  2418 8932 10183  881 5218 10184  2618 5218 10184  6109 9935 10185  2847 9935 10185  4881 9385 10186  2721 9385 10186  2721 5468 10187  1727 5468 10187  69 4877 10188  5247 5489 10189  200 5247 10189  4041 9436 10190  482 9436 10190  3489 6834 10191  2716 3489 10191  1472 5144 10192  2716 5144 10192  2716 3673 10193  917 3673 10193  3822 8173 10194  222 8173 10194  549 5355 10195  2757 5355 10195  2757 5355 10196  1639 5355 10196  1231 4393 10197  2757 4393 10197  3436 5937 10198  67 10198 10788  3046 9853 10199  992 9853 10199  5773 6017 10200  1936 6017 10200  2505 5230 10201  1715 5230 10201  2039 4541 10202  1854 4541 10202  43 10203 10774  2505 5396 10204  2505 6549 10204  7679 8269 10205  529 7679 10205  5332 6451 10206  181 6451 10206  1182 6051 10207  2813 6051 10207  2813 6051 10208  1686 6051 10208  4808 8542 10209  2813 4808 10209  1288 4276 10210  3097 4276 10210  4384 10211 10628  3850 10211 10628  1579 2981 10212  1579 4745 10212  306 3958 10213  2043 3958 10213  3287 9065 10214  596 9065 10214  3501 5826 10215  3501 8067 10215  1367 6306 10216  3074 6306 10216  2766 4025 10217  357 4025 10217  2766 7561 10218  1256 7561 10218  1554 9714 10219  4626 9714 10219  656 8298 10220  3204 8298 10220  749 4136 10221  2031 4136 10221  151 7948 10223  3001 10222 10223  150 10222 10223  1403 5148 10224  3586 5148 10224  2830 6375 10225  2830 5049 10225  1517 4212 10226  4212 4217 10226  2734 4780 10227  1521 4780 10227  861 4780 10228  2734 4780 10228  4691 7278 10229  1999 7278 10229  4055 7788 10230  1140 7788 10230  1967 5149 10231  614 5149 10231  2792 4143 10232  1253 4143 10232  1869 4227 10233  2512 10233 10561  607 3027 10234  607 3095 10234  4061 7492 10235  1761 7492 10235  2198 7911 10236  3163 7911 10236  4075 7431 10237  1280 4244 10450  1387 4607 10238  2719 4607 10238  358 6028 10239  2980 6028 10239  2980 7689 10240  1991 7689 10240  2261 4788 10241  780 4788 10241  113 6195 10242  3915 4801 10525  1474 4239 10243  4239 4265 10243  1628 4003 10244  637 4003 10244  4427 10245 10289  396 4427 10245  1901 3328 10246  3328 5025 10246  2418 5165 10247  5165 10247 10456  436 6595 10248  3031 6595 10248  865 5493 10249  5493 10249 10251  1216 7786 10250  2767 7786 10250  1794 5683 10251  2767 5683 10251  4321 9791 10252  924 9791 10252  4093 6742 10253  490 6742 10253  597 3817 10254  1837 3785 10712  1379 5827 10255  3017 5827 10255  2285 4452 10256  2785 4452 10256  1987 7360 10257  3909 7360 10257  1229 6747 10258  1229 9795 10258  4118 5693 10259  2828 5693 10259  6406 9310 10260  2859 9310 10260  3514 8136 10261  2443 8136 10261  2556 9650 10262  3353 9650 10262  2621 6138 10263  3015 6138 10263  509 5608 10264  509 4706 10264  3138 6356 10265  3947 9231 10355  4240 9476 10266  2599 9476 10266  2734 9722 10267  4961 9722 10267  2762 3881 10268  1155 3881 10268  1903 6672 10270  561 6672 10269  6672 10269 10270  2762 10269 10270  3392 9683 10271  423 9683 10271  3064 4769 10272  1408 4769 10272  2906 4630 10273  982 10273 10745  1837 9439 10274  4697 9439 10274  3084 7058 10275  108 7058 10275  3378 6423 10276  1168 6423 10276  4220 10276 10277  172 4220 10277  3502 7412 10278  1106 7412 10278  2851 6010 10279  1854 6010 10279  996 6010 10280  2851 6010 10280  7352 10280 10281  2851 10280 10281  138 10282 10283  2845 6483 10283  137 6483 10283  3979 8393 10284  2337 8393 10284  509 5608 10285  2751 5608 10285  3392 6064 10286  1105 6064 10286  4532 5180 10287  1797 4532 10287  2887 5960 10288  1157 5960 10288  3121 8688 10289  1323 8688 10289  5280 7075 10290  22 7075 10290  2850 4993 10291  4993 9010 10291  3019 4818 10292  4818 4819 10292  1516 3933 10293  1516 4868 10293  4728 5692 10294  2557 5692 10294  464 7500 10295  464 5795 10295  2824 5689 10296  2003 5689 10296  1116 7624 10297  2824 7624 10297  2517 5242 10298  955 5242 10298  2823 7380 10299  530 7380 10299  2601 6551 10300  1016 6551 10300  4464 9918 10301  395 9918 10301  2664 5083 10302  902 5083 10302  6821 6822 10303  262 6822 10303  1220 4459 10304  2084 3724 10711  2650 4334 10305  4334 7879 10305  3397 7177 10306  2795 7177 10306  2795 6323 10307  882 6323 10307  1819 6323 10308  2795 6323 10308  2743 7965 10309  793 7965 10309  4644 10309 10310  1389 4644 10310  1201 3887 10311  1201 3886 10311  5068 10312 10313  1456 5068 10312  2794 5401 10313  768 5401 10313  2794 4189 10314  1269 4189 10314  441 5906 10315  441 4820 10315  1170 8623 10316  4354 8623 10316  2891 5728 10317  493 5728 10317  1944 6433 10318  2834 6433 10318  7018 10318 10319  2834 10318 10319  837 8271 10320  2969 8271 10320  4206 7207 10321  1195 7207 10321  5670 8602 10322  2839 8602 10322  632 6687 10323  4322 6687 10323  4674 7967 10324  244 7967 10324  2898 5649 10325  2898 5989 10325  207 10469 10644  207 10326 10469  1729 6022 10327  2908 6022 10327  2908 6445 10328  967 6445 10328  4548 8107 10329  1528 8107 10329  816 5415 10330  3117 5415 10330  3665 5111 10331  3665 10331 10596  1785 6124 10332  2582 6124 10332  3157 4850 10333  3157 8001 10333  4856 8816 10334  1033 4856 10334  3806 8751 10335  2499 8751 10335  193 6370 10336  3180 6370 10336  2375 4814 10337  2375 6321 10337  4675 7140 10338  4225 4675 10338  1072 5749 10339  2780 5749 10339  2780 6553 10340  668 6553 10340  2170 3949 10341  3949 4686 10341  2493 4593 10342  4593 7775 10342  1568 5046 10343  2776 5046 10343  2776 5005 10344  666 5005 10344  2776 3972 10345  1359 3972 10345  482 5052 10346  2765 5052 10346  2765 5018 10347  1450 5018 10347  102 4519 10864  2872 7942 10349  987 7942 10349  2872 4715 10350  2175 4715 10350  3135 10351 10352  1074 10351 10352  4354 7242 10352  1074 4354 10352  3312 7099 10353  1983 7099 10353  4012 7888 10354  2425 7888 10354  3947 10265 10355  3138 10265 10355  1995 6740 10356  2771 6740 10356  844 4493 10357  844 8117 10357  2518 7805 10481  2518 5471 10358  1252 5582 10359  3356 5582 10359  8 10360 10857  3350 7986 10361  2199 7986 10361  4625 9204 10362  3348 9204 10362  4109 6832 10363  81 6832 10363  3605 5109 10364  1556 5109 10364  4394 10004 10365  2482 10004 10365  3620 7785 10366  2008 7785 10366  532 6251 10367  3030 6251 10367  990 6117 10368  4933 6117 10368  2530 4760 10369  830 10369 10545  1112 8898 10370  3252 8898 10370  1842 5971 10371  3092 5971 10371  1314 8364 10372  2763 8364 10372  328 10373 10374  2763 6541 10374  327 6541 10374  1924 4794 10375  2544 4794 10375  1894 6777 10376  2791 6777 10376  2998 3861 10377  324 3861 10377  653 6788 10378  653 5954 10378  2784 9283 10379  239 9283 10379  3389 7845 10380  1214 7845 10380  3229 8647 10382  452 8647 10382  1337 6708 10383  3229 6708 10383  3545 8674 10383  1337 8674 10383  3127 6420 10384  1061 6420 10384  2805 4016 10385  1224 4016 10385  2805 6520 10386  1748 6520 10386  2960 4657 10387  1052 4657 10387  435 3422 10388  435 3993 10388  4668 10175 10389  1212 10175 10389  6101 6504 10390  2108 6504 10390  2278 5667 10391  2278 5719 10391  4666 9351 10392  2849 9351 10392  2796 6599 10393  2229 6599 10393  999 3311 10394  2992 3311 10394  1400 6208 10395  1400 5106 10395  1536 4701 10407  1536 10396 10407  288 5438 10397  3647 5438 10397  2288 4641 10398  848 4641 10398  1070 6407 10399  2972 6407 10399  4306 5935 10400  693 5935 10400  1488 5218 10401  5218 10401 10589  2910 5460 10402  375 5460 10402  514 6014 10403  3032 6014 10403  9427 10027 10404  3363 9427 10404  3899 8712 10405  1048 3899 10405  2967 8676 10406  5295 8676 10406  1517 3645 10407  1517 4701 10407  116 6817 10408  116 5349 10408  2887 4116 10409  676 4116 10409  1704 3831 10410  2887 3831 10410  2381 8780 10411  2381 5034 10411  1338 4539 10412  2854 4539 10412  1672 6306 10413  4689 6306 10413  3205 4718 10414  1038 4718 10414  924 9791 10415  4507 9791 10415  646 3535 10416  3535 10416 10430  1576 4410 10417  3180 4410 10417  1675 5940 10418  2799 5940 10418  1412 4333 10419  1412 4420 10419  2817 4097 10420  1331 4097 10420  2817 4494 10421  585 4494 10421  4917 10421 10422  1447 4917 10422  4005 6876 10423  1928 6876 10423  604 9387 10424  3316 9387 10424  1737 5950 10425  1737 5949 10425  1322 8069 10426  3784 8069 10426  1300 8462 10427  4181 8462 10427  1401 4476 10428  1401 4364 10428  3503 7173 10429  1730 7173 10429  1185 5733 10430  2781 5733 10430  1602 5557 10431  2781 5557 10431  1139 9150 10432  2913 9150 10432  1932 6456 10433  2913 6456 10433  3681 7377 10434  1143 7377 10434  2462 4173 10725  2816 4173 10435  1140 7788 10436  3689 7788 10436  988 5049 10437  3189 5049 10437  680 10438 10645  2832 10438 10645  1288 6906 10439  4250 6906 10439  1191 3679 10440  3679 5479 10440  1823 6569 10441  2857 6569 10441  442 5168 10442  2890 5168 10442  2890 5673 10443  1886 5673 10443  2314 5257 10444  3576 5257 10444  2214 4448 10445  1370 4448 10445  487 4318 10446  487 5818 10446  1179 5334 10447  3504 5334 10447  1674 5598 10448  2799 5598 10448  1265 9629 10449  4513 9629 10449  1280 10237 10450  4075 10237 10450  50 4782 10451  51 3116 10771  2957 5217 10452  1938 5217 10452  428 5524 10453  2855 5524 10453  874 4163 10454  874 5828 10454  446 4668 10455  2888 4668 10455  2888 4816 10456  1538 4816 10456  2971 5962 10457  1126 5962 10457  4651 8528 10458  1698 4651 10458  1523 5714 10459  2801 5714 10459  1031 4936 10460  2801 4936 10460  418 4272 10461  2807 4272 10461  2807 6841 10462  1935 6841 10462  2802 5042 10463  1031 5042 10463  609 4331 10464  2802 4331 10464  2196 7037 10465  2196 4129 10465  3635 4218 10466  629 4218 10466  4303 9344 10467  1291 9344 10467  2478 4319 10468  2202 10468 10708  4977 10326 10469  3988 4977 10469  3556 9876 10470  2797 3556 10470  7377 8211 10471  2027 7377 10471  2995 7765 10472  1711 7765 10472  1216 6432 10473  2995 6432 10473  903 3928 10474  903 4973 10474  4401 8389 10475  292 4401 10475  2542 8965 10476  2542 5880 10476  3708 4898 10477  1476 4898 10477  2885 6193 10478  1849 6193 10478  3854 8346 10479  2282 8346 10479  411 5816 10480  411 4901 10480  7035 10358 10481  3513 7035 10481  1998 7283 10482  3587 7283 10482  1504 4854 10483  1504 4853 10483  4924 7023 10484  2215 7023 10484  769 6263 10485  769 5287 10485  4795 7149 10486  72 4795 10486  3787 9886 10487  1174 9886 10487  623 6365 10488  623 5448 10488  4728 9982 10489  2373 9982 10489  1763 6029 10490  3010 6029 10490  1363 5029 10491  3010 5029 10491  3884 10490 10492  3010 10490 10492  3376 4942 10493  1290 3376 10493  1600 4961 10494  2946 4961 10494  1879 7373 10495  2946 7373 10495  4119 9508 10496  974 9508 10496  2840 6923 10497  1909 6923 10497  1684 6640 10498  2840 6640 10498  4254 6562 10499  1824 6562 10499  181 6451 10500  2863 6451 10500  3037 4813 10501  1221 4813 10501  3226 7956 10502  1040 7956 10502  3273 6151 10503  1803 6151 10503  681 4689 10504  2836 4689 10504  2836 4689 10505  1367 4689 10505  2836 5053 10506  948 5053 10506  1481 5936 10507  3002 5936 10507  3885 8657 10508  2645 8657 10508  3413 4924 10509  1519 4924 10509  4289 7519 10510  3216 7519 10510  2011 7312 10511  2970 7312 10511  2687 9609 10512  2687 6061 10512  680 3531 10513  680 6209 10513  434 5440 10514  434 4111 10514  2598 4503 10515  363 4503 10515  5941 8230 10516  2800 8230 10516  2800 6233 10517  942 6233 10517  7840 10517 10518  2269 7840 10518  3257 3428 10519  1509 3257 10519  4181 7447 10520  525 7447 10520  2299 6976 10521  2299 5704 10521  3227 8544 10522  3227 4545 10522  3065 5250 10523  1695 5250 10523  1653 5347 10524  2609 5347 10524  3915 10242 10525  113 10242 10525  925 4881 10526  2636 4881 10526  3474 6421 10527  47 10527 10875  905 2867 10528  905 5368 10528  5124 8698 10529  284 8698 10529  3827 6529 10530  455 6529 10530  888 9779 10531  3622 9779 10531  2994 7189 10532  591 7189 10532  3319 9053 10533  194 9053 10533  1628 9745 10534  5017 9745 10534  2175 5838 10535  1648 5838 10535  791 8445 10536  791 4207 10536  1945 4451 10537  4451 6473 10537  3383 6613 10538  1015 6613 10538  2804 5188 10539  1278 5188 10539  6955 10540 10541  2234 6955 10540  2804 5601 10541  878 5601 10541  5686 10542 10543  85 5686 10542  86 5306 10543  3187 5306 10543  1382 4510 10544  4510 4511 10544  4760 10369 10545  2410 4760 10545  1050 7464 10546  1050 6493 10546  964 5729 10547  2891 5729 10547  2891 4365 10548  1694 4365 10548  3274 10080 10549  658 10080 10549  3268 7425 10550  1043 7425 10550  2333 4810 10551  1524 4810 10551  4660 8043 10552  618 8043 10552  2426 4096 10553  346 4096 10553  4300 9708 10710  4300 10554 10710  3400 8057 10555  1712 8057 10555  3757 6089 10556  763 6089 10556  7947 7948 10557  151 7948 10557  3288 7856 10558  1490 7856 10558  3288 6858 10559  1158 6858 10559  3487 7733 10560  2267 7733 10560  4227 10233 10561  1533 4227 10561  5486 9621 10562  2814 9621 10562  2814 6878 10563  612 6878 10563  1475 6878 10564  2814 6878 10564  1887 5685 10565  2896 5685 10565  2304 7949 10566  6548 7949 10566  1401 4813 10567  3037 4813 10567  1386 6403 10568  3011 6403 10568  344 6379 10569  6379 7046 10569  1169 5067 10570  2179 5067 10570  5742 6490 10571  332 5742 10571  3435 8406 10572  2506 8406 10572  896 5675 10573  2822 5675 10573  1505 5179 10574  2818 5179 10574  2818 5179 10575  1048 5179 10575  4056 5952 10576  1697 5952 10576  2504 4346 10577  4346 5371 10577  3106 6612 10578  507 6612 10578  3840 8041 10579  776 3840 10579  1518 5447 10580  2826 5447 10580  631 5432 10581  2826 5432 10581  4036 9391 10582  2521 9391 10582  1339 4355 10583  1339 3390 10583  2929 4093 10584  1292 4093 10584  2929 4613 10585  913 4613 10585  1974 6742 10586  2929 6742 10586  1008 5455 10587  2820 5455 10587  2820 5454 10588  423 5454 10588  4859 10147 10589  2708 10147 10589  1402 4635 10590  3051 4635 10590  2453 9044 10591  2453 4521 10591  4746 9752 10592  2402 9752 10592  3511 9448 10593  1669 3511 10593  352 5634 10594  1915 5634 10594  3080 7599 10595  2028 7599 10595  3589 7365 10596  1194 7365 10596  3665 10596 10597  1195 3665 10597  2869 10000 10598  6404 10000 10598  3849 8740 10599  3849 8070 10599  1793 8685 10600  4747 8685 10600  2613 6956 10601  2613 5545 10601  3878 9246 10602  2784 9246 10602  3176 6834 10603  408 6834 10603  1196 6296 10604  2991 6296 10604  3694 6254 10605  1164 6254 10605  4196 6710 10606  2089 6710 10606  3925 4579 10607  1751 4579 10607  4007 7375 10608  1056 7375 10608  3031 6595 10609  2023 6595 10609  1023 7362 10610  2977 7362 10610  4395 9500 10611  1384 9500 10611  1339 5296 10612  2829 5296 10612  2901 7218 10613  1664 7218 10613  5014 9509 10614  1018 9509 10614  3077 9457 10616  3076 9457 10616  426 9610 10616  3077 9610 10616  4946 10523 10617  703 4946 10617  2532 5315 10618  1587 5315 10618  4558 8503 10619  392 8503 10619  3526 7300 10620  1303 7300 10620  1835 4298 10621  1645 4298 10621  5317 9810 10622  2667 9810 10622  5916 10448 10623  2799 10448 10623  1474 4531 10624  2183 4531 10624  4278 7027 10625  425 7027 10625  4735 7898 10626  2226 7898 10626  2236 6147 10627  2236 5201 10627  1328 8881 10628  3850 8881 10628  1611 5081 10629  2822 5081 10629  2670 9768 10630  4542 9768 10630  4790 8661 10631  954 8661 10631  2643 8577 10632  3810 8577 10632  1594 3401 10633  1594 3207 10633  1049 6473 10634  3156 6473 10634  5791 10438 10635  2832 10438 10635  1772 5272 10636  2832 5272 10636  680 4029 10645  1463 4029 10645  5191 9373 10638  98 9373 10638  3529 4716 10639  1436 4716 10639  1287 6489 10640  6489 10640 10641  5908 6487 10641  3050 5908 10641  3050 5908 10642  1772 5908 10642  2258 7711 10699  1065 7711 10643  3988 10469 10644  3988 5316 10644  1463 10637 10645  2832 10637 10645  4169 8902 10646  539 8902 10646  1055 3085 10647  1055 6403 10647  2994 7189 10648  1305 2994 10648  3671 6357 10649  1250 6357 10649  2833 5233 10650  610 5233 10650  2833 5232 10651  1486 5232 10651  1966 5668 10652  2893 5668 10652  2893 8687 10653  1238 8687 10653  2858 5024 10654  1857 5024 10654  2874 6291 10655  987 6291 10655  841 5147 10656  841 6439 10656  3140 6584 10657  1051 6584 10657  2555 4240 10658  2555 4349 10658  5203 6433 10659  1944 6433 10659  3946 9301 10660  2366 3946 10660  1633 3341 10661  13 10661 10851  26 3873 10662  3873 4714 10662  2973 6397 10663  1262 6397 10663  1123 6794 10664  2937 6794 10664  2028 10595 10665  2028 4887 10665  2682 4002 10666  2682 5344 10666  3539 7134 10667  575 7134 10667  3008 4293 10668  1407 4293 10668  499 5104 10669  2093 5104 10669  1340 3790 10670  3790 3791 10670  2618 5281 10671  1506 5281 10671  1302 6465 10672  1302 9299 10672  1637 7630 10673  1637 4478 10673  2918 8644 10674  790 8644 10674  2706 6275 10675  2968 6275 10675  402 10675 10676  2968 10675 10676  3884 10490 10677  1638 3884 10677  3561 10007 10678  1177 10007 10678  3123 7794 10679  1033 7794 10679  6074 10020 10680  2912 10020 10680  530 10299 10681  2604 4421 10881  1153 3598 10682  3598 4772 10682  2213 7807 10683  6016 7807 10683  427 8126 10685  3521 8126 10685  3292 10685 10686  427 10685 10686  3198 5426 10686  427 5426 10686  1435 5795 10687  3263 5795 10687  620 5597 10688  2909 5597 10688  2032 7560 10689  4379 7560 10689  1921 6828 10893  1921 10690 10893  480 4452 10691  2285 4452 10691  2875 6916 10692  2330 6916 10692  2875 9417 10693  1230 9417 10693  3380 6668 10694  1243 3380 10694  3397 10306 10695  1725 10306 10695  2752 4793 10696  1585 4793 10696  4443 6832 10697  80 4443 10697  5090 9134 10698  1469 9134 10698  7711 10643 10699  3067 10643 10699  3254 7275 10700  1066 7275 10700  1771 4279 10701  4279 6190 10701  3872 8309 10702  2272 8309 10702  1836 4265 10703  1836 4576 10703  1296 6447 10704  3131 6447 10704  3131 6989 10705  1019 6989 10705  3131 6447 10706  621 6447 10706  2856 7817 10707  1560 4690 10737  4319 7558 10708  803 7558 10708  1461 6064 10709  3392 6064 10709  1166 3364 10710  1166 9708 10710  3724 10304 10711  1220 10304 10711  3785 10254 10712  597 10254 10712  1173 3793 10713  1173 3625 10713  1665 5524 10714  2950 5524 10714  3830 7893 10715  1936 7893 10715  1948 6344 10716  1948 4486 10716  3964 7800 10717  449 7800 10717  1999 3235 10718  3235 5585 10718  1941 3714 10719  1941 3375 10719  3899 8712 10720  2811 8712 10720  1027 6150 10721  3126 6150 10721  2213 4786 10722  1474 4786 10722  1398 5999 10723  2842 5999 10723  1606 5431 10724  1606 5508 10724  4173 10435 10725  1317 10435 10725  2700 5000 10726  916 5000 10726  1974 3871 10727  490 3871 10727  3716 9148 10728  778 3716 10728  2004 6738 10729  3634 6738 10729  1179 4549 10730  3505 4549 10730  3506 10069 10731  1180 3506 10731  4486 10716 10732  4486 4487 10732  515 7730 10734  515 10733 10734  2119 7731 10734  2119 7730 10734  968 6875 10735  3122 6875 10735  1561 5436 10736  2856 5436 10736  4690 10707 10737  2856 10707 10737  1826 8507 10738  4987 8507 10738  573 8241 10739  4338 8241 10739  3658 9468 10740  123 9468 10740  3658 10740 10741  124 10740 10741  2651 8772 10742  2651 4848 10742  2907 4137 10743  619 4137 10743  1471 5894 10744  2907 5894 10744  4630 10273 10745  2907 4630 10745  5294 9447 10746  3083 5294 10746  5685 9558 10747  1887 5685 10747  1037 3047 10748  3047 7645 10748  379 6874 10749  379 4655 10749  1329 4151 10750  2077 4151 10750  3110 6818 10751  4606 6818 10751  3421 6208 10752  849 6208 10752  1815 4471 10753  1215 4471 10753  4226 6779 10754  59 4226 10754  3330 8489 10755  1348 8489 10755  1348 5239 10756  3888 5239 10756  1327 8839 10757  3330 8839 10757  3496 7277 10758  1767 7277 10758  62 6851 10759  61 6851 10759  105 5190 10760  104 5190 10760  33 4516 10761  32 4516 10761  3260 9842 10762  235 9842 10762  3562 9568 10763  125 3562 10763  100 3664 10764  99 3664 10764  3782 7512 10765  37 3782 10765  5348 8727 10766  111 8727 10766  3459 8887 10767  78 8887 10767  97 6176 10768  96 6176 10768  89 6142 10769  88 6142 10769  4801 10525 10770  113 10525 10770  3116 10451 10771  50 10451 10771  230 5237 10772  229 5237 10772  3695 7226 10773  75 3695 10773  3587 10203 10774  42 3587 10774  203 5576 10775  202 5576 10775  71 4157 10776  70 4157 10776  48 5133 10777  47 5133 10777  3799 8911 10778  53 3799 10778  3105 7901 10779  56 7901 10779  194 4874 10780  193 4874 10780  3858 10661 10781  13 10661 10781  22 3668 10782  21 3668 10782  5002 9450 10783  44 9450 10783  4670 10198 10784  67 10198 10784  4709 9988 10785  83 4709 10785  125 3382 10786  124 3382 10786  3479 8428 10787  186 8428 10787  5937 10198 10788  66 5937 10788  3328 7313 10789  0 3328 10789  6 4606 10790  5 4606 10790  192 4410 10791  191 4410 10791  3322 6712 10792  52 6712 10792  2933 8710 10793  36 8710 10793  3870 9342 10794  231 9342 10794  3836 10001 10795  20 10001 10795  3825 9466 10796  121 3825 10796  49 4019 10797  48 4019 10797  3660 8451 10798  58 8451 10798  3266 8465 10799  208 3266 10799  5712 8465 10800  209 8465 10800  221 4089 10801  220 4089 10801  92 3536 10802  91 3536 10802  3722 8082 10803  28 3722 10803  87 5306 10804  86 5306 10804  155 3577 10805  154 3577 10805  217 4050 10806  216 4050 10806  3642 9599 10807  27 9599 10807  3918 8441 10808  105 5190 10883  111 5015 10809  110 5015 10809  8970 9308 10810  102 9308 10810  90 6139 10811  89 6139 10811  3161 9855 10812  162 3161 10812  3762 7031 10813  198 3762 10813  166 3610 10814  165 3610 10814  4798 10222 10815  149 4798 10815  146 5630 10816  145 5630 10816  3609 8048 10817  157 8048 10817  160 6068 10818  159 6068 10818  143 3982 10819  142 3982 10819  183 3607 10820  182 3607 10820  3300 9463 10821  133 3300 10821  136 5087 10822  135 5087 10822  189 5010 10823  188 5010 10823  5667 7144 10824  183 7144 10824  172 4220 10825  171 4220 10825  206 3185 10826  205 3185 10826  9567 9568 10827  126 9568 10827  132 7498 10828  131 7498 10828  4777 6460 10829  130 6460 10829  3159 9332 10830  174 9332 10830  162 3137 10831  161 3137 10831  149 5748 10832  148 5748 10832  7947 8067 10833  152 7947 10833  145 7641 10834  144 7641 10834  198 5408 10835  197 5408 10835  4101 8811 10836  139 8811 10836  178 4229 10837  177 4229 10837  144 5257 10838  143 5257 10838  3367 9857 10839  164 9857 10839  5533 10135 10840  166 5533 10840  161 3741 10841  160 3741 10841  3514 8136 10842  23 3514 10842  2978 8878 10843  213 8878 10843  3062 6621 10844  15 6621 10844  244 4967 10845  243 4967 10845  5920 8662 10846  245 8662 10846  148 4919 10847  147 4919 10847  242 6514 10848  241 6514 10848  4023 9029 10849  4 9029 10849  3748 8329 10850  247 8329 10850  3341 8278 10851  12 8278 10851  4803 9515 10852  179 4803 10852  204 5835 10853  203 5835 10853  191 5212 10854  190 5212 10854  0 4461 10855  250 4461 10855  3999 8531 10856  215 8531 10856  2857 6569 10857  7 6569 10857  202 4052 10858  201 4052 10858  6405 8715 10859  18 8715 10859  5008 7353 10860  226 5008 10860  229 4608 10861  228 4608 10861  27 6207 10862  26 6207 10862  32 4301 10863  31 4301 10863  4519 10348 10864  101 10348 10864  4766 9292 10865  87 9292 10865  3745 6776 10866  65 6776 10866  44 5873 10867  43 5873 10867  91 5314 10868  90 5314 10868  3447 8143 10869  120 8143 10869  118 9271 10870  117 9271 10870  50 4782 10871  49 4782 10871  9325 10188 10872  68 9325 10872  8440 8441 10873  106 8441 10873  3688 8181 10874  114 3688 10874  3474 7917 10875  46 7917 10875  72 3703 10876  71 3703 10876  96 3913 10877  95 3913 10877  1429 4744 10878  2943 4744 10878  966 5196 10879  2943 5196 10879  2340 4426 10880  506 4426 10880  4421 10681 10881  530 10681 10881  2046 4839 10882  746 4839 10882  105 10808 10883  3918 10808 10883  1065 6725 10884  2999 6725 10884  3147 4742 10885  802 4742 10885  2865 5941 10886  416 5941 10886  2865 4962 10887  951 4962 10887  1466 5423 10888  2855 5423 10888  1833 5076 10889  2803 5076 10889  1190 3454 10890  1190 3355 10890  3459 10767 10891  79 10767 10891  3578 5064 10892  1253 5064 10892  4391 6828 10893  3227 4391 10893  3271 3938 10894  1396 3271 10894  444 5602 10895  444 4446 10895  1675 5941 10896  2865 5941 10896  2437 4926 10897  4926 10897 10902  3387 9738 10898  485 9738 10898  119 4811 10899  119 6326 10899  2817 4097 10900  2817 4918 10900  2253 4978 10901  3565 4978 10901  2866 5882 10902  951 5882 10902  489 5881 10903  2866 5881 10903  921 7221 10904  921 4972 10904  2566 8070 10905  8070 8838 10905  5094 6671 10906  2390 6671 10906  3091 4733 10907  804 4733 10907  4286 10907 10908  1492 4286 10908  </DataArray>
<DataArray  type="UInt32"  Name="offsets"  format="ascii">3 6 9 12 15 18 21 24 27 30 33 36 39 42 45 48 51 54 57 60 63 66 69 72 75 78 81 84 87 90 93 96 99 102 105 108 111 114 117 120 123 126 129 132 135 138 141 144 147 150 153 156 159 162 165 168 171 174 177 180 183 186 189 192 195 198 201 204 207 210 213 216 219 222 225 228 231 234 237 240 243 246 249 252 255 258 261 264 267 270 273 276 279 282 285 288 291 294 297 300 303 306 309 312 315 318 321 324 327 330 333 336 339 342 345 348 351 354 357 360 363 366 369 372 375 378 381 384 387 390 393 396 399 402 405 408 411 414 417 420 423 426 429 432 435 438 441 444 447 450 453 456 459 462 465 468 471 474 477 480 483 486 489 492 495 498 501 504 507 510 513 516 519 522 525 528 531 534 537 540 543 546 549 552 555 558 561 564 567 570 573 576 579 582 585 588 591 594 597 600 603 606 609 612 615 618 621 624 627 630 633 636 639 642 645 648 651 654 657 660 663 666 669 672 675 678 681 684 687 690 693 696 699 702 705 708 711 714 717 720 723 726 729 732 735 738 741 744 747 750 753 756 759 762 765 768 771 774 777 780 783 786 789 792 795 798 801 804 807 810 813 816 819 822 825 828 831 834 837 840 843 846 849 852 855 858 861 864 867 870 873 876 879 882 885 888 891 894 897 900 903 906 909 912 915 918 921 924 927 930 933 936 939 942 945 948 951 954 957 960 963 966 969 972 975 978 981 984 987 990 993 996 999 1002 1005 1008 1011 1014 1017 1020 1023 1026 1029 1032 1035 1038 1041 1044 1047 1050 1053 1056 1059 1062 1065 1068 1071 1074 1077 1080 1083 1086 1089 1092 1095 1098 1101 1104 1107 1110 1113 1116 1119 1122 1125 1128 1131 1134 1137 1140 1143 1146 1149 1152 1155 1158 1161 1164 1167 1170 1173 1176 1179 1182 1185 1188 1191 1194 1197 1200 1203 1206 1209 1212 1215 1218 1221 1224 1227 1230 1233 1236 1239 1242 1245 1248 1251 1254 1257 1260 1263 1266 1269 1272 1275 1278 1281 1284 1287 1290 1293 1296 1299 1302 1305 1308 1311 1314 1317 1320 1323 1326 1329 1332 1335 1338 1341 1344 1347 1350 1353 1356 1359 1362 1365 1368 1371 1374 1377 1380 1383 1386 1389 1392 1395 1398 1401 1404 1407 1410 1413 1416 1419 1422 1425 1428 1431 1434 1437 1440 1443 1446 1449 1452 1455 1458 1461 1464 1467 1470 1473 1476 1479 1482 1485 1488 1491 1494 1497 1500 1503 1506 1509 1512 1515 1518 1521 1524 1527 1530 1533 1536 1539 1542 1545 1548 1551 1554 1557 1560 1563 1566 1569 1572 1575 1578 1581 1584 1587 1590 1593 1596 1599 1602 1605 1608 1611 1614 1617 1620 1623 1626 1629 1632 1635 1638 1641 1644 1647 1650 1653 1656 1659 1662 1665 1668 1671 1674 1677 1680 1683 1686 1689 1692 1695 1698 1701 1704 1707 1710 1713 1716 1719 1722 1725 1728 1731 1734 1737 1740 1743 1746 1749 1752 1755 1758 1761 1764 1767 1770 1773 1776 1779 1782 1785 1788 1791 1794 1797 1800 1803 1806 1809 1812 1815 1818 1821 1824 1827 1830 1833 1836 1839 1842 1845 1848 1851 1854 1857 1860 1863 1866 1869 1872 1875 1878 1881 1884 1887 1890 1893 1896 1899 1902 1905 1908 1911 1914 1917 1920 1923 1926 1929 1932 1935 1938 1941 1944 1947 1950 1953 1956 1959 1962 1965 1968 1971 1974 1977 1980 1983 1986 1989 1992 1995 1998 2001 2004 2007 2010 2013 2016 2019 2022 2025 2028 2031 2034 2037 2040 2043 2046 2049 2052 2055 2058 2061 2064 2067 2070 2073 2076 2079 2082 2085 2088 2091 2094 2097 2100 2103 2106 2109 2112 2115 2118 2121 2124 2127 2130 2133 2136 2139 2142 2145 2148 2151 2154 2157 2160 2163 2166 2169 2172 2175 2178 2181 2184 2187 2190 2193 2196 2199 2202 2205 2208 2211 2214 2217 2220 2223 2226 2229 2232 2235 2238 2241 2244 2247 2250 2253 2256 2259 2262 2265 2268 2271 2274 2277 2280 2283 2286 2289 2292 2295 2298 2301 2304 2307 2310 2313 2316 2319 2322 2325 2328 2331 2334 2337 2340 2343 2346 2349 2352 2355 2358 2361 2364 2367 2370 2373 2376 2379 2382 2385 2388 2391 2394 2397 2400 2403 2406 2409 2412 2415 2418 2421 2424 2427 2430 2433 2436 2439 2442 2445 2448 2451 2454 2457 2460 2463 2466 2469 2472 2475 2478 2481 2484 2487 2490 2493 2496 2499 2502 2505 2508 2511 2514 2517 2520 2523 2526 2529 2532 2535 2538 2541 2544 2547 2550 2553 2556 2559 2562 2565 2568 2571 2574 2577 2580 2583 2586 2589 2592 2595 2598 2601 2604 2607 2610 2613 2616 2619 2622 2625 2628 2631 2634 2637 2640 2643 2646 2649 2652 2655 2658 2661 2664 2667 2670 2673 2676 2679 2682 2685 2688 2691 2694 2697 2700 2703 2706 2709 2712 2715 2718 2721 2724 2727 2730 2733 2736 2739 2742 2745 2748 2751 2754 2757 2760 2763 2766 2769 2772 2775 2778 2781 2784 2787 2790 2793 2796 2799 2802 2805 2808 2811 2814 2817 2820 2823 2826 2829 2832 2835 2838 2841 2844 2847 2850 2853 2856 2859 2862 2865 2868 2871 2874 2877 2880 2883 2886 2889 2892 2895 2898 2901 2904 2907 2910 2913 2916 2919 2922 2925 2928 2931 2934 2937 2940 2943 2946 2949 2952 2955 2958 2961 2964 2967 2970 2973 2976 2979 2982 2985 2988 2991 2994 2997 3000 3003 3006 3009 3012 3015 3018 3021 3024 3027 3030 3033 3036 3039 3042 3045 3048 3051 3054 3057 3060 3063 3066 3069 3072 3075 3078 3081 3084 3087 3090 3093 3096 3099 3102 3105 3108 3111 3114 3117 3120 3123 3126 3129 3132 3135 3138 3141 3144 3147 3150 3153 3156 3159 3162 3165 3168 3171 3174 3177 3180 3183 3186 3189 3192 3195 3198 3201 3204 3207 3210 3213 3216 3219 3222 3225 3228 3231 3234 3237 3240 3243 3246 3249 3252 3255 3258 3261 3264 3267 3270 3273 3276 3279 3282 3285 3288 3291 3294 3297 3300 3303 3306 3309 3312 3315 3318 3321 3324 3327 3330 3333 3336 3339 3342 3345 3348 3351 3354 3357 3360 3363 3366 3369 3372 3375 3378 3381 3384 3387 3390 3393 3396 3399 3402 3405 3408 3411 3414 3417 3420 3423 3426 3429 3432 3435 3438 3441 3444 3447 3450 3453 3456 3459 3462 3465 3468 3471 3474 3477 3480 3483 3486 3489 3492 3495 3498 3501 3504 3507 3510 3513 3516 3519 3522 3525 3528 3531 3534 3537 3540 3543 3546 3549 3552 3555 3558 3561 3564 3567 3570 3573 3576 3579 3582 3585 3588 3591 3594 3597 3600 3603 3606 3609 3612 3615 3618 3621 3624 3627 3630 3633 3636 3639 3642 3645 3648 3651 3654 3657 3660 3663 3666 3669 3672 3675 3678 3681 3684 3687 3690 3693 3696 3699 3702 3705 3708 3711 3714 3717 3720 3723 3726 3729 3732 3735 3738 3741 3744 3747 3750 3753 3756 3759 3762 3765 3768 3771 3774 3777 3780 3783 3786 3789 3792 3795 3798 3801 3804 3807 3810 3813 3816 3819 3822 3825 3828 3831 3834 3837 3840 3843 3846 3849 3852 3855 3858 3861 3864 3867 3870 3873 3876 3879 3882 3885 3888 3891 3894 3897 3900 3903 3906 3909 3912 3915 3918 3921 3924 3927 3930 3933 3936 3939 3942 3945 3948 3951 3954 3957 3960 3963 3966 3969 3972 3975 3978 3981 3984 3987 3990 3993 3996 3999 4002 4005 4008 4011 4014 4017 4020 4023 4026 4029 4032 4035 4038 4041 4044 4047 4050 4053 4056 4059 4062 4065 4068 4071 4074 4077 4080 4083 4086 4089 4092 4095 4098 4101 4104 4107 4110 4113 4116 4119 4122 4125 4128 4131 4134 4137 4140 4143 4146 4149 4152 4155 4158 4161 4164 4167 4170 4173 4176 4179 4182 4185 4188 4191 4194 4197 4200 4203 4206 4209 4212 4215 4218 4221 4224 4227 4230 4233 4236 4239 4242 4245 4248 4251 4254 4257 4260 4263 4266 4269 4272 4275 4278 4281 4284 4287 4290 4293 4296 4299 4302 4305 4308 4311 4314 4317 4320 4323 4326 4329 4332 4335 4338 4341 4344 4347 4350 4353 4356 4359 4362 4365 4368 4371 4374 4377 4380 4383 4386 4389 4392 4395 4398 4401 4404 4407 4410 4413 4416 4419 4422 4425 4428 4431 4434 4437 4440 4443 4446 4449 4452 4455 4458 4461 4464 4467 4470 4473 4476 4479 4482 4485 4488 4491 4494 4497 4500 4503 4506 4509 4512 4515 4518 4521 4524 4527 4530 4533 4536 4539 4542 4545 4548 4551 4554 4557 4560 4563 4566 4569 4572 4575 4578 4581 4584 4587 4590 4593 4596 4599 4602 4605 4608 4611 4614 4617 4620 4623 4626 4629 4632 4635 4638 4641 4644 4647 4650 4653 4656 4659 4662 4665 4668 4671 4674 4677 4680 4683 4686 4689 4692 4695 4698 4701 4704 4707 4710 4713 4716 4719 4722 4725 4728 4731 4734 4737 4740 4743 4746 4749 4752 4755 4758 4761 4764 4767 4770 4773 4776 4779 4782 4785 4788 4791 4794 4797 4800 4803 4806 4809 4812 4815 4818 4821 4824 4827 4830 4833 4836 4839 4842 4845 4848 4851 4854 4857 4860 4863 4866 4869 4872 4875 4878 4881 4884 4887 4890 4893 4896 4899 4902 4905 4908 4911 4914 4917 4920 4923 4926 4929 4932 4935 4938 4941 4944 4947 4950 4953 4956 4959 4962 4965 4968 4971 4974 4977 4980 4983 4986 4989 4992 4995 4998 5001 5004 5007 5010 5013 5016 5019 5022 5025 5028 5031 5034 5037 5040 5043 5046 5049 5052 5055 5058 5061 5064 5067 5070 5073 5076 5079 5082 5085 5088 5091 5094 5097 5100 5103 5106 5109 5112 5115 5118 5121 5124 5127 5130 5133 5136 5139 5142 5145 5148 5151 5154 5157 5160 5163 5166 5169 5172 5175 5178 5181 5184 5187 5190 5193 5196 5199 5202 5205 5208 5211 5214 5217 5220 5223 5226 5229 5232 5235 5238 5241 5244 5247 5250 5253 5256 5259 5262 5265 5268 5271 5274 5277 5280 5283 5286 5289 5292 5295 5298 5301 5304 5307 5310 5313 5316 5319 5322 5325 5328 5331 5334 5337 5340 5343 5346 5349 5352 5355 5358 5361 5364 5367 5370 5373 5376 5379 5382 5385 5388 5391 5394 5397 5400 5403 5406 5409 5412 5415 5418 5421 5424 5427 5430 5433 5436 5439 5442 5445 5448 5451 5454 5457 5460 5463 5466 5469 5472 5475 5478 5481 5484 5487 5490 5493 5496 5499 5502 5505 5508 5511 5514 5517 5520 5523 5526 5529 5532 5535 5538 5541 5544 5547 5550 5553 5556 5559 5562 5565 5568 5571 5574 5577 5580 5583 5586 5589 5592 5595 5598 5601 5604 5607 5610 5613 5616 5619 5622 5625 5628 5631 5634 5637 5640 5643 5646 5649 5652 5655 5658 5661 5664 5667 5670 5673 5676 5679 5682 5685 5688 5691 5694 5697 5700 5703 5706 5709 5712 5715 5718 5721 5724 5727 5730 5733 5736 5739 5742 5745 5748 5751 5754 5757 5760 5763 5766 5769 5772 5775 5778 5781 5784 5787 5790 5793 5796 5799 5802 5805 5808 5811 5814 5817 5820 5823 5826 5829 5832 5835 5838 5841 5844 5847 5850 5853 5856 5859 5862 5865 5868 5871 5874 5877 5880 5883 5886 5889 5892 5895 5898 5901 5904 5907 5910 5913 5916 5919 5922 5925 5928 5931 5934 5937 5940 5943 5946 5949 5952 5955 5958 5961 5964 5967 5970 5973 5976 5979 5982 5985 5988 5991 5994 5997 6000 6003 6006 6009 6012 6015 6018 6021 6024 6027 6030 6033 6036 6039 6042 6045 6048 6051 6054 6057 6060 6063 6066 6069 6072 6075 6078 6081 6084 6087 6090 6093 6096 6099 6102 6105 6108 6111 6114 6117 6120 6123 6126 6129 6132 6135 6138 6141 6144 6147 6150 6153 6156 6159 6162 6165 6168 6171 6174 6177 6180 6183 6186 6189 6192 6195 6198 6201 6204 6207 6210 6213 6216 6219 6222 6225 6228 6231 6234 6237 6240 6243 6246 6249 6252 6255 6258 6261 6264 6267 6270 6273 6276 6279 6282 6285 6288 6291 6294 6297 6300 6303 6306 6309 6312 6315 6318 6321 6324 6327 6330 6333 6336 6339 6342 6345 6348 6351 6354 6357 6360 6363 6366 6369 6372 6375 6378 6381 6384 6387 6390 6393 6396 6399 6402 6405 6408 6411 6414 6417 6420 6423 6426 6429 6432 6435 6438 6441 6444 6447 6450 6453 6456 6459 6462 6465 6468 6471 6474 6477 6480 6483 6486 6489 6492 6495 6498 6501 6504 6507 6510 6513 6516 6519 6522 6525 6528 6531 6534 6537 6540 6543 6546 6549 6552 6555 6558 6561 6564 6567 6570 6573 6576 6579 6582 6585 6588 6591 6594 6597 6600 6603 6606 6609 6612 6615 6618 6621 6624 6627 6630 6633 6636 6639 6642 6645 6648 6651 6654 6657 6660 6663 6666 6669 6672 6675 6678 6681 6684 6687 6690 6693 6696 6699 6702 6705 6708 6711 6714 6717 6720 6723 6726 6729 6732 6735 6738 6741 6744 6747 6750 6753 6756 6759 6762 6765 6768 6771 6774 6777 6780 6783 6786 6789 6792 6795 6798 6801 6804 6807 6810 6813 6816 6819 6822 6825 6828 6831 6834 6837 6840 6843 6846 6849 6852 6855 6858 6861 6864 6867 6870 6873 6876 6879 6882 6885 6888 6891 6894 6897 6900 6903 6906 6909 6912 6915 6918 6921 6924 6927 6930 6933 6936 6939 6942 6945 6948 6951 6954 6957 6960 6963 6966 6969 6972 6975 6978 6981 6984 6987 6990 6993 6996 6999 7002 7005 7008 7011 7014 7017 7020 7023 7026 7029 7032 7035 7038 7041 7044 7047 7050 7053 7056 7059 7062 7065 7068 7071 7074 7077 7080 7083 7086 7089 7092 7095 7098 7101 7104 7107 7110 7113 7116 7119 7122 7125 7128 7131 7134 7137 7140 7143 7146 7149 7152 7155 7158 7161 7164 7167 7170 7173 7176 7179 7182 7185 7188 7191 7194 7197 7200 7203 7206 7209 7212 7215 7218 7221 7224 7227 7230 7233 7236 7239 7242 7245 7248 7251 7254 7257 7260 7263 7266 7269 7272 7275 7278 7281 7284 7287 7290 7293 7296 7299 7302 7305 7308 7311 7314 7317 7320 7323 7326 7329 7332 7335 7338 7341 7344 7347 7350 7353 7356 7359 7362 7365 7368 7371 7374 7377 7380 7383 7386 7389 7392 7395 7398 7401 7404 7407 7410 7413 7416 7419 7422 7425 7428 7431 7434 7437 7440 7443 7446 7449 7452 7455 7458 7461 7464 7467 7470 7473 7476 7479 7482 7485 7488 7491 7494 7497 7500 7503 7506 7509 7512 7515 7518 7521 7524 7527 7530 7533 7536 7539 7542 7545 7548 7551 7554 7557 7560 7563 7566 7569 7572 7575 7578 7581 7584 7587 7590 7593 7596 7599 7602 7605 7608 7611 7614 7617 7620 7623 7626 7629 7632 7635 7638 7641 7644 7647 7650 7653 7656 7659 7662 7665 7668 7671 7674 7677 7680 7683 7686 7689 7692 7695 7698 7701 7704 7707 7710 7713 7716 7719 7722 7725 7728 7731 7734 7737 7740 7743 7746 7749 7752 7755 7758 7761 7764 7767 7770 7773 7776 7779 7782 7785 7788 7791 7794 7797 7800 7803 7806 7809 7812 7815 7818 7821 7824 7827 7830 7833 7836 7839 7842 7845 7848 7851 7854 7857 7860 7863 7866 7869 7872 7875 7878 7881 7884 7887 7890 7893 7896 7899 7902 7905 7908 7911 7914 7917 7920 7923 7926 7929 7932 7935 7938 7941 7944 7947 7950 7953 7956 7959 7962 7965 7968 7971 7974 7977 7980 7983 7986 7989 7992 7995 7998 8001 8004 8007 8010 8013 8016 8019 8022 8025 8028 8031 8034 8037 8040 8043 8046 8049 8052 8055 8058 8061 8064 8067 8070 8073 8076 8079 8082 8085 8088 8091 8094 8097 8100 8103 8106 8109 8112 8115 8118 8121 8124 8127 8130 8133 8136 8139 8142 8145 8148 8151 8154 8157 8160 8163 8166 8169 8172 8175 8178 8181 8184 8187 8190 8193 8196 8199 8202 8205 8208 8211 8214 8217 8220 8223 8226 8229 8232 8235 8238 8241 8244 8247 8250 8253 8256 8259 8262 8265 8268 8271 8274 8277 8280 8283 8286 8289 8292 8295 8298 8301 8304 8307 8310 8313 8316 8319 8322 8325 8328 8331 8334 8337 8340 8343 8346 8349 8352 8355 8358 8361 8364 8367 8370 8373 8376 8379 8382 8385 8388 8391 8394 8397 8400 8403 8406 8409 8412 8415 8418 8421 8424 8427 8430 8433 8436 8439 8442 8445 8448 8451 8454 8457 8460 8463 8466 8469 8472 8475 8478 8481 8484 8487 8490 8493 8496 8499 8502 8505 8508 8511 8514 8517 8520 8523 8526 8529 8532 8535 8538 8541 8544 8547 8550 8553 8556 8559 8562 8565 8568 8571 8574 8577 8580 8583 8586 8589 8592 8595 8598 8601 8604 8607 8610 8613 8616 8619 8622 8625 8628 8631 8634 8637 8640 8643 8646 8649 8652 8655 8658 8661 8664 8667 8670 8673 8676 8679 8682 8685 8688 8691 8694 8697 8700 8703 8706 8709 8712 8715 8718 8721 8724 8727 8730 8733 8736 8739 8742 8745 8748 8751 8754 8757 8760 8763 8766 8769 8772 8775 8778 8781 8784 8787 8790 8793 8796 8799 8802 8805 8808 8811 8814 8817 8820 8823 8826 8829 8832 8835 8838 8841 8844 8847 8850 8853 8856 8859 8862 8865 8868 8871 8874 8877 8880 8883 8886 8889 8892 8895 8898 8901 8904 8907 8910 8913 8916 8919 8922 8925 8928 8931 8934 8937 8940 8943 8946 8949 8952 8955 8958 8961 8964 8967 8970 8973 8976 8979 8982 8985 8988 8991 8994 8997 9000 9003 9006 9009 9012 9015 9018 9021 9024 9027 9030 9033 9036 9039 9042 9045 9048 9051 9054 9057 9060 9063 9066 9069 9072 9075 9078 9081 9084 9087 9090 9093 9096 9099 9102 9105 9108 9111 9114 9117 9120 9123 9126 9129 9132 9135 9138 9141 9144 9147 9150 9153 9156 9159 9162 9165 9168 9171 9174 9177 9180 9183 9186 9189 9192 9195 9198 9201 9204 9207 9210 9213 9216 9219 9222 9225 9228 9231 9234 9237 9240 9243 9246 9249 9252 9255 9258 9261 9264 9267 9270 9273 9276 9279 9282 9285 9288 9291 9294 9297 9300 9303 9306 9309 9312 9315 9318 9321 9324 9327 9330 9333 9336 9339 9342 9345 9348 9351 9354 9357 9360 9363 9366 9369 9372 9375 9378 9381 9384 9387 9390 9393 9396 9399 9402 9405 9408 9411 9414 9417 9420 9423 9426 9429 9432 9435 9438 9441 9444 9447 9450 9453 9456 9459 9462 9465 9468 9471 9474 9477 9480 9483 9486 9489 9492 9495 9498 9501 9504 9507 9510 9513 9516 9519 9522 9525 9528 9531 9534 9537 9540 9543 9546 9549 9552 9555 9558 9561 9564 9567 9570 9573 9576 9579 9582 9585 9588 9591 9594 9597 9600 9603 9606 9609 9612 9615 9618 9621 9624 9627 9630 9633 9636 9639 9642 9645 9648 9651 9654 9657 9660 9663 9666 9669 9672 9675 9678 9681 9684 9687 9690 9693 9696 9699 9702 9705 9708 9711 9714 9717 9720 9723 9726 9729 9732 9735 9738 9741 9744 9747 9750 9753 9756 9759 9762 9765 9768 9771 9774 9777 9780 9783 9786 9789 9792 9795 9798 9801 9804 9807 9810 9813 9816 9819 9822 9825 9828 9831 9834 9837 9840 9843 9846 9849 9852 9855 9858 9861 9864 9867 9870 9873 9876 9879 9882 9885 9888 9891 9894 9897 9900 9903 9906 9909 9912 9915 9918 9921 9924 9927 9930 9933 9936 9939 9942 9945 9948 9951 9954 9957 9960 9963 9966 9969 9972 9975 9978 9981 9984 9987 9990 9993 9996 9999 10002 10005 10008 10011 10014 10017 10020 10023 10026 10029 10032 10035 10038 10041 10044 10047 10050 10053 10056 10059 10062 10065 10068 10071 10074 10077 10080 10083 10086 10089 10092 10095 10098 10101 10104 10107 10110 10113 10116 10119 10122 10125 10128 10131 10134 10137 10140 10143 10146 10149 10152 10155 10158 10161 10164 10167 10170 10173 10176 10179 10182 10185 10188 10191 10194 10197 10200 10203 10206 10209 10212 10215 10218 10221 10224 10227 10230 10233 10236 10239 10242 10245 10248 10251 10254 10257 10260 10263 10266 10269 10272 10275 10278 10281 10284 10287 10290 10293 10296 10299 10302 10305 10308 10311 10314 10317 10320 10323 10326 10329 10332 10335 10338 10341 10344 10347 10350 10353 10356 10359 10362 10365 10368 10371 10374 10377 10380 10383 10386 10389 10392 10395 10398 10401 10404 10407 10410 10413 10416 10419 10422 10425 10428 10431 10434 10437 10440 10443 10446 10449 10452 10455 10458 10461 10464 10467 10470 10473 10476 10479 10482 10485 10488 10491 10494 10497 10500 10503 10506 10509 10512 10515 10518 10521 10524 10527 10530 10533 10536 10539 10542 10545 10548 10551 10554 10557 10560 10563 10566 10569 10572 10575 10578 10581 10584 10587 10590 10593 10596 10599 10602 10605 10608 10611 10614 10617 10620 10623 10626 10629 10632 10635 10638 10641 10644 10647 10650 10653 10656 10659 10662 10665 10668 10671 10674 10677 10680 10683 10686 10689 10692 10695 10698 10701 10704 10707 10710 10713 10716 10719 10722 10725 10728 10731 10734 10737 10740 10743 10746 10749 10752 10755 10758 10761 10764 10767 10770 10773 10776 10779 10782 10785 10788 10791 10794 10797 10800 10803 10806 10809 10812 10815 10818 10821 10824 10827 10830 10833 10836 10839 10842 10845 10848 10851 10854 10857 10860 10863 10866 10869 10872 10875 10878 10881 10884 10887 10890 10893 10896 10899 10902 10905 10908 10911 10914 10917 10920 10923 10926 10929 10932 10935 10938 10941 10944 10947 10950 10953 10956 10959 10962 10965 10968 10971 10974 10977 10980 10983 10986 10989 10992 10995 10998 11001 11004 11007 11010 11013 11016 11019 11022 11025 11028 11031 11034 11037 11040 11043 11046 11049 11052 11055 11058 11061 11064 11067 11070 11073 11076 11079 11082 11085 11088 11091 11094 11097 11100 11103 11106 11109 11112 11115 11118 11121 11124 11127 11130 11133 11136 11139 11142 11145 11148 11151 11154 11157 11160 11163 11166 11169 11172 11175 11178 11181 11184 11187 11190 11193 11196 11199 11202 11205 11208 11211 11214 11217 11220 11223 11226 11229 11232 11235 11238 11241 11244 11247 11250 11253 11256 11259 11262 11265 11268 11271 11274 11277 11280 11283 11286 11289 11292 11295 11298 11301 11304 11307 11310 11313 11316 11319 11322 11325 11328 11331 11334 11337 11340 11343 11346 11349 11352 11355 11358 11361 11364 11367 11370 11373 11376 11379 11382 11385 11388 11391 11394 11397 11400 11403 11406 11409 11412 11415 11418 11421 11424 11427 11430 11433 11436 11439 11442 11445 11448 11451 11454 11457 11460 11463 11466 11469 11472 11475 11478 11481 11484 11487 11490 11493 11496 11499 11502 11505 11508 11511 11514 11517 11520 11523 11526 11529 11532 11535 11538 11541 11544 11547 11550 11553 11556 11559 11562 11565 11568 11571 11574 11577 11580 11583 11586 11589 11592 11595 11598 11601 11604 11607 11610 11613 11616 11619 11622 11625 11628 11631 11634 11637 11640 11643 11646 11649 11652 11655 11658 11661 11664 11667 11670 11673 11676 11679 11682 11685 11688 11691 11694 11697 11700 11703 11706 11709 11712 11715 11718 11721 11724 11727 11730 11733 11736 11739 11742 11745 11748 11751 11754 11757 11760 11763 11766 11769 11772 11775 11778 11781 11784 11787 11790 11793 11796 11799 11802 11805 11808 11811 11814 11817 11820 11823 11826 11829 11832 11835 11838 11841 11844 11847 11850 11853 11856 11859 11862 11865 11868 11871 11874 11877 11880 11883 11886 11889 11892 11895 11898 11901 11904 11907 11910 11913 11916 11919 11922 11925 11928 11931 11934 11937 11940 11943 11946 11949 11952 11955 11958 11961 11964 11967 11970 11973 11976 11979 11982 11985 11988 11991 11994 11997 12000 12003 12006 12009 12012 12015 12018 12021 12024 12027 12030 12033 12036 12039 12042 12045 12048 12051 12054 12057 12060 12063 12066 12069 12072 12075 12078 12081 12084 12087 12090 12093 12096 12099 12102 12105 12108 12111 12114 12117 12120 12123 12126 12129 12132 12135 12138 12141 12144 12147 12150 12153 12156 12159 12162 12165 12168 12171 12174 12177 12180 12183 12186 12189 12192 12195 12198 12201 12204 12207 12210 12213 12216 12219 12222 12225 12228 12231 12234 12237 12240 12243 12246 12249 12252 12255 12258 12261 12264 12267 12270 12273 12276 12279 12282 12285 12288 12291 12294 12297 12300 12303 12306 12309 12312 12315 12318 12321 12324 12327 12330 12333 12336 12339 12342 12345 12348 12351 12354 12357 12360 12363 12366 12369 12372 12375 12378 12381 12384 12387 12390 12393 12396 12399 12402 12405 12408 12411 12414 12417 12420 12423 12426 12429 12432 12435 12438 12441 12444 12447 12450 12453 12456 12459 12462 12465 12468 12471 12474 12477 12480 12483 12486 12489 12492 12495 12498 12501 12504 12507 12510 12513 12516 12519 12522 12525 12528 12531 12534 12537 12540 12543 12546 12549 12552 12555 12558 12561 12564 12567 12570 12573 12576 12579 12582 12585 12588 12591 12594 12597 12600 12603 12606 12609 12612 12615 12618 12621 12624 12627 12630 12633 12636 12639 12642 12645 12648 12651 12654 12657 12660 12663 12666 12669 12672 12675 12678 12681 12684 12687 12690 12693 12696 12699 12702 12705 12708 12711 12714 12717 12720 12723 12726 12729 12732 12735 12738 12741 12744 12747 12750 12753 12756 12759 12762 12765 12768 12771 12774 12777 12780 12783 12786 12789 12792 12795 12798 12801 12804 12807 12810 12813 12816 12819 12822 12825 12828 12831 12834 12837 12840 12843 12846 12849 12852 12855 12858 12861 12864 12867 12870 12873 12876 12879 12882 12885 12888 12891 12894 12897 12900 12903 12906 12909 12912 12915 12918 12921 12924 12927 12930 12933 12936 12939 12942 12945 12948 12951 12954 12957 12960 12963 12966 12969 12972 12975 12978 12981 12984 12987 12990 12993 12996 12999 13002 13005 13008 13011 13014 13017 13020 13023 13026 13029 13032 13035 13038 13041 13044 13047 13050 13053 13056 13059 13062 13065 13068 13071 13074 13077 13080 13083 13086 13089 13092 13095 13098 13101 13104 13107 13110 13113 13116 13119 13122 13125 13128 13131 13134 13137 13140 13143 13146 13149 13152 13155 13158 13161 13164 13167 13170 13173 13176 13179 13182 13185 13188 13191 13194 13197 13200 13203 13206 13209 13212 13215 13218 13221 13224 13227 13230 13233 13236 13239 13242 13245 13248 13251 13254 13257 13260 13263 13266 13269 13272 13275 13278 13281 13284 13287 13290 13293 13296 13299 13302 13305 13308 13311 13314 13317 13320 13323 13326 13329 13332 13335 13338 13341 13344 13347 13350 13353 13356 13359 13362 13365 13368 13371 13374 13377 13380 13383 13386 13389 13392 13395 13398 13401 13404 13407 13410 13413 13416 13419 13422 13425 13428 13431 13434 13437 13440 13443 13446 13449 13452 13455 13458 13461 13464 13467 13470 13473 13476 13479 13482 13485 13488 13491 13494 13497 13500 13503 13506 13509 13512 13515 13518 13521 13524 13527 13530 13533 13536 13539 13542 13545 13548 13551 13554 13557 13560 13563 13566 13569 13572 13575 13578 13581 13584 13587 13590 13593 13596 13599 13602 13605 13608 13611 13614 13617 13620 13623 13626 13629 13632 13635 13638 13641 13644 13647 13650 13653 13656 13659 13662 13665 13668 13671 13674 13677 13680 13683 13686 13689 13692 13695 13698 13701 13704 13707 13710 13713 13716 13719 13722 13725 13728 13731 13734 13737 13740 13743 13746 13749 13752 13755 13758 13761 13764 13767 13770 13773 13776 13779 13782 13785 13788 13791 13794 13797 13800 13803 13806 13809 13812 13815 13818 13821 13824 13827 13830 13833 13836 13839 13842 13845 13848 13851 13854 13857 13860 13863 13866 13869 13872 13875 13878 13881 13884 13887 13890 13893 13896 13899 13902 13905 13908 13911 13914 13917 13920 13923 13926 13929 13932 13935 13938 13941 13944 13947 13950 13953 13956 13959 13962 13965 13968 13971 13974 13977 13980 13983 13986 13989 13992 13995 13998 14001 14004 14007 14010 14013 14016 14019 14022 14025 14028 14031 14034 14037 14040 14043 14046 14049 14052 14055 14058 14061 14064 14067 14070 14073 14076 14079 14082 14085 14088 14091 14094 14097 14100 14103 14106 14109 14112 14115 14118 14121 14124 14127 14130 14133 14136 14139 14142 14145 14148 14151 14154 14157 14160 14163 14166 14169 14172 14175 14178 14181 14184 14187 14190 14193 14196 14199 14202 14205 14208 14211 14214 14217 14220 14223 14226 14229 14232 14235 14238 14241 14244 14247 14250 14253 14256 14259 14262 14265 14268 14271 14274 14277 14280 14283 14286 14289 14292 14295 14298 14301 14304 14307 14310 14313 14316 14319 14322 14325 14328 14331 14334 14337 14340 14343 14346 14349 14352 14355 14358 14361 14364 14367 14370 14373 14376 14379 14382 14385 14388 14391 14394 14397 14400 14403 14406 14409 14412 14415 14418 14421 14424 14427 14430 14433 14436 14439 14442 14445 14448 14451 14454 14457 14460 14463 14466 14469 14472 14475 14478 14481 14484 14487 14490 14493 14496 14499 14502 14505 14508 14511 14514 14517 14520 14523 14526 14529 14532 14535 14538 14541 14544 14547 14550 14553 14556 14559 14562 14565 14568 14571 14574 14577 14580 14583 14586 14589 14592 14595 14598 14601 14604 14607 14610 14613 14616 14619 14622 14625 14628 14631 14634 14637 14640 14643 14646 14649 14652 14655 14658 14661 14664 14667 14670 14673 14676 14679 14682 14685 14688 14691 14694 14697 14700 14703 14706 14709 14712 14715 14718 14721 14724 14727 14730 14733 14736 14739 14742 14745 14748 14751 14754 14757 14760 14763 14766 14769 14772 14775 14778 14781 14784 14787 14790 14793 14796 14799 14802 14805 14808 14811 14814 14817 14820 14823 14826 14829 14832 14835 14838 14841 14844 14847 14850 14853 14856 14859 14862 14865 14868 14871 14874 14877 14880 14883 14886 14889 14892 14895 14898 14901 14904 14907 14910 14913 14916 14919 14922 14925 14928 14931 14934 14937 14940 14943 14946 14949 14952 14955 14958 14961 14964 14967 14970 14973 14976 14979 14982 14985 14988 14991 14994 14997 15000 15003 15006 15009 15012 15015 15018 15021 15024 15027 15030 15033 15036 15039 15042 15045 15048 15051 15054 15057 15060 15063 15066 15069 15072 15075 15078 15081 15084 15087 15090 15093 15096 15099 15102 15105 15108 15111 15114 15117 15120 15123 15126 15129 15132 15135 15138 15141 15144 15147 15150 15153 15156 15159 15162 15165 15168 15171 15174 15177 15180 15183 15186 15189 15192 15195 15198 15201 15204 15207 15210 15213 15216 15219 15222 15225 15228 15231 15234 15237 15240 15243 15246 15249 15252 15255 15258 15261 15264 15267 15270 15273 15276 15279 15282 15285 15288 15291 15294 15297 15300 15303 15306 15309 15312 15315 15318 15321 15324 15327 15330 15333 15336 15339 15342 15345 15348 15351 15354 15357 15360 15363 15366 15369 15372 15375 15378 15381 15384 15387 15390 15393 15396 15399 15402 15405 15408 15411 15414 15417 15420 15423 15426 15429 15432 15435 15438 15441 15444 15447 15450 15453 15456 15459 15462 15465 15468 15471 15474 15477 15480 15483 15486 15489 15492 15495 15498 15501 15504 15507 15510 15513 15516 15519 15522 15525 15528 15531 15534 15537 15540 15543 15546 15549 15552 15555 15558 15561 15564 15567 15570 15573 15576 15579 15582 15585 15588 15591 15594 15597 15600 15603 15606 15609 15612 15615 15618 15621 15624 15627 15630 15633 15636 15639 15642 15645 15648 15651 15654 15657 15660 15663 15666 15669 15672 15675 15678 15681 15684 15687 15690 15693 15696 15699 15702 15705 15708 15711 15714 15717 15720 15723 15726 15729 15732 15735 15738 15741 15744 15747 15750 15753 15756 15759 15762 15765 15768 15771 15774 15777 15780 15783 15786 15789 15792 15795 15798 15801 15804 15807 15810 15813 15816 15819 15822 15825 15828 15831 15834 15837 15840 15843 15846 15849 15852 15855 15858 15861 15864 15867 15870 15873 15876 15879 15882 15885 15888 15891 15894 15897 15900 15903 15906 15909 15912 15915 15918 15921 15924 15927 15930 15933 15936 15939 15942 15945 15948 15951 15954 15957 15960 15963 15966 15969 15972 15975 15978 15981 15984 15987 15990 15993 15996 15999 16002 16005 16008 16011 16014 16017 16020 16023 16026 16029 16032 16035 16038 16041 16044 16047 16050 16053 16056 16059 16062 16065 16068 16071 16074 16077 16080 16083 16086 16089 16092 16095 16098 16101 16104 16107 16110 16113 16116 16119 16122 16125 16128 16131 16134 16137 16140 16143 16146 16149 16152 16155 16158 16161 16164 16167 16170 16173 16176 16179 16182 16185 16188 16191 16194 16197 16200 16203 16206 16209 16212 16215 16218 16221 16224 16227 16230 16233 16236 16239 16242 16245 16248 16251 16254 16257 16260 16263 16266 16269 16272 16275 16278 16281 16284 16287 16290 16293 16296 16299 16302 16305 16308 16311 16314 16317 16320 16323 16326 16329 16332 16335 16338 16341 16344 16347 16350 16353 16356 16359 16362 16365 16368 16371 16374 16377 16380 16383 16386 16389 16392 16395 16398 16401 16404 16407 16410 16413 16416 16419 16422 16425 16428 16431 16434 16437 16440 16443 16446 16449 16452 16455 16458 16461 16464 16467 16470 16473 16476 16479 16482 16485 16488 16491 16494 16497 16500 16503 16506 16509 16512 16515 16518 16521 16524 16527 16530 16533 16536 16539 16542 16545 16548 16551 16554 16557 16560 16563 16566 16569 16572 16575 16578 16581 16584 16587 16590 16593 16596 16599 16602 16605 16608 16611 16614 16617 16620 16623 16626 16629 16632 16635 16638 16641 16644 16647 16650 16653 16656 16659 16662 16665 16668 16671 16674 16677 16680 16683 16686 16689 16692 16695 16698 16701 16704 16707 16710 16713 16716 16719 16722 16725 16728 16731 16734 16737 16740 16743 16746 16749 16752 16755 16758 16761 16764 16767 16770 16773 16776 16779 16782 16785 16788 16791 16794 16797 16800 16803 16806 16809 16812 16815 16818 16821 16824 16827 16830 16833 16836 16839 16842 16845 16848 16851 16854 16857 16860 16863 16866 16869 16872 16875 16878 16881 16884 16887 16890 16893 16896 16899 16902 16905 16908 16911 16914 16917 16920 16923 16926 16929 16932 16935 16938 16941 16944 16947 16950 16953 16956 16959 16962 16965 16968 16971 16974 16977 16980 16983 16986 16989 16992 16995 16998 17001 17004 17007 17010 17013 17016 17019 17022 17025 17028 17031 17034 17037 17040 17043 17046 17049 17052 17055 17058 17061 17064 17067 17070 17073 17076 17079 17082 17085 17088 17091 17094 17097 17100 17103 17106 17109 17112 17115 17118 17121 17124 17127 17130 17133 17136 17139 17142 17145 17148 17151 17154 17157 17160 17163 17166 17169 17172 17175 17178 17181 17184 17187 17190 17193 17196 17199 17202 17205 17208 17211 17214 17217 17220 17223 17226 17229 17232 17235 17238 17241 17244 17247 17250 17253 17256 17259 17262 17265 17268 17271 17274 17277 17280 17283 17286 17289 17292 17295 17298 17301 17304 17307 17310 17313 17316 17319 17322 17325 17328 17331 17334 17337 17340 17343 17346 17349 17352 17355 17358 17361 17364 17367 17370 17373 17376 17379 17382 17385 17388 17391 17394 17397 17400 17403 17406 17409 17412 17415 17418 17421 17424 17427 17430 17433 17436 17439 17442 17445 17448 17451 17454 17457 17460 17463 17466 17469 17472 17475 17478 17481 17484 17487 17490 17493 17496 17499 17502 17505 17508 17511 17514 17517 17520 17523 17526 17529 17532 17535 17538 17541 17544 17547 17550 17553 17556 17559 17562 17565 17568 17571 17574 17577 17580 17583 17586 17589 17592 17595 17598 17601 17604 17607 17610 17613 17616 17619 17622 17625 17628 17631 17634 17637 17640 17643 17646 17649 17652 17655 17658 17661 17664 17667 17670 17673 17676 17679 17682 17685 17688 17691 17694 17697 17700 17703 17706 17709 17712 17715 17718 17721 17724 17727 17730 17733 17736 17739 17742 17745 17748 17751 17754 17757 17760 17763 17766 17769 17772 17775 17778 17781 17784 17787 17790 17793 17796 17799 17802 17805 17808 17811 17814 17817 17820 17823 17826 17829 17832 17835 17838 17841 17844 17847 17850 17853 17856 17859 17862 17865 17868 17871 17874 17877 17880 17883 17886 17889 17892 17895 17898 17901 17904 17907 17910 17913 17916 17919 17922 17925 17928 17931 17934 17937 17940 17943 17946 17949 17952 17955 17958 17961 17964 17967 17970 17973 17976 17979 17982 17985 17988 17991 17994 17997 18000 18003 18006 18009 18012 18015 18018 18021 18024 18027 18030 18033 18036 18039 18042 18045 18048 18051 18054 18057 18060 18063 18066 18069 18072 18075 18078 18081 18084 18087 18090 18093 18096 18099 18102 18105 18108 18111 18114 18117 18120 18123 18126 18129 18132 18135 18138 18141 18144 18147 18150 18153 18156 18159 18162 18165 18168 18171 18174 18177 18180 18183 18186 18189 18192 18195 18198 18201 18204 18207 18210 18213 18216 18219 18222 18225 18228 18231 18234 18237 18240 18243 18246 18249 18252 18255 18258 18261 18264 18267 18270 18273 18276 18279 18282 18285 18288 18291 18294 18297 18300 18303 18306 18309 18312 18315 18318 18321 18324 18327 18330 18333 18336 18339 18342 18345 18348 18351 18354 18357 18360 18363 18366 18369 18372 18375 18378 18381 18384 18387 18390 18393 18396 18399 18402 18405 18408 18411 18414 18417 18420 18423 18426 18429 18432 18435 18438 18441 18444 18447 18450 18453 18456 18459 18462 18465 18468 18471 18474 18477 18480 18483 18486 18489 18492 18495 18498 18501 18504 18507 18510 18513 18516 18519 18522 18525 18528 18531 18534 18537 18540 18543 18546 18549 18552 18555 18558 18561 18564 18567 18570 18573 18576 18579 18582 18585 18588 18591 18594 18597 18600 18603 18606 18609 18612 18615 18618 18621 18624 18627 18630 18633 18636 18639 18642 18645 18648 18651 18654 18657 18660 18663 18666 18669 18672 18675 18678 18681 18684 18687 18690 18693 18696 18699 18702 18705 18708 18711 18714 18717 18720 18723 18726 18729 18732 18735 18738 18741 18744 18747 18750 18753 18756 18759 18762 18765 18768 18771 18774 18777 18780 18783 18786 18789 18792 18795 18798 18801 18804 18807 18810 18813 18816 18819 18822 18825 18828 18831 18834 18837 18840 18843 18846 18849 18852 18855 18858 18861 18864 18867 18870 18873 18876 18879 18882 18885 18888 18891 18894 18897 18900 18903 18906 18909 18912 18915 18918 18921 18924 18927 18930 18933 18936 18939 18942 18945 18948 18951 18954 18957 18960 18963 18966 18969 18972 18975 18978 18981 18984 18987 18990 18993 18996 18999 19002 19005 19008 19011 19014 19017 19020 19023 19026 19029 19032 19035 19038 19041 19044 19047 19050 19053 19056 19059 19062 19065 19068 19071 19074 19077 19080 19083 19086 19089 19092 19095 19098 19101 19104 19107 19110 19113 19116 19119 19122 19125 19128 19131 19134 19137 19140 19143 19146 19149 19152 19155 19158 19161 19164 19167 19170 19173 19176 19179 19182 19185 19188 19191 19194 19197 19200 19203 19206 19209 19212 19215 19218 19221 19224 19227 19230 19233 19236 19239 19242 19245 19248 19251 19254 19257 19260 19263 19266 19269 19272 19275 19278 19281 19284 19287 19290 19293 19296 19299 19302 19305 19308 19311 19314 19317 19320 19323 19326 19329 19332 19335 19338 19341 19344 19347 19350 19353 19356 19359 19362 19365 19368 19371 19374 19377 19380 19383 19386 19389 19392 19395 19398 19401 19404 19407 19410 19413 19416 19419 19422 19425 19428 19431 19434 19437 19440 19443 19446 19449 19452 19455 19458 19461 19464 19467 19470 19473 19476 19479 19482 19485 19488 19491 19494 19497 19500 19503 19506 19509 19512 19515 19518 19521 19524 19527 19530 19533 19536 19539 19542 19545 19548 19551 19554 19557 19560 19563 19566 19569 19572 19575 19578 19581 19584 19587 19590 19593 19596 19599 19602 19605 19608 19611 19614 19617 19620 19623 19626 19629 19632 19635 19638 19641 19644 19647 19650 19653 19656 19659 19662 19665 19668 19671 19674 19677 19680 19683 19686 19689 19692 19695 19698 19701 19704 19707 19710 19713 19716 19719 19722 19725 19728 19731 19734 19737 19740 19743 19746 19749 19752 19755 19758 19761 19764 19767 19770 19773 19776 19779 19782 19785 19788 19791 19794 19797 19800 19803 19806 19809 19812 19815 19818 19821 19824 19827 19830 19833 19836 19839 19842 19845 19848 19851 19854 19857 19860 19863 19866 19869 19872 19875 19878 19881 19884 19887 19890 19893 19896 19899 19902 19905 19908 19911 19914 19917 19920 19923 19926 19929 19932 19935 19938 19941 19944 19947 19950 19953 19956 19959 19962 19965 19968 19971 19974 19977 19980 19983 19986 19989 19992 19995 19998 20001 20004 20007 20010 20013 20016 20019 20022 20025 20028 20031 20034 20037 20040 20043 20046 20049 20052 20055 20058 20061 20064 20067 20070 20073 20076 20079 20082 20085 20088 20091 20094 20097 20100 20103 20106 20109 20112 20115 20118 20121 20124 20127 20130 20133 20136 20139 20142 20145 20148 20151 20154 20157 20160 20163 20166 20169 20172 20175 20178 20181 20184 20187 20190 20193 20196 20199 20202 20205 20208 20211 20214 20217 20220 20223 20226 20229 20232 20235 20238 20241 20244 20247 20250 20253 20256 20259 20262 20265 20268 20271 20274 20277 20280 20283 20286 20289 20292 20295 20298 20301 20304 20307 20310 20313 20316 20319 20322 20325 20328 20331 20334 20337 20340 20343 20346 20349 20352 20355 20358 20361 20364 20367 20370 20373 20376 20379 20382 20385 20388 20391 20394 20397 20400 20403 20406 20409 20412 20415 20418 20421 20424 20427 20430 20433 20436 20439 20442 20445 20448 20451 20454 20457 20460 20463 20466 20469 20472 20475 20478 20481 20484 20487 20490 20493 20496 20499 20502 20505 20508 20511 20514 20517 20520 20523 20526 20529 20532 20535 20538 20541 20544 20547 20550 20553 20556 20559 20562 20565 20568 20571 20574 20577 20580 20583 20586 20589 20592 20595 20598 20601 20604 20607 20610 20613 20616 20619 20622 20625 20628 20631 20634 20637 20640 20643 20646 20649 20652 20655 20658 20661 20664 20667 20670 20673 20676 20679 20682 20685 20688 20691 20694 20697 20700 20703 20706 20709 20712 20715 20718 20721 20724 20727 20730 20733 20736 20739 20742 20745 20748 20751 20754 20757 20760 20763 20766 20769 20772 20775 20778 20781 20784 20787 20790 20793 20796 20799 20802 20805 20808 20811 20814 20817 20820 20823 20826 20829 20832 20835 20838 20841 20844 20847 20850 20853 20856 20859 20862 20865 20868 20871 20874 20877 20880 20883 20886 20889 20892 20895 20898 20901 20904 20907 20910 20913 20916 20919 20922 20925 20928 20931 20934 20937 20940 20943 20946 20949 20952 20955 20958 20961 20964 20967 20970 20973 20976 20979 20982 20985 20988 20991 20994 20997 21000 21003 21006 21009 21012 21015 21018 21021 21024 21027 21030 21033 21036 21039 21042 21045 21048 21051 21054 21057 21060 21063 21066 21069 21072 21075 21078 21081 21084 21087 21090 21093 21096 21099 21102 21105 21108 21111 21114 21117 21120 21123 21126 21129 21132 21135 21138 21141 21144 21147 21150 21153 21156 21159 21162 21165 21168 21171 21174 21177 21180 21183 21186 21189 21192 21195 21198 21201 21204 21207 21210 21213 21216 21219 21222 21225 21228 21231 21234 21237 21240 21243 21246 21249 21252 21255 21258 21261 21264 21267 21270 21273 21276 21279 21282 21285 21288 21291 21294 21297 21300 21303 21306 21309 21312 21315 21318 21321 21324 21327 21330 21333 21336 21339 21342 21345 21348 21351 21354 21357 21360 21363 21366 21369 21372 21375 21378 21381 21384 21387 21390 21393 21396 21399 21402 21405 21408 21411 21414 21417 21420 21423 21426 21429 21432 21435 21438 21441 21444 21447 21450 21453 21456 21459 21462 21465 21468 21471 21474 21477 21480 21483 21486 21489 21492 21495 21498 21501 21504 21507 21510 21513 21516 21519 21522 21525 21528 21531 21534 21537 21540 21543 21546 21549 21552 21555 21558 21561 21564 21567 21570 21573 21576 21579 21582 21585 21588 21591 21594 21597 21600 21603 21606 21609 21612 21615 21618 21621 21624 21627 21630 21633 21636 21639 21642 21645 21648 21651 21654 21657 21660 21663 21666 21669 21672 21675 21678 21681 21684 21687 21690 21693 21696 21699 21702 21705 21708 21711 21714 21717 21720 21723 21726 21729 21732 21735 21738 21741 21744 21747 21750 21753 21756 21759 21762 21765 21768 21771 21774 21777 21780 21783 21786 21789 21792 21795 21798 21801 21804 21807 21810 21813 21816 21819 21822 21825 21828 21831 21834 21837 21840 21843 21846 21849 21852 21855 21858 21861 21864 21867 21870 21873 21876 21879 21882 21885 21888 21891 21894 21897 21900 21903 21906 21909 21912 21915 21918 21921 21924 21927 21930 21933 21936 21939 21942 21945 21948 21951 21954 21957 21960 21963 21966 21969 21972 21975 21978 21981 21984 21987 21990 21993 21996 21999 22002 22005 22008 22011 22014 22017 22020 22023 22026 22029 22032 22035 22038 22041 22044 22047 22050 22053 22056 22059 22062 22065 22068 22071 22074 22077 22080 22083 22086 22089 22092 22095 22098 22101 22104 22107 22110 22113 22116 22119 22122 22125 22128 22131 22134 22137 22140 22143 22146 22149 22152 22155 22158 22161 22164 22167 22170 22173 22176 22179 22182 22185 22188 22191 22194 22197 22200 22203 22206 22209 22212 22215 22218 22221 22224 22227 22230 22233 22236 22239 22242 22245 22248 22251 22254 22257 22260 22263 22266 22269 22272 22275 22278 22281 22284 22287 22290 22293 22296 22299 22302 22305 22308 22311 22314 22317 22320 22323 22326 22329 22332 22335 22338 22341 22344 22347 22350 22353 22356 22359 22362 22365 22368 22371 22374 22377 22380 22383 22386 22389 22392 22395 22398 22401 22404 22407 22410 22413 22416 22419 22422 22425 22428 22431 22434 22437 22440 22443 22446 22449 22452 22455 22458 22461 22464 22467 22470 22473 22476 22479 22482 22485 22488 22491 22494 22497 22500 22503 22506 22509 22512 22515 22518 22521 22524 22527 22530 22533 22536 22539 22542 22545 22548 22551 22554 22557 22560 22563 22566 22569 22572 22575 22578 22581 22584 22587 22590 22593 22596 22599 22602 22605 22608 22611 22614 22617 22620 22623 22626 22629 22632 22635 22638 22641 22644 22647 22650 22653 22656 22659 22662 22665 22668 22671 22674 22677 22680 22683 22686 22689 22692 22695 22698 22701 22704 22707 22710 22713 22716 22719 22722 22725 22728 22731 22734 22737 22740 22743 22746 22749 22752 22755 22758 22761 22764 22767 22770 22773 22776 22779 22782 22785 22788 22791 22794 22797 22800 22803 22806 22809 22812 22815 22818 22821 22824 22827 22830 22833 22836 22839 22842 22845 22848 22851 22854 22857 22860 22863 22866 22869 22872 22875 22878 22881 22884 22887 22890 22893 22896 22899 22902 22905 22908 22911 22914 22917 22920 22923 22926 22929 22932 22935 22938 22941 22944 22947 22950 22953 22956 22959 22962 22965 22968 22971 22974 22977 22980 22983 22986 22989 22992 22995 22998 23001 23004 23007 23010 23013 23016 23019 23022 23025 23028 23031 23034 23037 23040 23043 23046 23049 23052 23055 23058 23061 23064 23067 23070 23073 23076 23079 23082 23085 23088 23091 23094 23097 23100 23103 23106 23109 23112 23115 23118 23121 23124 23127 23130 23133 23136 23139 23142 23145 23148 23151 23154 23157 23160 23163 23166 23169 23172 23175 23178 23181 23184 23187 23190 23193 23196 23199 23202 23205 23208 23211 23214 23217 23220 23223 23226 23229 23232 23235 23238 23241 23244 23247 23250 23253 23256 23259 23262 23265 23268 23271 23274 23277 23280 23283 23286 23289 23292 23295 23298 23301 23304 23307 23310 23313 23316 23319 23322 23325 23328 23331 23334 23337 23340 23343 23346 23349 23352 23355 23358 23361 23364 23367 23370 23373 23376 23379 23382 23385 23388 23391 23394 23397 23400 23403 23406 23409 23412 23415 23418 23421 23424 23427 23430 23433 23436 23439 23442 23445 23448 23451 23454 23457 23460 23463 23466 23469 23472 23475 23478 23481 23484 23487 23490 23493 23496 23499 23502 23505 23508 23511 23514 23517 23520 23523 23526 23529 23532 23535 23538 23541 23544 23547 23550 23553 23556 23559 23562 23565 23568 23571 23574 23577 23580 23583 23586 23589 23592 23595 23598 23601 23604 23607 23610 23613 23616 23619 23622 23625 23628 23631 23634 23637 23640 23643 23646 23649 23652 23655 23658 23661 23664 23667 23670 23673 23676 23679 23682 23685 23688 23691 23694 23697 23700 23703 23706 23709 23712 23715 23718 23721 23724 23727 23730 23733 23736 23739 23742 23745 23748 23751 23754 23757 23760 23763 23766 23769 23772 23775 23778 23781 23784 23787 23790 23793 23796 23799 23802 23805 23808 23811 23814 23817 23820 23823 23826 23829 23832 23835 23838 23841 23844 23847 23850 23853 23856 23859 23862 23865 23868 23871 23874 23877 23880 23883 23886 23889 23892 23895 23898 23901 23904 23907 23910 23913 23916 23919 23922 23925 23928 23931 23934 23937 23940 23943 23946 23949 23952 23955 23958 23961 23964 23967 23970 23973 23976 23979 23982 23985 23988 23991 23994 23997 24000 24003 24006 24009 24012 24015 24018 24021 24024 24027 24030 24033 24036 24039 24042 24045 24048 24051 24054 24057 24060 24063 24066 24069 24072 24075 24078 24081 24084 24087 24090 24093 24096 24099 24102 24105 24108 24111 24114 24117 24120 24123 24126 24129 24132 24135 24138 24141 24144 24147 24150 24153 24156 24159 24162 24165 24168 24171 24174 24177 24180 24183 24186 24189 24192 24195 24198 24201 24204 24207 24210 24213 24216 24219 24222 24225 24228 24231 24234 24237 24240 24243 24246 24249 24252 24255 24258 24261 24264 24267 24270 24273 24276 24279 24282 24285 24288 24291 24294 24297 24300 24303 24306 24309 24312 24315 24318 24321 24324 24327 24330 24333 24336 24339 24342 24345 24348 24351 24354 24357 24360 24363 24366 24369 24372 24375 24378 24381 24384 24387 24390 24393 24396 24399 24402 24405 24408 24411 24414 24417 24420 24423 24426 24429 24432 24435 24438 24441 24444 24447 24450 24453 24456 24459 24462 24465 24468 24471 24474 24477 24480 24483 24486 24489 24492 24495 24498 24501 24504 24507 24510 24513 24516 24519 24522 24525 24528 24531 24534 24537 24540 24543 24546 24549 24552 24555 24558 24561 24564 24567 24570 24573 24576 24579 24582 24585 24588 24591 24594 24597 24600 24603 24606 24609 24612 24615 24618 24621 24624 24627 24630 24633 24636 24639 24642 24645 24648 24651 24654 24657 24660 24663 24666 24669 24672 24675 24678 24681 24684 24687 24690 24693 24696 24699 24702 24705 24708 24711 24714 24717 24720 24723 24726 24729 24732 24735 24738 24741 24744 24747 24750 24753 24756 24759 24762 24765 24768 24771 24774 24777 24780 24783 24786 24789 24792 24795 24798 24801 24804 24807 24810 24813 24816 24819 24822 24825 24828 24831 24834 24837 24840 24843 24846 24849 24852 24855 24858 24861 24864 24867 24870 24873 24876 24879 24882 24885 24888 24891 24894 24897 24900 24903 24906 24909 24912 24915 24918 24921 24924 24927 24930 24933 24936 24939 24942 24945 24948 24951 24954 24957 24960 24963 24966 24969 24972 24975 24978 24981 24984 24987 24990 24993 24996 24999 25002 25005 25008 25011 25014 25017 25020 25023 25026 25029 25032 25035 25038 25041 25044 25047 25050 25053 25056 25059 25062 25065 25068 25071 25074 25077 25080 25083 25086 25089 25092 25095 25098 25101 25104 25107 25110 25113 25116 25119 25122 25125 25128 25131 25134 25137 25140 25143 25146 25149 25152 25155 25158 25161 25164 25167 25170 25173 25176 25179 25182 25185 25188 25191 25194 25197 25200 25203 25206 25209 25212 25215 25218 25221 25224 25227 25230 25233 25236 25239 25242 25245 25248 25251 25254 25257 25260 25263 25266 25269 25272 25275 25278 25281 25284 25287 25290 25293 25296 25299 25302 25305 25308 25311 25314 25317 25320 25323 25326 25329 25332 25335 25338 25341 25344 25347 25350 25353 25356 25359 25362 25365 25368 25371 25374 25377 25380 25383 25386 25389 25392 25395 25398 25401 25404 25407 25410 25413 25416 25419 25422 25425 25428 25431 25434 25437 25440 25443 25446 25449 25452 25455 25458 25461 25464 25467 25470 25473 25476 25479 25482 25485 25488 25491 25494 25497 25500 25503 25506 25509 25512 25515 25518 25521 25524 25527 25530 25533 25536 25539 25542 25545 25548 25551 25554 25557 25560 25563 25566 25569 25572 25575 25578 25581 25584 25587 25590 25593 25596 25599 25602 25605 25608 25611 25614 25617 25620 25623 25626 25629 25632 25635 25638 25641 25644 25647 25650 25653 25656 25659 25662 25665 25668 25671 25674 25677 25680 25683 25686 25689 25692 25695 25698 25701 25704 25707 25710 25713 25716 25719 25722 25725 25728 25731 25734 25737 25740 25743 25746 25749 25752 25755 25758 25761 25764 25767 25770 25773 25776 25779 25782 25785 25788 25791 25794 25797 25800 25803 25806 25809 25812 25815 25818 25821 25824 25827 25830 25833 25836 25839 25842 25845 25848 25851 25854 25857 25860 25863 25866 25869 25872 25875 25878 25881 25884 25887 25890 25893 25896 25899 25902 25905 25908 25911 25914 25917 25920 25923 25926 25929 25932 25935 25938 25941 25944 25947 25950 25953 25956 25959 25962 25965 25968 25971 25974 25977 25980 25983 25986 25989 25992 25995 25998 26001 26004 26007 26010 26013 26016 26019 26022 26025 26028 26031 26034 26037 26040 26043 26046 26049 26052 26055 26058 26061 26064 26067 26070 26073 26076 26079 26082 26085 26088 26091 26094 26097 26100 26103 26106 26109 26112 26115 26118 26121 26124 26127 26130 26133 26136 26139 26142 26145 26148 26151 26154 26157 26160 26163 26166 26169 26172 26175 26178 26181 26184 26187 26190 26193 26196 26199 26202 26205 26208 26211 26214 26217 26220 26223 26226 26229 26232 26235 26238 26241 26244 26247 26250 26253 26256 26259 26262 26265 26268 26271 26274 26277 26280 26283 26286 26289 26292 26295 26298 26301 26304 26307 26310 26313 26316 26319 26322 26325 26328 26331 26334 26337 26340 26343 26346 26349 26352 26355 26358 26361 26364 26367 26370 26373 26376 26379 26382 26385 26388 26391 26394 26397 26400 26403 26406 26409 26412 26415 26418 26421 26424 26427 26430 26433 26436 26439 26442 26445 26448 26451 26454 26457 26460 26463 26466 26469 26472 26475 26478 26481 26484 26487 26490 26493 26496 26499 26502 26505 26508 26511 26514 26517 26520 26523 26526 26529 26532 26535 26538 26541 26544 26547 26550 26553 26556 26559 26562 26565 26568 26571 26574 26577 26580 26583 26586 26589 26592 26595 26598 26601 26604 26607 26610 26613 26616 26619 26622 26625 26628 26631 26634 26637 26640 26643 26646 26649 26652 26655 26658 26661 26664 26667 26670 26673 26676 26679 26682 26685 26688 26691 26694 26697 26700 26703 26706 26709 26712 26715 26718 26721 26724 26727 26730 26733 26736 26739 26742 26745 26748 26751 26754 26757 26760 26763 26766 26769 26772 26775 26778 26781 26784 26787 26790 26793 26796 26799 26802 26805 26808 26811 26814 26817 26820 26823 26826 26829 26832 26835 26838 26841 26844 26847 26850 26853 26856 26859 26862 26865 26868 26871 26874 26877 26880 26883 26886 26889 26892 26895 26898 26901 26904 26907 26910 26913 26916 26919 26922 26925 26928 26931 26934 26937 26940 26943 26946 26949 26952 26955 26958 26961 26964 26967 26970 26973 26976 26979 26982 26985 26988 26991 26994 26997 27000 27003 27006 27009 27012 27015 27018 27021 27024 27027 27030 27033 27036 27039 27042 27045 27048 27051 27054 27057 27060 27063 27066 27069 27072 27075 27078 27081 27084 27087 27090 27093 27096 27099 27102 27105 27108 27111 27114 27117 27120 27123 27126 27129 27132 27135 27138 27141 27144 27147 27150 27153 27156 27159 27162 27165 27168 27171 27174 27177 27180 27183 27186 27189 27192 27195 27198 27201 27204 27207 27210 27213 27216 27219 27222 27225 27228 27231 27234 27237 27240 27243 27246 27249 27252 27255 27258 27261 27264 27267 27270 27273 27276 27279 27282 27285 27288 27291 27294 27297 27300 27303 27306 27309 27312 27315 27318 27321 27324 27327 27330 27333 27336 27339 27342 27345 27348 27351 27354 27357 27360 27363 27366 27369 27372 27375 27378 27381 27384 27387 27390 27393 27396 27399 27402 27405 27408 27411 27414 27417 27420 27423 27426 27429 27432 27435 27438 27441 27444 27447 27450 27453 27456 27459 27462 27465 27468 27471 27474 27477 27480 27483 27486 27489 27492 27495 27498 27501 27504 27507 27510 27513 27516 27519 27522 27525 27528 27531 27534 27537 27540 27543 27546 27549 27552 27555 27558 27561 27564 27567 27570 27573 27576 27579 27582 27585 27588 27591 27594 27597 27600 27603 27606 27609 27612 27615 27618 27621 27624 27627 27630 27633 27636 27639 27642 27645 27648 27651 27654 27657 27660 27663 27666 27669 27672 27675 27678 27681 27684 27687 27690 27693 27696 27699 27702 27705 27708 27711 27714 27717 27720 27723 27726 27729 27732 27735 27738 27741 27744 27747 27750 27753 27756 27759 27762 27765 27768 27771 27774 27777 27780 27783 27786 27789 27792 27795 27798 27801 27804 27807 27810 27813 27816 27819 27822 27825 27828 27831 27834 27837 27840 27843 27846 27849 27852 27855 27858 27861 27864 27867 27870 27873 27876 27879 27882 27885 27888 27891 27894 27897 27900 27903 27906 27909 27912 27915 27918 27921 27924 27927 27930 27933 27936 27939 27942 27945 27948 27951 27954 27957 27960 27963 27966 27969 27972 27975 27978 27981 27984 27987 27990 27993 27996 27999 28002 28005 28008 28011 28014 28017 28020 28023 28026 28029 28032 28035 28038 28041 28044 28047 28050 28053 28056 28059 28062 28065 28068 28071 28074 28077 28080 28083 28086 28089 28092 28095 28098 28101 28104 28107 28110 28113 28116 28119 28122 28125 28128 28131 28134 28137 28140 28143 28146 28149 28152 28155 28158 28161 28164 28167 28170 28173 28176 28179 28182 28185 28188 28191 28194 28197 28200 28203 28206 28209 28212 28215 28218 28221 28224 28227 28230 28233 28236 28239 28242 28245 28248 28251 28254 28257 28260 28263 28266 28269 28272 28275 28278 28281 28284 28287 28290 28293 28296 28299 28302 28305 28308 28311 28314 28317 28320 28323 28326 28329 28332 28335 28338 28341 28344 28347 28350 28353 28356 28359 28362 28365 28368 28371 28374 28377 28380 28383 28386 28389 28392 28395 28398 28401 28404 28407 28410 28413 28416 28419 28422 28425 28428 28431 28434 28437 28440 28443 28446 28449 28452 28455 28458 28461 28464 28467 28470 28473 28476 28479 28482 28485 28488 28491 28494 28497 28500 28503 28506 28509 28512 28515 28518 28521 28524 28527 28530 28533 28536 28539 28542 28545 28548 28551 28554 28557 28560 28563 28566 28569 28572 28575 28578 28581 28584 28587 28590 28593 28596 28599 28602 28605 28608 28611 28614 28617 28620 28623 28626 28629 28632 28635 28638 28641 28644 28647 28650 28653 28656 28659 28662 28665 28668 28671 28674 28677 28680 28683 28686 28689 28692 28695 28698 28701 28704 28707 28710 28713 28716 28719 28722 28725 28728 28731 28734 28737 28740 28743 28746 28749 28752 28755 28758 28761 28764 28767 28770 28773 28776 28779 28782 28785 28788 28791 28794 28797 28800 28803 28806 28809 28812 28815 28818 28821 28824 28827 28830 28833 28836 28839 28842 28845 28848 28851 28854 28857 28860 28863 28866 28869 28872 28875 28878 28881 28884 28887 28890 28893 28896 28899 28902 28905 28908 28911 28914 28917 28920 28923 28926 28929 28932 28935 28938 28941 28944 28947 28950 28953 28956 28959 28962 28965 28968 28971 28974 28977 28980 28983 28986 28989 28992 28995 28998 29001 29004 29007 29010 29013 29016 29019 29022 29025 29028 29031 29034 29037 29040 29043 29046 29049 29052 29055 29058 29061 29064 29067 29070 29073 29076 29079 29082 29085 29088 29091 29094 29097 29100 29103 29106 29109 29112 29115 29118 29121 29124 29127 29130 29133 29136 29139 29142 29145 29148 29151 29154 29157 29160 29163 29166 29169 29172 29175 29178 29181 29184 29187 29190 29193 29196 29199 29202 29205 29208 29211 29214 29217 29220 29223 29226 29229 29232 29235 29238 29241 29244 29247 29250 29253 29256 29259 29262 29265 29268 29271 29274 29277 29280 29283 29286 29289 29292 29295 29298 29301 29304 29307 29310 29313 29316 29319 29322 29325 29328 29331 29334 29337 29340 29343 29346 29349 29352 29355 29358 29361 29364 29367 29370 29373 29376 29379 29382 29385 29388 29391 29394 29397 29400 29403 29406 29409 29412 29415 29418 29421 29424 29427 29430 29433 29436 29439 29442 29445 29448 29451 29454 29457 29460 29463 29466 29469 29472 29475 29478 29481 29484 29487 29490 29493 29496 29499 29502 29505 29508 29511 29514 29517 29520 29523 29526 29529 29532 29535 29538 29541 29544 29547 29550 29553 29556 29559 29562 29565 29568 29571 29574 29577 29580 29583 29586 29589 29592 29595 29598 29601 29604 29607 29610 29613 29616 29619 29622 29625 29628 29631 29634 29637 29640 29643 29646 29649 29652 29655 29658 29661 29664 29667 29670 29673 29676 29679 29682 29685 29688 29691 29694 29697 29700 29703 29706 29709 29712 29715 29718 29721 29724 29727 29730 29733 29736 29739 29742 29745 29748 29751 29754 29757 29760 29763 29766 29769 29772 29775 29778 29781 29784 29787 29790 29793 29796 29799 29802 29805 29808 29811 29814 29817 29820 29823 29826 29829 29832 29835 29838 29841 29844 29847 29850 29853 29856 29859 29862 29865 29868 29871 29874 29877 29880 29883 29886 29889 29892 29895 29898 29901 29904 29907 29910 29913 29916 29919 29922 29925 29928 29931 29934 29937 29940 29943 29946 29949 29952 29955 29958 29961 29964 29967 29970 29973 29976 29979 29982 29985 29988 29991 29994 29997 30000 30003 30006 30009 30012 30015 30018 30021 30024 30027 30030 30033 30036 30039 30042 30045 30048 30051 30054 30057 30060 30063 30066 30069 30072 30075 30078 30081 30084 30087 30090 30093 30096 30099 30102 30105 30108 30111 30114 30117 30120 30123 30126 30129 30132 30135 30138 30141 30144 30147 30150 30153 30156 30159 30162 30165 30168 30171 30174 30177 30180 30183 30186 30189 30192 30195 30198 30201 30204 30207 30210 30213 30216 30219 30222 30225 30228 30231 30234 30237 30240 30243 30246 30249 30252 30255 30258 30261 30264 30267 30270 30273 30276 30279 30282 30285 30288 30291 30294 30297 30300 30303 30306 30309 30312 30315 30318 30321 30324 30327 30330 30333 30336 30339 30342 30345 30348 30351 30354 30357 30360 30363 30366 30369 30372 30375 30378 30381 30384 30387 30390 30393 30396 30399 30402 30405 30408 30411 30414 30417 30420 30423 30426 30429 30432 30435 30438 30441 30444 30447 30450 30453 30456 30459 30462 30465 30468 30471 30474 30477 30480 30483 30486 30489 30492 30495 30498 30501 30504 30507 30510 30513 30516 30519 30522 30525 30528 30531 30534 30537 30540 30543 30546 30549 30552 30555 30558 30561 30564 30567 30570 30573 30576 30579 30582 30585 30588 30591 30594 30597 30600 30603 30606 30609 30612 30615 30618 30621 30624 30627 30630 30633 30636 30639 30642 30645 30648 30651 30654 30657 30660 30663 30666 30669 30672 30675 30678 30681 30684 30687 30690 30693 30696 30699 30702 30705 30708 30711 30714 30717 30720 30723 30726 30729 30732 30735 30738 30741 30744 30747 30750 30753 30756 30759 30762 30765 30768 30771 30774 30777 30780 30783 30786 30789 30792 30795 30798 30801 30804 30807 30810 30813 30816 30819 30822 30825 30828 30831 30834 30837 30840 30843 30846 30849 30852 30855 30858 30861 30864 30867 30870 30873 30876 30879 30882 30885 30888 30891 30894 30897 30900 30903 30906 30909 30912 30915 30918 30921 30924 30927 30930 30933 30936 30939 30942 30945 30948 30951 30954 30957 30960 30963 30966 30969 30972 30975 30978 30981 30984 30987 30990 30993 30996 30999 31002 31005 31008 31011 31014 31017 31020 31023 31026 31029 31032 31035 31038 31041 31044 31047 31050 31053 31056 31059 31062 31065 31068 31071 31074 31077 31080 31083 31086 31089 31092 31095 31098 31101 31104 31107 31110 31113 31116 31119 31122 31125 31128 31131 31134 31137 31140 31143 31146 31149 31152 31155 31158 31161 31164 31167 31170 31173 31176 31179 31182 31185 31188 31191 31194 31197 31200 31203 31206 31209 31212 31215 31218 31221 31224 31227 31230 31233 31236 31239 31242 31245 31248 31251 31254 31257 31260 31263 31266 31269 31272 31275 31278 31281 31284 31287 31290 31293 31296 31299 31302 31305 31308 31311 31314 31317 31320 31323 31326 31329 31332 31335 31338 31341 31344 31347 31350 31353 31356 31359 31362 31365 31368 31371 31374 31377 31380 31383 31386 31389 31392 31395 31398 31401 31404 31407 31410 31413 31416 31419 31422 31425 31428 31431 31434 31437 31440 31443 31446 31449 31452 31455 31458 31461 31464 31467 31470 31473 31476 31479 31482 31485 31488 31491 31494 31497 31500 31503 31506 31509 31512 31515 31518 31521 31524 31527 31530 31533 31536 31539 31542 31545 31548 31551 31554 31557 31560 31563 31566 31569 31572 31575 31578 31581 31584 31587 31590 31593 31596 31599 31602 31605 31608 31611 31614 31617 31620 31623 31626 31629 31632 31635 31638 31641 31644 31647 31650 31653 31656 31659 31662 31665 31668 31671 31674 31677 31680 31683 31686 31689 31692 31695 31698 31701 31704 31707 31710 31713 31716 31719 31722 31725 31728 31731 31734 31737 31740 31743 31746 31749 31752 31755 31758 31761 31764 31767 31770 31773 31776 31779 31782 31785 31788 31791 31794 31797 31800 31803 31806 31809 31812 31815 31818 31821 31824 31827 31830 31833 31836 31839 31842 31845 31848 31851 31854 31857 31860 31863 31866 31869 31872 31875 31878 31881 31884 31887 31890 31893 31896 31899 31902 31905 31908 31911 31914 31917 31920 31923 31926 31929 31932 31935 31938 31941 31944 31947 31950 31953 31956 31959 31962 31965 31968 31971 31974 31977 31980 31983 31986 31989 31992 31995 31998 32001 32004 32007 32010 32013 32016 32019 32022 32025 32028 32031 32034 32037 32040 32043 32046 32049 32052 32055 32058 32061 32064 32067 32070 32073 32076 32079 32082 32085 32088 32091 32094 32097 32100 32103 32106 32109 32112 32115 32118 32121 32124 32127 32130 32133 32136 32139 32142 32145 32148 32151 32154 32157 32160 32163 32166 32169 32172 32175 32178 32181 32184 32187 32190 32193 32196 32199 32202 32205 32208 32211 32214 32217 32220 32223 32226 32229 32232 32235 32238 32241 32244 32247 32250 32253 32256 32259 32262 32265 32268 32271 32274 32277 32280 32283 32286 32289 32292 32295 32298 32301 32304 32307 32310 32313 32316 32319 32322 32325 32328 32331 32334 32337 32340 32343 32346 32349 32352 32355 32358 32361 32364 32367 32370 32373 32376 32379 32382 32385 32388 32391 32394 32397 32400 32403 32406 32409 32412 32415 32418 32421 32424 32427 32430 32433 32436 32439 32442 32445 32448 32451 32454 32457 32460 32463 32466 32469 32472 32475 32478 32481 32484 32487 32490 32493 32496 32499 32502 32505 32508 32511 32514 32517 32520 32523 32526 32529 32532 32535 32538 32541 32544 32547 32550 32553 32556 32559 32562 32565 32568 32571 32574 32577 32580 32583 32586 32589 32592 32595 32598 32601 32604 32607 32610 32613 32616 32619 32622 32625 32628 32631 32634 32637 32640 32643 32646 32649 32652 32655 32658 32661 32664 32667 32670 32673 32676 32679 32682 32685 32688 32691 32694 32697 32700 32703 32706 32709 32712 32715 32718 32721 32724 32727 32730 32733 32736 32739 32742 32745 32748 32751 32754 32757 32760 32763 32766 32769 32772 32775 32778 32781 32784 32787 32790 32793 32796 32799 32802 32805 32808 32811 32814 32817 32820 32823 32826 32829 32832 32835 32838 32841 32844 32847 32850 32853 32856 32859 32862 32865 32868 32871 32874 32877 32880 32883 32886 32889 32892 32895 32898 32901 32904 32907 32910 32913 32916 32919 32922 32925 32928 32931 32934 32937 32940 32943 32946 32949 32952 32955 32958 32961 32964 32967 32970 32973 32976 32979 32982 32985 32988 32991 32994 32997 33000 33003 33006 33009 33012 33015 33018 33021 33024 33027 33030 33033 33036 33039 33042 33045 33048 33051 33054 33057 33060 33063 33066 33069 33072 33075 33078 33081 33084 33087 33090 33093 33096 33099 33102 33105 33108 33111 33114 33117 33120 33123 33126 33129 33132 33135 33138 33141 33144 33147 33150 33153 33156 33159 33162 33165 33168 33171 33174 33177 33180 33183 33186 33189 33192 33195 33198 33201 33204 33207 33210 33213 33216 33219 33222 33225 33228 33231 33234 33237 33240 33243 33246 33249 33252 33255 33258 33261 33264 33267 33270 33273 33276 33279 33282 33285 33288 33291 33294 33297 33300 33303 33306 33309 33312 33315 33318 33321 33324 33327 33330 33333 33336 33339 33342 33345 33348 33351 33354 33357 33360 33363 33366 33369 33372 33375 33378 33381 33384 33387 33390 33393 33396 33399 33402 33405 33408 33411 33414 33417 33420 33423 33426 33429 33432 33435 33438 33441 33444 33447 33450 33453 33456 33459 33462 33465 33468 33471 33474 33477 33480 33483 33486 33489 33492 33495 33498 33501 33504 33507 33510 33513 33516 33519 33522 33525 33528 33531 33534 33537 33540 33543 33546 33549 33552 33555 33558 33561 33564 33567 33570 33573 33576 33579 33582 33585 33588 33591 33594 33597 33600 33603 33606 33609 33612 33615 33618 33621 33624 33627 33630 33633 33636 33639 33642 33645 33648 33651 33654 33657 33660 33663 33666 33669 33672 33675 33678 33681 33684 33687 33690 33693 33696 33699 33702 33705 33708 33711 33714 33717 33720 33723 33726 33729 33732 33735 33738 33741 33744 33747 33750 33753 33756 33759 33762 33765 33768 33771 33774 33777 33780 33783 33786 33789 33792 33795 33798 33801 33804 33807 33810 33813 33816 33819 33822 33825 33828 33831 33834 33837 33840 33843 33846 33849 33852 33855 33858 33861 33864 33867 33870 33873 33876 33879 33882 33885 33888 33891 33894 33897 33900 33903 33906 33909 33912 33915 33918 33921 33924 33927 33930 33933 33936 33939 33942 33945 33948 33951 33954 33957 33960 33963 33966 33969 33972 33975 33978 33981 33984 33987 33990 33993 33996 33999 34002 34005 34008 34011 34014 34017 34020 34023 34026 34029 34032 34035 34038 34041 34044 34047 34050 34053 34056 34059 34062 34065 34068 34071 34074 34077 34080 34083 34086 34089 34092 34095 34098 34101 34104 34107 34110 34113 34116 34119 34122 34125 34128 34131 34134 34137 34140 34143 34146 34149 34152 34155 34158 34161 34164 34167 34170 34173 34176 34179 34182 34185 34188 34191 34194 34197 34200 34203 34206 34209 34212 34215 34218 34221 34224 34227 34230 34233 34236 34239 34242 34245 34248 34251 34254 34257 34260 34263 34266 34269 34272 34275 34278 34281 34284 34287 34290 34293 34296 34299 34302 34305 34308 34311 34314 34317 34320 34323 34326 34329 34332 34335 34338 34341 34344 34347 34350 34353 34356 34359 34362 34365 34368 34371 34374 34377 34380 34383 34386 34389 34392 34395 34398 34401 34404 34407 34410 34413 34416 34419 34422 34425 34428 34431 34434 34437 34440 34443 34446 34449 34452 34455 34458 34461 34464 34467 34470 34473 34476 34479 34482 34485 34488 34491 34494 34497 34500 34503 34506 34509 34512 34515 34518 34521 34524 34527 34530 34533 34536 34539 34542 34545 34548 34551 34554 34557 34560 34563 34566 34569 34572 34575 34578 34581 34584 34587 34590 34593 34596 34599 34602 34605 34608 34611 34614 34617 34620 34623 34626 34629 34632 34635 34638 34641 34644 34647 34650 34653 34656 34659 34662 34665 34668 34671 34674 34677 34680 34683 34686 34689 34692 34695 34698 34701 34704 34707 34710 34713 34716 34719 34722 34725 34728 34731 34734 34737 34740 34743 34746 34749 34752 34755 34758 34761 34764 34767 34770 34773 34776 34779 34782 34785 34788 34791 34794 34797 34800 34803 34806 34809 34812 34815 34818 34821 34824 34827 34830 34833 34836 34839 34842 34845 34848 34851 34854 34857 34860 34863 34866 34869 34872 34875 34878 34881 34884 34887 34890 34893 34896 34899 34902 34905 34908 34911 34914 34917 34920 34923 34926 34929 34932 34935 34938 34941 34944 34947 34950 34953 34956 34959 34962 34965 34968 34971 34974 34977 34980 34983 34986 34989 34992 34995 34998 35001 35004 35007 35010 35013 35016 35019 35022 35025 35028 35031 35034 35037 35040 35043 35046 35049 35052 35055 35058 35061 35064 35067 35070 35073 35076 35079 35082 35085 35088 35091 35094 35097 35100 35103 35106 35109 35112 35115 35118 35121 35124 35127 35130 35133 35136 35139 35142 35145 35148 35151 35154 35157 35160 35163 35166 35169 35172 35175 35178 35181 35184 35187 35190 35193 35196 35199 35202 35205 35208 35211 35214 35217 35220 35223 35226 35229 35232 35235 35238 35241 35244 35247 35250 35253 35256 35259 35262 35265 35268 35271 35274 35277 35280 35283 35286 35289 35292 35295 35298 35301 35304 35307 35310 35313 35316 35319 35322 35325 35328 35331 35334 35337 35340 35343 35346 35349 35352 35355 35358 35361 35364 35367 35370 35373 35376 35379 35382 35385 35388 35391 35394 35397 35400 35403 35406 35409 35412 35415 35418 35421 35424 35427 35430 35433 35436 35439 35442 35445 35448 35451 35454 35457 35460 35463 35466 35469 35472 35475 35478 35481 35484 35487 35490 35493 35496 35499 35502 35505 35508 35511 35514 35517 35520 35523 35526 35529 35532 35535 35538 35541 35544 35547 35550 35553 35556 35559 35562 35565 35568 35571 35574 35577 35580 35583 35586 35589 35592 35595 35598 35601 35604 35607 35610 35613 35616 35619 35622 35625 35628 35631 35634 35637 35640 35643 35646 35649 35652 35655 35658 35661 35664 35667 35670 35673 35676 35679 35682 35685 35688 35691 35694 35697 35700 35703 35706 35709 35712 35715 35718 35721 35724 35727 35730 35733 35736 35739 35742 35745 35748 35751 35754 35757 35760 35763 35766 35769 35772 35775 35778 35781 35784 35787 35790 35793 35796 35799 35802 35805 35808 35811 35814 35817 35820 35823 35826 35829 35832 35835 35838 35841 35844 35847 35850 35853 35856 35859 35862 35865 35868 35871 35874 35877 35880 35883 35886 35889 35892 35895 35898 35901 35904 35907 35910 35913 35916 35919 35922 35925 35928 35931 35934 35937 35940 35943 35946 35949 35952 35955 35958 35961 35964 35967 35970 35973 35976 35979 35982 35985 35988 35991 35994 35997 36000 36003 36006 36009 36012 36015 36018 36021 36024 36027 36030 36033 36036 36039 36042 36045 36048 36051 36054 36057 36060 36063 36066 36069 36072 36075 36078 36081 36084 36087 36090 36093 36096 36099 36102 36105 36108 36111 36114 36117 36120 36123 36126 36129 36132 36135 36138 36141 36144 36147 36150 36153 36156 36159 36162 36165 36168 36171 36174 36177 36180 36183 36186 36189 36192 36195 36198 36201 36204 36207 36210 36213 36216 36219 36222 36225 36228 36231 36234 36237 36240 36243 36246 36249 36252 36255 36258 36261 36264 36267 36270 36273 36276 36279 36282 36285 36288 36291 36294 36297 36300 36303 36306 36309 36312 36315 36318 36321 36324 36327 36330 36333 36336 36339 36342 36345 36348 36351 36354 36357 36360 36363 36366 36369 36372 36375 36378 36381 36384 36387 36390 36393 36396 36399 36402 36405 36408 36411 36414 36417 36420 36423 36426 36429 36432 36435 36438 36441 36444 36447 36450 36453 36456 36459 36462 36465 36468 36471 36474 36477 36480 36483 36486 36489 36492 36495 36498 36501 36504 36507 36510 36513 36516 36519 36522 36525 36528 36531 36534 36537 36540 36543 36546 36549 36552 36555 36558 36561 36564 36567 36570 36573 36576 36579 36582 36585 36588 36591 36594 36597 36600 36603 36606 36609 36612 36615 36618 36621 36624 36627 36630 36633 36636 36639 36642 36645 36648 36651 36654 36657 36660 36663 36666 36669 36672 36675 36678 36681 36684 36687 36690 36693 36696 36699 36702 36705 36708 36711 36714 36717 36720 36723 36726 36729 36732 36735 36738 36741 36744 36747 36750 36753 36756 36759 36762 36765 36768 36771 36774 36777 36780 36783 36786 36789 36792 36795 36798 36801 36804 36807 36810 36813 36816 36819 36822 36825 36828 36831 36834 36837 36840 36843 36846 36849 36852 36855 36858 36861 36864 36867 36870 36873 36876 36879 36882 36885 36888 36891 36894 36897 36900 36903 36906 36909 36912 36915 36918 36921 36924 36927 36930 36933 36936 36939 36942 36945 36948 36951 36954 36957 36960 36963 36966 36969 36972 36975 36978 36981 36984 36987 36990 36993 36996 36999 37002 37005 37008 37011 37014 37017 37020 37023 37026 37029 37032 37035 37038 37041 37044 37047 37050 37053 37056 37059 37062 37065 37068 37071 37074 37077 37080 37083 37086 37089 37092 37095 37098 37101 37104 37107 37110 37113 37116 37119 37122 37125 37128 37131 37134 37137 37140 37143 37146 37149 37152 37155 37158 37161 37164 37167 37170 37173 37176 37179 37182 37185 37188 37191 37194 37197 37200 37203 37206 37209 37212 37215 37218 37221 37224 37227 37230 37233 37236 37239 37242 37245 37248 37251 37254 37257 37260 37263 37266 37269 37272 37275 37278 37281 37284 37287 37290 37293 37296 37299 37302 37305 37308 37311 37314 37317 37320 37323 37326 37329 37332 37335 37338 37341 37344 37347 37350 37353 37356 37359 37362 37365 37368 37371 37374 37377 37380 37383 37386 37389 37392 37395 37398 37401 37404 37407 37410 37413 37416 37419 37422 37425 37428 37431 37434 37437 37440 37443 37446 37449 37452 37455 37458 37461 37464 37467 37470 37473 37476 37479 37482 37485 37488 37491 37494 37497 37500 37503 37506 37509 37512 37515 37518 37521 37524 37527 37530 37533 37536 37539 37542 37545 37548 37551 37554 37557 37560 37563 37566 37569 37572 37575 37578 37581 37584 37587 37590 37593 37596 37599 37602 37605 37608 37611 37614 37617 37620 37623 37626 37629 37632 37635 37638 37641 37644 37647 37650 37653 37656 37659 37662 37665 37668 37671 37674 37677 37680 37683 37686 37689 37692 37695 37698 37701 37704 37707 37710 37713 37716 37719 37722 37725 37728 37731 37734 37737 37740 37743 37746 37749 37752 37755 37758 37761 37764 37767 37770 37773 37776 37779 37782 37785 37788 37791 37794 37797 37800 37803 37806 37809 37812 37815 37818 37821 37824 37827 37830 37833 37836 37839 37842 37845 37848 37851 37854 37857 37860 37863 37866 37869 37872 37875 37878 37881 37884 37887 37890 37893 37896 37899 37902 37905 37908 37911 37914 37917 37920 37923 37926 37929 37932 37935 37938 37941 37944 37947 37950 37953 37956 37959 37962 37965 37968 37971 37974 37977 37980 37983 37986 37989 37992 37995 37998 38001 38004 38007 38010 38013 38016 38019 38022 38025 38028 38031 38034 38037 38040 38043 38046 38049 38052 38055 38058 38061 38064 38067 38070 38073 38076 38079 38082 38085 38088 38091 38094 38097 38100 38103 38106 38109 38112 38115 38118 38121 38124 38127 38130 38133 38136 38139 38142 38145 38148 38151 38154 38157 38160 38163 38166 38169 38172 38175 38178 38181 38184 38187 38190 38193 38196 38199 38202 38205 38208 38211 38214 38217 38220 38223 38226 38229 38232 38235 38238 38241 38244 38247 38250 38253 38256 38259 38262 38265 38268 38271 38274 38277 38280 38283 38286 38289 38292 38295 38298 38301 38304 38307 38310 38313 38316 38319 38322 38325 38328 38331 38334 38337 38340 38343 38346 38349 38352 38355 38358 38361 38364 38367 38370 38373 38376 38379 38382 38385 38388 38391 38394 38397 38400 38403 38406 38409 38412 38415 38418 38421 38424 38427 38430 38433 38436 38439 38442 38445 38448 38451 38454 38457 38460 38463 38466 38469 38472 38475 38478 38481 38484 38487 38490 38493 38496 38499 38502 38505 38508 38511 38514 38517 38520 38523 38526 38529 38532 38535 38538 38541 38544 38547 38550 38553 38556 38559 38562 38565 38568 38571 38574 38577 38580 38583 38586 38589 38592 38595 38598 38601 38604 38607 38610 38613 38616 38619 38622 38625 38628 38631 38634 38637 38640 38643 38646 38649 38652 38655 38658 38661 38664 38667 38670 38673 38676 38679 38682 38685 38688 38691 38694 38697 38700 38703 38706 38709 38712 38715 38718 38721 38724 38727 38730 38733 38736 38739 38742 38745 38748 38751 38754 38757 38760 38763 38766 38769 38772 38775 38778 38781 38784 38787 38790 38793 38796 38799 38802 38805 38808 38811 38814 38817 38820 38823 38826 38829 38832 38835 38838 38841 38844 38847 38850 38853 38856 38859 38862 38865 38868 38871 38874 38877 38880 38883 38886 38889 38892 38895 38898 38901 38904 38907 38910 38913 38916 38919 38922 38925 38928 38931 38934 38937 38940 38943 38946 38949 38952 38955 38958 38961 38964 38967 38970 38973 38976 38979 38982 38985 38988 38991 38994 38997 39000 39003 39006 39009 39012 39015 39018 39021 39024 39027 39030 39033 39036 39039 39042 39045 39048 39051 39054 39057 39060 39063 39066 39069 39072 39075 39078 39081 39084 39087 39090 39093 39096 39099 39102 39105 39108 39111 39114 39117 39120 39123 39126 39129 39132 39135 39138 39141 39144 39147 39150 39153 39156 39159 39162 39165 39168 39171 39174 39177 39180 39183 39186 39189 39192 39195 39198 39201 39204 39207 39210 39213 39216 39219 39222 39225 39228 39231 39234 39237 39240 39243 39246 39249 39252 39255 39258 39261 39264 39267 39270 39273 39276 39279 39282 39285 39288 39291 39294 39297 39300 39303 39306 39309 39312 39315 39318 39321 39324 39327 39330 39333 39336 39339 39342 39345 39348 39351 39354 39357 39360 39363 39366 39369 39372 39375 39378 39381 39384 39387 39390 39393 39396 39399 39402 39405 39408 39411 39414 39417 39420 39423 39426 39429 39432 39435 39438 39441 39444 39447 39450 39453 39456 39459 39462 39465 39468 39471 39474 39477 39480 39483 39486 39489 39492 39495 39498 39501 39504 39507 39510 39513 39516 39519 39522 39525 39528 39531 39534 39537 39540 39543 39546 39549 39552 39555 39558 39561 39564 39567 39570 39573 39576 39579 39582 39585 39588 39591 39594 39597 39600 39603 39606 39609 39612 39615 39618 39621 39624 39627 39630 39633 39636 39639 39642 39645 39648 39651 39654 39657 39660 39663 39666 39669 39672 39675 39678 39681 39684 39687 39690 39693 39696 39699 39702 39705 39708 39711 39714 39717 39720 39723 39726 39729 39732 39735 39738 39741 39744 39747 39750 39753 39756 39759 39762 39765 39768 39771 39774 39777 39780 39783 39786 39789 39792 39795 39798 39801 39804 39807 39810 39813 39816 39819 39822 39825 39828 39831 39834 39837 39840 39843 39846 39849 39852 39855 39858 39861 39864 39867 39870 39873 39876 39879 39882 39885 39888 39891 39894 39897 39900 39903 39906 39909 39912 39915 39918 39921 39924 39927 39930 39933 39936 39939 39942 39945 39948 39951 39954 39957 39960 39963 39966 39969 39972 39975 39978 39981 39984 39987 39990 39993 39996 39999 40002 40005 40008 40011 40014 40017 40020 40023 40026 40029 40032 40035 40038 40041 40044 40047 40050 40053 40056 40059 40062 40065 40068 40071 40074 40077 40080 40083 40086 40089 40092 40095 40098 40101 40104 40107 40110 40113 40116 40119 40122 40125 40128 40131 40134 40137 40140 40143 40146 40149 40152 40155 40158 40161 40164 40167 40170 40173 40176 40179 40182 40185 40188 40191 40194 40197 40200 40203 40206 40209 40212 40215 40218 40221 40224 40227 40230 40233 40236 40239 40242 40245 40248 40251 40254 40257 40260 40263 40266 40269 40272 40275 40278 40281 40284 40287 40290 40293 40296 40299 40302 40305 40308 40311 40314 40317 40320 40323 40326 40329 40332 40335 40338 40341 40344 40347 40350 40353 40356 40359 40362 40365 40368 40371 40374 40377 40380 40383 40386 40389 40392 40395 40398 40401 40404 40407 40410 40413 40416 40419 40422 40425 40428 40431 40434 40437 40440 40443 40446 40449 40452 40455 40458 40461 40464 40467 40470 40473 40476 40479 40482 40485 40488 40491 40494 40497 40500 40503 40506 40509 40512 40515 40518 40521 40524 40527 40530 40533 40536 40539 40542 40545 40548 40551 40554 40557 40560 40563 40566 40569 40572 40575 40578 40581 40584 40587 40590 40593 40596 40599 40602 40605 40608 40611 40614 40617 40620 40623 40626 40629 40632 40635 40638 40641 40644 40647 40650 40653 40656 40659 40662 40665 40668 40671 40674 40677 40680 40683 40686 40689 40692 40695 40698 40701 40704 40707 40710 40713 40716 40719 40722 40725 40728 40731 40734 40737 40740 40743 40746 40749 40752 40755 40758 40761 40764 40767 40770 40773 40776 40779 40782 40785 40788 40791 40794 40797 40800 40803 40806 40809 40812 40815 40818 40821 40824 40827 40830 40833 40836 40839 40842 40845 40848 40851 40854 40857 40860 40863 40866 40869 40872 40875 40878 40881 40884 40887 40890 40893 40896 40899 40902 40905 40908 40911 40914 40917 40920 40923 40926 40929 40932 40935 40938 40941 40944 40947 40950 40953 40956 40959 40962 40965 40968 40971 40974 40977 40980 40983 40986 40989 40992 40995 40998 41001 41004 41007 41010 41013 41016 41019 41022 41025 41028 41031 41034 41037 41040 41043 41046 41049 41052 41055 41058 41061 41064 41067 41070 41073 41076 41079 41082 41085 41088 41091 41094 41097 41100 41103 41106 41109 41112 41115 41118 41121 41124 41127 41130 41133 41136 41139 41142 41145 41148 41151 41154 41157 41160 41163 41166 41169 41172 41175 41178 41181 41184 41187 41190 41193 41196 41199 41202 41205 41208 41211 41214 41217 41220 41223 41226 41229 41232 41235 41238 41241 41244 41247 41250 41253 41256 41259 41262 41265 41268 41271 41274 41277 41280 41283 41286 41289 41292 41295 41298 41301 41304 41307 41310 41313 41316 41319 41322 41325 41328 41331 41334 41337 41340 41343 41346 41349 41352 41355 41358 41361 41364 41367 41370 41373 41376 41379 41382 41385 41388 41391 41394 41397 41400 41403 41406 41409 41412 41415 41418 41421 41424 41427 41430 41433 41436 41439 41442 41445 41448 41451 41454 41457 41460 41463 41466 41469 41472 41475 41478 41481 41484 41487 41490 41493 41496 41499 41502 41505 41508 41511 41514 41517 41520 41523 41526 41529 41532 41535 41538 41541 41544 41547 41550 41553 41556 41559 41562 41565 41568 41571 41574 41577 41580 41583 41586 41589 41592 41595 41598 41601 41604 41607 41610 41613 41616 41619 41622 41625 41628 41631 41634 41637 41640 41643 41646 41649 41652 41655 41658 41661 41664 41667 41670 41673 41676 41679 41682 41685 41688 41691 41694 41697 41700 41703 41706 41709 41712 41715 41718 41721 41724 41727 41730 41733 41736 41739 41742 41745 41748 41751 41754 41757 41760 41763 41766 41769 41772 41775 41778 41781 41784 41787 41790 41793 41796 41799 41802 41805 41808 41811 41814 41817 41820 41823 41826 41829 41832 41835 41838 41841 41844 41847 41850 41853 41856 41859 41862 41865 41868 41871 41874 41877 41880 41883 41886 41889 41892 41895 41898 41901 41904 41907 41910 41913 41916 41919 41922 41925 41928 41931 41934 41937 41940 41943 41946 41949 41952 41955 41958 41961 41964 41967 41970 41973 41976 41979 41982 41985 41988 41991 41994 41997 42000 42003 42006 42009 42012 42015 42018 42021 42024 42027 42030 42033 42036 42039 42042 42045 42048 42051 42054 42057 42060 42063 42066 42069 42072 42075 42078 42081 42084 42087 42090 42093 42096 42099 42102 42105 42108 42111 42114 42117 42120 42123 42126 42129 42132 42135 42138 42141 42144 42147 42150 42153 42156 42159 42162 42165 42168 42171 42174 42177 42180 42183 42186 42189 42192 42195 42198 42201 42204 42207 42210 42213 42216 42219 42222 42225 42228 42231 42234 42237 42240 42243 42246 42249 42252 42255 42258 42261 42264 42267 42270 42273 42276 42279 42282 42285 42288 42291 42294 42297 42300 42303 42306 42309 42312 42315 42318 42321 42324 42327 42330 42333 42336 42339 42342 42345 42348 42351 42354 42357 42360 42363 42366 42369 42372 42375 42378 42381 42384 42387 42390 42393 42396 42399 42402 42405 42408 42411 42414 42417 42420 42423 42426 42429 42432 42435 42438 42441 42444 42447 42450 42453 42456 42459 42462 42465 42468 42471 42474 42477 42480 42483 42486 42489 42492 42495 42498 42501 42504 42507 42510 42513 42516 42519 42522 42525 42528 42531 42534 42537 42540 42543 42546 42549 42552 42555 42558 42561 42564 42567 42570 42573 42576 42579 42582 42585 42588 42591 42594 42597 42600 42603 42606 42609 42612 42615 42618 42621 42624 42627 42630 42633 42636 42639 42642 42645 42648 42651 42654 42657 42660 42663 42666 42669 42672 42675 42678 42681 42684 42687 42690 42693 42696 42699 42702 42705 42708 42711 42714 42717 42720 42723 42726 42729 42732 42735 42738 42741 42744 42747 42750 42753 42756 42759 42762 42765 42768 42771 42774 42777 42780 42783 42786 42789 42792 42795 42798 42801 42804 42807 42810 42813 42816 42819 42822 42825 42828 42831 42834 42837 42840 42843 42846 42849 42852 42855 42858 42861 42864 42867 42870 42873 42876 42879 42882 42885 42888 42891 42894 42897 42900 42903 42906 42909 42912 42915 42918 42921 42924 42927 42930 42933 42936 42939 42942 42945 42948 42951 42954 42957 42960 42963 42966 42969 42972 42975 42978 42981 42984 42987 42990 42993 42996 42999 43002 43005 43008 43011 43014 43017 43020 43023 43026 43029 43032 43035 43038 43041 43044 43047 43050 43053 43056 43059 43062 43065 43068 43071 43074 43077 43080 43083 43086 43089 43092 43095 43098 43101 43104 43107 43110 43113 43116 43119 43122 43125 43128 43131 43134 43137 43140 43143 43146 43149 43152 43155 43158 43161 43164 43167 43170 43173 43176 43179 43182 43185 43188 43191 43194 43197 43200 43203 43206 43209 43212 43215 43218 43221 43224 43227 43230 43233 43236 43239 43242 43245 43248 43251 43254 43257 43260 43263 43266 43269 43272 43275 43278 43281 43284 43287 43290 43293 43296 43299 43302 43305 43308 43311 43314 43317 43320 43323 43326 43329 43332 43335 43338 43341 43344 43347 43350 43353 43356 43359 43362 43365 43368 43371 43374 43377 43380 43383 43386 43389 43392 43395 43398 43401 43404 43407 43410 43413 43416 43419 43422 43425 43428 43431 43434 43437 43440 43443 43446 43449 43452 43455 43458 43461 43464 43467 43470 43473 43476 43479 43482 43485 43488 43491 43494 43497 43500 43503 43506 43509 43512 43515 43518 43521 43524 43527 43530 43533 43536 43539 43542 43545 43548 43551 43554 43557 43560 43563 43566 43569 43572 43575 43578 43581 43584 43587 43590 43593 43596 43599 43602 43605 43608 43611 43614 43617 43620 43623 43626 43629 43632 43635 43638 43641 43644 43647 43650 43653 43656 43659 43662 43665 43668 43671 43674 43677 43680 43683 43686 43689 43692 43695 43698 43701 43704 43707 43710 43713 43716 43719 43722 43725 43728 43731 43734 43737 43740 43743 43746 43749 43752 43755 43758 43761 43764 43767 43770 43773 43776 43779 43782 43785 43788 43791 43794 43797 43800 43803 43806 43809 43812 43815 43818 43821 43824 43827 43830 43833 43836 43839 43842 43845 43848 43851 43854 43857 43860 43863 43866 43869 43872 43875 43878 43881 43884 43887 43890 43893 43896 43899 43902 43905 43908 43911 43914 43917 43920 43923 43926 43929 43932 43935 43938 43941 43944 43947 43950 43953 43956 43959 43962 43965 43968 43971 43974 43977 43980 43983 43986 43989 43992 43995 43998 44001 44004 44007 44010 44013 44016 44019 44022 44025 44028 44031 44034 44037 44040 44043 44046 44049 44052 44055 44058 44061 44064 44067 44070 44073 44076 44079 44082 44085 44088 44091 44094 44097 44100 44103 44106 44109 44112 44115 44118 44121 44124 44127 44130 44133 44136 44139 44142 44145 44148 44151 44154 44157 44160 44163 44166 44169 44172 44175 44178 44181 44184 44187 44190 44193 44196 44199 44202 44205 44208 44211 44214 44217 44220 44223 44226 44229 44232 44235 44238 44241 44244 44247 44250 44253 44256 44259 44262 44265 44268 44271 44274 44277 44280 44283 44286 44289 44292 44295 44298 44301 44304 44307 44310 44313 44316 44319 44322 44325 44328 44331 44334 44337 44340 44343 44346 44349 44352 44355 44358 44361 44364 44367 44370 44373 44376 44379 44382 44385 44388 44391 44394 44397 44400 44403 44406 44409 44412 44415 44418 44421 44424 44427 44430 44433 44436 44439 44442 44445 44448 44451 44454 44457 44460 44463 44466 44469 44472 44475 44478 44481 44484 44487 44490 44493 44496 44499 44502 44505 44508 44511 44514 44517 44520 44523 44526 44529 44532 44535 44538 44541 44544 44547 44550 44553 44556 44559 44562 44565 44568 44571 44574 44577 44580 44583 44586 44589 44592 44595 44598 44601 44604 44607 44610 44613 44616 44619 44622 44625 44628 44631 44634 44637 44640 44643 44646 44649 44652 44655 44658 44661 44664 44667 44670 44673 44676 44679 44682 44685 44688 44691 44694 44697 44700 44703 44706 44709 44712 44715 44718 44721 44724 44727 44730 44733 44736 44739 44742 44745 44748 44751 44754 44757 44760 44763 44766 44769 44772 44775 44778 44781 44784 44787 44790 44793 44796 44799 44802 44805 44808 44811 44814 44817 44820 44823 44826 44829 44832 44835 44838 44841 44844 44847 44850 44853 44856 44859 44862 44865 44868 44871 44874 44877 44880 44883 44886 44889 44892 44895 44898 44901 44904 44907 44910 44913 44916 44919 44922 44925 44928 44931 44934 44937 44940 44943 44946 44949 44952 44955 44958 44961 44964 44967 44970 44973 44976 44979 44982 44985 44988 44991 44994 44997 45000 45003 45006 45009 45012 45015 45018 45021 45024 45027 45030 45033 45036 45039 45042 45045 45048 45051 45054 45057 45060 45063 45066 45069 45072 45075 45078 45081 45084 45087 45090 45093 45096 45099 45102 45105 45108 45111 45114 45117 45120 45123 45126 45129 45132 45135 45138 45141 45144 45147 45150 45153 45156 45159 45162 45165 45168 45171 45174 45177 45180 45183 45186 45189 45192 45195 45198 45201 45204 45207 45210 45213 45216 45219 45222 45225 45228 45231 45234 45237 45240 45243 45246 45249 45252 45255 45258 45261 45264 45267 45270 45273 45276 45279 45282 45285 45288 45291 45294 45297 45300 45303 45306 45309 45312 45315 45318 45321 45324 45327 45330 45333 45336 45339 45342 45345 45348 45351 45354 45357 45360 45363 45366 45369 45372 45375 45378 45381 45384 45387 45390 45393 45396 45399 45402 45405 45408 45411 45414 45417 45420 45423 45426 45429 45432 45435 45438 45441 45444 45447 45450 45453 45456 45459 45462 45465 45468 45471 45474 45477 45480 45483 45486 45489 45492 45495 45498 45501 45504 45507 45510 45513 45516 45519 45522 45525 45528 45531 45534 45537 45540 45543 45546 45549 45552 45555 45558 45561 45564 45567 45570 45573 45576 45579 45582 45585 45588 45591 45594 45597 45600 45603 45606 45609 45612 45615 45618 45621 45624 45627 45630 45633 45636 45639 45642 45645 45648 45651 45654 45657 45660 45663 45666 45669 45672 45675 45678 45681 45684 45687 45690 45693 45696 45699 45702 45705 45708 45711 45714 45717 45720 45723 45726 45729 45732 45735 45738 45741 45744 45747 45750 45753 45756 45759 45762 45765 45768 45771 45774 45777 45780 45783 45786 45789 45792 45795 45798 45801 45804 45807 45810 45813 45816 45819 45822 45825 45828 45831 45834 45837 45840 45843 45846 45849 45852 45855 45858 45861 45864 45867 45870 45873 45876 45879 45882 45885 45888 45891 45894 45897 45900 45903 45906 45909 45912 45915 45918 45921 45924 45927 45930 45933 45936 45939 45942 45945 45948 45951 45954 45957 45960 45963 45966 45969 45972 45975 45978 45981 45984 45987 45990 45993 45996 45999 46002 46005 46008 46011 46014 46017 46020 46023 46026 46029 46032 46035 46038 46041 46044 46047 46050 46053 46056 46059 46062 46065 46068 46071 46074 46077 46080 46083 46086 46089 46092 46095 46098 46101 46104 46107 46110 46113 46116 46119 46122 46125 46128 46131 46134 46137 46140 46143 46146 46149 46152 46155 46158 46161 46164 46167 46170 46173 46176 46179 46182 46185 46188 46191 46194 46197 46200 46203 46206 46209 46212 46215 46218 46221 46224 46227 46230 46233 46236 46239 46242 46245 46248 46251 46254 46257 46260 46263 46266 46269 46272 46275 46278 46281 46284 46287 46290 46293 46296 46299 46302 46305 46308 46311 46314 46317 46320 46323 46326 46329 46332 46335 46338 46341 46344 46347 46350 46353 46356 46359 46362 46365 46368 46371 46374 46377 46380 46383 46386 46389 46392 46395 46398 46401 46404 46407 46410 46413 46416 46419 46422 46425 46428 46431 46434 46437 46440 46443 46446 46449 46452 46455 46458 46461 46464 46467 46470 46473 46476 46479 46482 46485 46488 46491 46494 46497 46500 46503 46506 46509 46512 46515 46518 46521 46524 46527 46530 46533 46536 46539 46542 46545 46548 46551 46554 46557 46560 46563 46566 46569 46572 46575 46578 46581 46584 46587 46590 46593 46596 46599 46602 46605 46608 46611 46614 46617 46620 46623 46626 46629 46632 46635 46638 46641 46644 46647 46650 46653 46656 46659 46662 46665 46668 46671 46674 46677 46680 46683 46686 46689 46692 46695 46698 46701 46704 46707 46710 46713 46716 46719 46722 46725 46728 46731 46734 46737 46740 46743 46746 46749 46752 46755 46758 46761 46764 46767 46770 46773 46776 46779 46782 46785 46788 46791 46794 46797 46800 46803 46806 46809 46812 46815 46818 46821 46824 46827 46830 46833 46836 46839 46842 46845 46848 46851 46854 46857 46860 46863 46866 46869 46872 46875 46878 46881 46884 46887 46890 46893 46896 46899 46902 46905 46908 46911 46914 46917 46920 46923 46926 46929 46932 46935 46938 46941 46944 46947 46950 46953 46956 46959 46962 46965 46968 46971 46974 46977 46980 46983 46986 46989 46992 46995 46998 47001 47004 47007 47010 47013 47016 47019 47022 47025 47028 47031 47034 47037 47040 47043 47046 47049 47052 47055 47058 47061 47064 47067 47070 47073 47076 47079 47082 47085 47088 47091 47094 47097 47100 47103 47106 47109 47112 47115 47118 47121 47124 47127 47130 47133 47136 47139 47142 47145 47148 47151 47154 47157 47160 47163 47166 47169 47172 47175 47178 47181 47184 47187 47190 47193 47196 47199 47202 47205 47208 47211 47214 47217 47220 47223 47226 47229 47232 47235 47238 47241 47244 47247 47250 47253 47256 47259 47262 47265 47268 47271 47274 47277 47280 47283 47286 47289 47292 47295 47298 47301 47304 47307 47310 47313 47316 47319 47322 47325 47328 47331 47334 47337 47340 47343 47346 47349 47352 47355 47358 47361 47364 47367 47370 47373 47376 47379 47382 47385 47388 47391 47394 47397 47400 47403 47406 47409 47412 47415 47418 47421 47424 47427 47430 47433 47436 47439 47442 47445 47448 47451 47454 47457 47460 47463 47466 47469 47472 47475 47478 47481 47484 47487 47490 47493 47496 47499 47502 47505 47508 47511 47514 47517 47520 47523 47526 47529 47532 47535 47538 47541 47544 47547 47550 47553 47556 47559 47562 47565 47568 47571 47574 47577 47580 47583 47586 47589 47592 47595 47598 47601 47604 47607 47610 47613 47616 47619 47622 47625 47628 47631 47634 47637 47640 47643 47646 47649 47652 47655 47658 47661 47664 47667 47670 47673 47676 47679 47682 47685 47688 47691 47694 47697 47700 47703 47706 47709 47712 47715 47718 47721 47724 47727 47730 47733 47736 47739 47742 47745 47748 47751 47754 47757 47760 47763 47766 47769 47772 47775 47778 47781 47784 47787 47790 47793 47796 47799 47802 47805 47808 47811 47814 47817 47820 47823 47826 47829 47832 47835 47838 47841 47844 47847 47850 47853 47856 47859 47862 47865 47868 47871 47874 47877 47880 47883 47886 47889 47892 47895 47898 47901 47904 47907 47910 47913 47916 47919 47922 47925 47928 47931 47934 47937 47940 47943 47946 47949 47952 47955 47958 47961 47964 47967 47970 47973 47976 47979 47982 47985 47988 47991 47994 47997 48000 48003 48006 48009 48012 48015 48018 48021 48024 48027 48030 48033 48036 48039 48042 48045 48048 48051 48054 48057 48060 48063 48066 48069 48072 48075 48078 48081 48084 48087 48090 48093 48096 48099 48102 48105 48108 48111 48114 48117 48120 48123 48126 48129 48132 48135 48138 48141 48144 48147 48150 48153 48156 48159 48162 48165 48168 48171 48174 48177 48180 48183 48186 48189 48192 48195 48198 48201 48204 48207 48210 48213 48216 48219 48222 48225 48228 48231 48234 48237 48240 48243 48246 48249 48252 48255 48258 48261 48264 48267 48270 48273 48276 48279 48282 48285 48288 48291 48294 48297 48300 48303 48306 48309 48312 48315 48318 48321 48324 48327 48330 48333 48336 48339 48342 48345 48348 48351 48354 48357 48360 48363 48366 48369 48372 48375 48378 48381 48384 48387 48390 48393 48396 48399 48402 48405 48408 48411 48414 48417 48420 48423 48426 48429 48432 48435 48438 48441 48444 48447 48450 48453 48456 48459 48462 48465 48468 48471 48474 48477 48480 48483 48486 48489 48492 48495 48498 48501 48504 48507 48510 48513 48516 48519 48522 48525 48528 48531 48534 48537 48540 48543 48546 48549 48552 48555 48558 48561 48564 48567 48570 48573 48576 48579 48582 48585 48588 48591 48594 48597 48600 48603 48606 48609 48612 48615 48618 48621 48624 48627 48630 48633 48636 48639 48642 48645 48648 48651 48654 48657 48660 48663 48666 48669 48672 48675 48678 48681 48684 48687 48690 48693 48696 48699 48702 48705 48708 48711 48714 48717 48720 48723 48726 48729 48732 48735 48738 48741 48744 48747 48750 48753 48756 48759 48762 48765 48768 48771 48774 48777 48780 48783 48786 48789 48792 48795 48798 48801 48804 48807 48810 48813 48816 48819 48822 48825 48828 48831 48834 48837 48840 48843 48846 48849 48852 48855 48858 48861 48864 48867 48870 48873 48876 48879 48882 48885 48888 48891 48894 48897 48900 48903 48906 48909 48912 48915 48918 48921 48924 48927 48930 48933 48936 48939 48942 48945 48948 48951 48954 48957 48960 48963 48966 48969 48972 48975 48978 48981 48984 48987 48990 48993 48996 48999 49002 49005 49008 49011 49014 49017 49020 49023 49026 49029 49032 49035 49038 49041 49044 49047 49050 49053 49056 49059 49062 49065 49068 49071 49074 49077 49080 49083 49086 49089 49092 49095 49098 49101 49104 49107 49110 49113 49116 49119 49122 49125 49128 49131 49134 49137 49140 49143 49146 49149 49152 49155 49158 49161 49164 49167 49170 49173 49176 49179 49182 49185 49188 49191 49194 49197 49200 49203 49206 49209 49212 49215 49218 49221 49224 49227 49230 49233 49236 49239 49242 49245 49248 49251 49254 49257 49260 49263 49266 49269 49272 49275 49278 49281 49284 49287 49290 49293 49296 49299 49302 49305 49308 49311 49314 49317 49320 49323 49326 49329 49332 49335 49338 49341 49344 49347 49350 49353 49356 49359 49362 49365 49368 49371 49374 49377 49380 49383 49386 49389 49392 49395 49398 49401 49404 49407 49410 49413 49416 49419 49422 49425 49428 49431 49434 49437 49440 49443 49446 49449 49452 49455 49458 49461 49464 49467 49470 49473 49476 49479 49482 49485 49488 49491 49494 49497 49500 49503 49506 49509 49512 49515 49518 49521 49524 49527 49530 49533 49536 49539 49542 49545 49548 49551 49554 49557 49560 49563 49566 49569 49572 49575 49578 49581 49584 49587 49590 49593 49596 49599 49602 49605 49608 49611 49614 49617 49620 49623 49626 49629 49632 49635 49638 49641 49644 49647 49650 49653 49656 49659 49662 49665 49668 49671 49674 49677 49680 49683 49686 49689 49692 49695 49698 49701 49704 49707 49710 49713 49716 49719 49722 49725 49728 49731 49734 49737 49740 49743 49746 49749 49752 49755 49758 49761 49764 49767 49770 49773 49776 49779 49782 49785 49788 49791 49794 49797 49800 49803 49806 49809 49812 49815 49818 49821 49824 49827 49830 49833 49836 49839 49842 49845 49848 49851 49854 49857 49860 49863 49866 49869 49872 49875 49878 49881 49884 49887 49890 49893 49896 49899 49902 49905 49908 49911 49914 49917 49920 49923 49926 49929 49932 49935 49938 49941 49944 49947 49950 49953 49956 49959 49962 49965 49968 49971 49974 49977 49980 49983 49986 49989 49992 49995 49998 50001 50004 50007 50010 50013 50016 50019 50022 50025 50028 50031 50034 50037 50040 50043 50046 50049 50052 50055 50058 50061 50064 50067 50070 50073 50076 50079 50082 50085 50088 50091 50094 50097 50100 50103 50106 50109 50112 50115 50118 50121 50124 50127 50130 50133 50136 50139 50142 50145 50148 50151 50154 50157 50160 50163 50166 50169 50172 50175 50178 50181 50184 50187 50190 50193 50196 50199 50202 50205 50208 50211 50214 50217 50220 50223 50226 50229 50232 50235 50238 50241 50244 50247 50250 50253 50256 50259 50262 50265 50268 50271 50274 50277 50280 50283 50286 50289 50292 50295 50298 50301 50304 50307 50310 50313 50316 50319 50322 50325 50328 50331 50334 50337 50340 50343 50346 50349 50352 50355 50358 50361 50364 50367 50370 50373 50376 50379 50382 50385 50388 50391 50394 50397 50400 50403 50406 50409 50412 50415 50418 50421 50424 50427 50430 50433 50436 50439 50442 50445 50448 50451 50454 50457 50460 50463 50466 50469 50472 50475 50478 50481 50484 50487 50490 50493 50496 50499 50502 50505 50508 50511 50514 50517 50520 50523 50526 50529 50532 50535 50538 50541 50544 50547 50550 50553 50556 50559 50562 50565 50568 50571 50574 50577 50580 50583 50586 50589 50592 50595 50598 50601 50604 50607 50610 50613 50616 50619 50622 50625 50628 50631 50634 50637 50640 50643 50646 50649 50652 50655 50658 50661 50664 50667 50670 50673 50676 50679 50682 50685 50688 50691 50694 50697 50700 50703 50706 50709 50712 50715 50718 50721 50724 50727 50730 50733 50736 50739 50742 50745 50748 50751 50754 50757 50760 50763 50766 50769 50772 50775 50778 50781 50784 50787 50790 50793 50796 50799 50802 50805 50808 50811 50814 50817 50820 50823 50826 50829 50832 50835 50838 50841 50844 50847 50850 50853 50856 50859 50862 50865 50868 50871 50874 50877 50880 50883 50886 50889 50892 50895 50898 50901 50904 50907 50910 50913 50916 50919 50922 50925 50928 50931 50934 50937 50940 50943 50946 50949 50952 50955 50958 50961 50964 50967 50970 50973 50976 50979 50982 50985 50988 50991 50994 50997 51000 51003 51006 51009 51012 51015 51018 51021 51024 51027 51030 51033 51036 51039 51042 51045 51048 51051 51054 51057 51060 51063 51066 51069 51072 51075 51078 51081 51084 51087 51090 51093 51096 51099 51102 51105 51108 51111 51114 51117 51120 51123 51126 51129 51132 51135 51138 51141 51144 51147 51150 51153 51156 51159 51162 51165 51168 51171 51174 51177 51180 51183 51186 51189 51192 51195 51198 51201 51204 51207 51210 51213 51216 51219 51222 51225 51228 51231 51234 51237 51240 51243 51246 51249 51252 51255 51258 51261 51264 51267 51270 51273 51276 51279 51282 51285 51288 51291 51294 51297 51300 51303 51306 51309 51312 51315 51318 51321 51324 51327 51330 51333 51336 51339 51342 51345 51348 51351 51354 51357 51360 51363 51366 51369 51372 51375 51378 51381 51384 51387 51390 51393 51396 51399 51402 51405 51408 51411 51414 51417 51420 51423 51426 51429 51432 51435 51438 51441 51444 51447 51450 51453 51456 51459 51462 51465 51468 51471 51474 51477 51480 51483 51486 51489 51492 51495 51498 51501 51504 51507 51510 51513 51516 51519 51522 51525 51528 51531 51534 51537 51540 51543 51546 51549 51552 51555 51558 51561 51564 51567 51570 51573 51576 51579 51582 51585 51588 51591 51594 51597 51600 51603 51606 51609 51612 51615 51618 51621 51624 51627 51630 51633 51636 51639 51642 51645 51648 51651 51654 51657 51660 51663 51666 51669 51672 51675 51678 51681 51684 51687 51690 51693 51696 51699 51702 51705 51708 51711 51714 51717 51720 51723 51726 51729 51732 51735 51738 51741 51744 51747 51750 51753 51756 51759 51762 51765 51768 51771 51774 51777 51780 51783 51786 51789 51792 51795 51798 51801 51804 51807 51810 51813 51816 51819 51822 51825 51828 51831 51834 51837 51840 51843 51846 51849 51852 51855 51858 51861 51864 51867 51870 51873 51876 51879 51882 51885 51888 51891 51894 51897 51900 51903 51906 51909 51912 51915 51918 51921 51924 51927 51930 51933 51936 51939 51942 51945 51948 51951 51954 51957 51960 51963 51966 51969 51972 51975 51978 51981 51984 51987 51990 51993 51996 51999 52002 52005 52008 52011 52014 52017 52020 52023 52026 52029 52032 52035 52038 52041 52044 52047 52050 52053 52056 52059 52062 52065 52068 52071 52074 52077 52080 52083 52086 52089 52092 52095 52098 52101 52104 52107 52110 52113 52116 52119 52122 52125 52128 52131 52134 52137 52140 52143 52146 52149 52152 52155 52158 52161 52164 52167 52170 52173 52176 52179 52182 52185 52188 52191 52194 52197 52200 52203 52206 52209 52212 52215 52218 52221 52224 52227 52230 52233 52236 52239 52242 52245 52248 52251 52254 52257 52260 52263 52266 52269 52272 52275 52278 52281 52284 52287 52290 52293 52296 52299 52302 52305 52308 52311 52314 52317 52320 52323 52326 52329 52332 52335 52338 52341 52344 52347 52350 52353 52356 52359 52362 52365 52368 52371 52374 52377 52380 52383 52386 52389 52392 52395 52398 52401 52404 52407 52410 52413 52416 52419 52422 52425 52428 52431 52434 52437 52440 52443 52446 52449 52452 52455 52458 52461 52464 52467 52470 52473 52476 52479 52482 52485 52488 52491 52494 52497 52500 52503 52506 52509 52512 52515 52518 52521 52524 52527 52530 52533 52536 52539 52542 52545 52548 52551 52554 52557 52560 52563 52566 52569 52572 52575 52578 52581 52584 52587 52590 52593 52596 52599 52602 52605 52608 52611 52614 52617 52620 52623 52626 52629 52632 52635 52638 52641 52644 52647 52650 52653 52656 52659 52662 52665 52668 52671 52674 52677 52680 52683 52686 52689 52692 52695 52698 52701 52704 52707 52710 52713 52716 52719 52722 52725 52728 52731 52734 52737 52740 52743 52746 52749 52752 52755 52758 52761 52764 52767 52770 52773 52776 52779 52782 52785 52788 52791 52794 52797 52800 52803 52806 52809 52812 52815 52818 52821 52824 52827 52830 52833 52836 52839 52842 52845 52848 52851 52854 52857 52860 52863 52866 52869 52872 52875 52878 52881 52884 52887 52890 52893 52896 52899 52902 52905 52908 52911 52914 52917 52920 52923 52926 52929 52932 52935 52938 52941 52944 52947 52950 52953 52956 52959 52962 52965 52968 52971 52974 52977 52980 52983 52986 52989 52992 52995 52998 53001 53004 53007 53010 53013 53016 53019 53022 53025 53028 53031 53034 53037 53040 53043 53046 53049 53052 53055 53058 53061 53064 53067 53070 53073 53076 53079 53082 53085 53088 53091 53094 53097 53100 53103 53106 53109 53112 53115 53118 53121 53124 53127 53130 53133 53136 53139 53142 53145 53148 53151 53154 53157 53160 53163 53166 53169 53172 53175 53178 53181 53184 53187 53190 53193 53196 53199 53202 53205 53208 53211 53214 53217 53220 53223 53226 53229 53232 53235 53238 53241 53244 53247 53250 53253 53256 53259 53262 53265 53268 53271 53274 53277 53280 53283 53286 53289 53292 53295 53298 53301 53304 53307 53310 53313 53316 53319 53322 53325 53328 53331 53334 53337 53340 53343 53346 53349 53352 53355 53358 53361 53364 53367 53370 53373 53376 53379 53382 53385 53388 53391 53394 53397 53400 53403 53406 53409 53412 53415 53418 53421 53424 53427 53430 53433 53436 53439 53442 53445 53448 53451 53454 53457 53460 53463 53466 53469 53472 53475 53478 53481 53484 53487 53490 53493 53496 53499 53502 53505 53508 53511 53514 53517 53520 53523 53526 53529 53532 53535 53538 53541 53544 53547 53550 53553 53556 53559 53562 53565 53568 53571 53574 53577 53580 53583 53586 53589 53592 53595 53598 53601 53604 53607 53610 53613 53616 53619 53622 53625 53628 53631 53634 53637 53640 53643 53646 53649 53652 53655 53658 53661 53664 53667 53670 53673 53676 53679 53682 53685 53688 53691 53694 53697 53700 53703 53706 53709 53712 53715 53718 53721 53724 53727 53730 53733 53736 53739 53742 53745 53748 53751 53754 53757 53760 53763 53766 53769 53772 53775 53778 53781 53784 53787 53790 53793 53796 53799 53802 53805 53808 53811 53814 53817 53820 53823 53826 53829 53832 53835 53838 53841 53844 53847 53850 53853 53856 53859 53862 53865 53868 53871 53874 53877 53880 53883 53886 53889 53892 53895 53898 53901 53904 53907 53910 53913 53916 53919 53922 53925 53928 53931 53934 53937 53940 53943 53946 53949 53952 53955 53958 53961 53964 53967 53970 53973 53976 53979 53982 53985 53988 53991 53994 53997 54000 54003 54006 54009 54012 54015 54018 54021 54024 54027 54030 54033 54036 54039 54042 54045 54048 54051 54054 54057 54060 54063 54066 54069 54072 54075 54078 54081 54084 54087 54090 54093 54096 54099 54102 54105 54108 54111 54114 54117 54120 54123 54126 54129 54132 54135 54138 54141 54144 54147 54150 54153 54156 54159 54162 54165 54168 54171 54174 54177 54180 54183 54186 54189 54192 54195 54198 54201 54204 54207 54210 54213 54216 54219 54222 54225 54228 54231 54234 54237 54240 54243 54246 54249 54252 54255 54258 54261 54264 54267 54270 54273 54276 54279 54282 54285 54288 54291 54294 54297 54300 54303 54306 54309 54312 54315 54318 54321 54324 54327 54330 54333 54336 54339 54342 54345 54348 54351 54354 54357 54360 54363 54366 54369 54372 54375 54378 54381 54384 54387 54390 54393 54396 54399 54402 54405 54408 54411 54414 54417 54420 54423 54426 54429 54432 54435 54438 54441 54444 54447 54450 54453 54456 54459 54462 54465 54468 54471 54474 54477 54480 54483 54486 54489 54492 54495 54498 54501 54504 54507 54510 54513 54516 54519 54522 54525 54528 54531 54534 54537 54540 54543 54546 54549 54552 54555 54558 54561 54564 54567 54570 54573 54576 54579 54582 54585 54588 54591 54594 54597 54600 54603 54606 54609 54612 54615 54618 54621 54624 54627 54630 54633 54636 54639 54642 54645 54648 54651 54654 54657 54660 54663 54666 54669 54672 54675 54678 54681 54684 54687 54690 54693 54696 54699 54702 54705 54708 54711 54714 54717 54720 54723 54726 54729 54732 54735 54738 54741 54744 54747 54750 54753 54756 54759 54762 54765 54768 54771 54774 54777 54780 54783 54786 54789 54792 54795 54798 54801 54804 54807 54810 54813 54816 54819 54822 54825 54828 54831 54834 54837 54840 54843 54846 54849 54852 54855 54858 54861 54864 54867 54870 54873 54876 54879 54882 54885 54888 54891 54894 54897 54900 54903 54906 54909 54912 54915 54918 54921 54924 54927 54930 54933 54936 54939 54942 54945 54948 54951 54954 54957 54960 54963 54966 54969 54972 54975 54978 54981 54984 54987 54990 54993 54996 54999 55002 55005 55008 55011 55014 55017 55020 55023 55026 55029 55032 55035 55038 55041 55044 55047 55050 55053 55056 55059 55062 55065 55068 55071 55074 55077 55080 55083 55086 55089 55092 55095 55098 55101 55104 55107 55110 55113 55116 55119 55122 55125 55128 55131 55134 55137 55140 55143 55146 55149 55152 55155 55158 55161 55164 55167 55170 55173 55176 55179 55182 55185 55188 55191 55194 55197 55200 55203 55206 55209 55212 55215 55218 55221 55224 55227 55230 55233 55236 55239 55242 55245 55248 55251 55254 55257 55260 55263 55266 55269 55272 55275 55278 55281 55284 55287 55290 55293 55296 55299 55302 55305 55308 55311 55314 55317 55320 55323 55326 55329 55332 55335 55338 55341 55344 55347 55350 55353 55356 55359 55362 55365 55368 55371 55374 55377 55380 55383 55386 55389 55392 55395 55398 55401 55404 55407 55410 55413 55416 55419 55422 55425 55428 55431 55434 55437 55440 55443 55446 55449 55452 55455 55458 55461 55464 55467 55470 55473 55476 55479 55482 55485 55488 55491 55494 55497 55500 55503 55506 55509 55512 55515 55518 55521 55524 55527 55530 55533 55536 55539 55542 55545 55548 55551 55554 55557 55560 55563 55566 55569 55572 55575 55578 55581 55584 55587 55590 55593 55596 55599 55602 55605 55608 55611 55614 55617 55620 55623 55626 55629 55632 55635 55638 55641 55644 55647 55650 55653 55656 55659 55662 55665 55668 55671 55674 55677 55680 55683 55686 55689 55692 55695 55698 55701 55704 55707 55710 55713 55716 55719 55722 55725 55728 55731 55734 55737 55740 55743 55746 55749 55752 55755 55758 55761 55764 55767 55770 55773 55776 55779 55782 55785 55788 55791 55794 55797 55800 55803 55806 55809 55812 55815 55818 55821 55824 55827 55830 55833 55836 55839 55842 55845 55848 55851 55854 55857 55860 55863 55866 55869 55872 55875 55878 55881 55884 55887 55890 55893 55896 55899 55902 55905 55908 55911 55914 55917 55920 55923 55926 55929 55932 55935 55938 55941 55944 55947 55950 55953 55956 55959 55962 55965 55968 55971 55974 55977 55980 55983 55986 55989 55992 55995 55998 56001 56004 56007 56010 56013 56016 56019 56022 56025 56028 56031 56034 56037 56040 56043 56046 56049 56052 56055 56058 56061 56064 56067 56070 56073 56076 56079 56082 56085 56088 56091 56094 56097 56100 56103 56106 56109 56112 56115 56118 56121 56124 56127 56130 56133 56136 56139 56142 56145 56148 56151 56154 56157 56160 56163 56166 56169 56172 56175 56178 56181 56184 56187 56190 56193 56196 56199 56202 56205 56208 56211 56214 56217 56220 56223 56226 56229 56232 56235 56238 56241 56244 56247 56250 56253 56256 56259 56262 56265 56268 56271 56274 56277 56280 56283 56286 56289 56292 56295 56298 56301 56304 56307 56310 56313 56316 56319 56322 56325 56328 56331 56334 56337 56340 56343 56346 56349 56352 56355 56358 56361 56364 56367 56370 56373 56376 56379 56382 56385 56388 56391 56394 56397 56400 56403 56406 56409 56412 56415 56418 56421 56424 56427 56430 56433 56436 56439 56442 56445 56448 56451 56454 56457 56460 56463 56466 56469 56472 56475 56478 56481 56484 56487 56490 56493 56496 56499 56502 56505 56508 56511 56514 56517 56520 56523 56526 56529 56532 56535 56538 56541 56544 56547 56550 56553 56556 56559 56562 56565 56568 56571 56574 56577 56580 56583 56586 56589 56592 56595 56598 56601 56604 56607 56610 56613 56616 56619 56622 56625 56628 56631 56634 56637 56640 56643 56646 56649 56652 56655 56658 56661 56664 56667 56670 56673 56676 56679 56682 56685 56688 56691 56694 56697 56700 56703 56706 56709 56712 56715 56718 56721 56724 56727 56730 56733 56736 56739 56742 56745 56748 56751 56754 56757 56760 56763 56766 56769 56772 56775 56778 56781 56784 56787 56790 56793 56796 56799 56802 56805 56808 56811 56814 56817 56820 56823 56826 56829 56832 56835 56838 56841 56844 56847 56850 56853 56856 56859 56862 56865 56868 56871 56874 56877 56880 56883 56886 56889 56892 56895 56898 56901 56904 56907 56910 56913 56916 56919 56922 56925 56928 56931 56934 56937 56940 56943 56946 56949 56952 56955 56958 56961 56964 56967 56970 56973 56976 56979 56982 56985 56988 56991 56994 56997 57000 57003 57006 57009 57012 57015 57018 57021 57024 57027 57030 57033 57036 57039 57042 57045 57048 57051 57054 57057 57060 57063 57066 57069 57072 57075 57078 57081 57084 57087 57090 57093 57096 57099 57102 57105 57108 57111 57114 57117 57120 57123 57126 57129 57132 57135 57138 57141 57144 57147 57150 57153 57156 57159 57162 57165 57168 57171 57174 57177 57180 57183 57186 57189 57192 57195 57198 57201 57204 57207 57210 57213 57216 57219 57222 57225 57228 57231 57234 57237 57240 57243 57246 57249 57252 57255 57258 57261 57264 57267 57270 57273 57276 57279 57282 57285 57288 57291 57294 57297 57300 57303 57306 57309 57312 57315 57318 57321 57324 57327 57330 57333 57336 57339 57342 57345 57348 57351 57354 57357 57360 57363 57366 57369 57372 57375 57378 57381 57384 57387 57390 57393 57396 57399 57402 57405 57408 57411 57414 57417 57420 57423 57426 57429 57432 57435 57438 57441 57444 57447 57450 57453 57456 57459 57462 57465 57468 57471 57474 57477 57480 57483 57486 57489 57492 57495 57498 57501 57504 57507 57510 57513 57516 57519 57522 57525 57528 57531 57534 57537 57540 57543 57546 57549 57552 57555 57558 57561 57564 57567 57570 57573 57576 57579 57582 57585 57588 57591 57594 57597 57600 57603 57606 57609 57612 57615 57618 57621 57624 57627 57630 57633 57636 57639 57642 57645 57648 57651 57654 57657 57660 57663 57666 57669 57672 57675 57678 57681 57684 57687 57690 57693 57696 57699 57702 57705 57708 57711 57714 57717 57720 57723 57726 57729 57732 57735 57738 57741 57744 57747 57750 57753 57756 57759 57762 57765 57768 57771 57774 57777 57780 57783 57786 57789 57792 57795 57798 57801 57804 57807 57810 57813 57816 57819 57822 57825 57828 57831 57834 57837 57840 57843 57846 57849 57852 57855 57858 57861 57864 57867 57870 57873 57876 57879 57882 57885 57888 57891 57894 57897 57900 57903 57906 57909 57912 57915 57918 57921 57924 57927 57930 57933 57936 57939 57942 57945 57948 57951 57954 57957 57960 57963 57966 57969 57972 57975 57978 57981 57984 57987 57990 57993 57996 57999 58002 58005 58008 58011 58014 58017 58020 58023 58026 58029 58032 58035 58038 58041 58044 58047 58050 58053 58056 58059 58062 58065 58068 58071 58074 58077 58080 58083 58086 58089 58092 58095 58098 58101 58104 58107 58110 58113 58116 58119 58122 58125 58128 58131 58134 58137 58140 58143 58146 58149 58152 58155 58158 58161 58164 58167 58170 58173 58176 58179 58182 58185 58188 58191 58194 58197 58200 58203 58206 58209 58212 58215 58218 58221 58224 58227 58230 58233 58236 58239 58242 58245 58248 58251 58254 58257 58260 58263 58266 58269 58272 58275 58278 58281 58284 58287 58290 58293 58296 58299 58302 58305 58308 58311 58314 58317 58320 58323 58326 58329 58332 58335 58338 58341 58344 58347 58350 58353 58356 58359 58362 58365 58368 58371 58374 58377 58380 58383 58386 58389 58392 58395 58398 58401 58404 58407 58410 58413 58416 58419 58422 58425 58428 58431 58434 58437 58440 58443 58446 58449 58452 58455 58458 58461 58464 58467 58470 58473 58476 58479 58482 58485 58488 58491 58494 58497 58500 58503 58506 58509 58512 58515 58518 58521 58524 58527 58530 58533 58536 58539 58542 58545 58548 58551 58554 58557 58560 58563 58566 58569 58572 58575 58578 58581 58584 58587 58590 58593 58596 58599 58602 58605 58608 58611 58614 58617 58620 58623 58626 58629 58632 58635 58638 58641 58644 58647 58650 58653 58656 58659 58662 58665 58668 58671 58674 58677 58680 58683 58686 58689 58692 58695 58698 58701 58704 58707 58710 58713 58716 58719 58722 58725 58728 58731 58734 58737 58740 58743 58746 58749 58752 58755 58758 58761 58764 58767 58770 58773 58776 58779 58782 58785 58788 58791 58794 58797 58800 58803 58806 58809 58812 58815 58818 58821 58824 58827 58830 58833 58836 58839 58842 58845 58848 58851 58854 58857 58860 58863 58866 58869 58872 58875 58878 58881 58884 58887 58890 58893 58896 58899 58902 58905 58908 58911 58914 58917 58920 58923 58926 58929 58932 58935 58938 58941 58944 58947 58950 58953 58956 58959 58962 58965 58968 58971 58974 58977 58980 58983 58986 58989 58992 58995 58998 59001 59004 59007 59010 59013 59016 59019 59022 59025 59028 59031 59034 59037 59040 59043 59046 59049 59052 59055 59058 59061 59064 59067 59070 59073 59076 59079 59082 59085 59088 59091 59094 59097 59100 59103 59106 59109 59112 59115 59118 59121 59124 59127 59130 59133 59136 59139 59142 59145 59148 59151 59154 59157 59160 59163 59166 59169 59172 59175 59178 59181 59184 59187 59190 59193 59196 59199 59202 59205 59208 59211 59214 59217 59220 59223 59226 59229 59232 59235 59238 59241 59244 59247 59250 59253 59256 59259 59262 59265 59268 59271 59274 59277 59280 59283 59286 59289 59292 59295 59298 59301 59304 59307 59310 59313 59316 59319 59322 59325 59328 59331 59334 59337 59340 59343 59346 59349 59352 59355 59358 59361 59364 59367 59370 59373 59376 59379 59382 59385 59388 59391 59394 59397 59400 59403 59406 59409 59412 59415 59418 59421 59424 59427 59430 59433 59436 59439 59442 59445 59448 59451 59454 59457 59460 59463 59466 59469 59472 59475 59478 59481 59484 59487 59490 59493 59496 59499 59502 59505 59508 59511 59514 59517 59520 59523 59526 59529 59532 59535 59538 59541 59544 59547 59550 59553 59556 59559 59562 59565 59568 59571 59574 59577 59580 59583 59586 59589 59592 59595 59598 59601 59604 59607 59610 59613 59616 59619 59622 59625 59628 59631 59634 59637 59640 59643 59646 59649 59652 59655 59658 59661 59664 59667 59670 59673 59676 59679 59682 59685 59688 59691 59694 59697 59700 59703 59706 59709 59712 59715 59718 59721 59724 59727 59730 59733 59736 59739 59742 59745 59748 59751 59754 59757 59760 59763 59766 59769 59772 59775 59778 59781 59784 59787 59790 59793 59796 59799 59802 59805 59808 59811 59814 59817 59820 59823 59826 59829 59832 59835 59838 59841 59844 59847 59850 59853 59856 59859 59862 59865 59868 59871 59874 59877 59880 59883 59886 59889 59892 59895 59898 59901 59904 59907 59910 59913 59916 59919 59922 59925 59928 59931 59934 59937 59940 59943 59946 59949 59952 59955 59958 59961 59964 59967 59970 59973 59976 59979 59982 59985 59988 59991 59994 59997 60000 60003 60006 60009 60012 60015 60018 60021 60024 60027 60030 60033 60036 60039 60042 60045 60048 60051 60054 60057 60060 60063 60066 60069 60072 60075 60078 60081 60084 60087 60090 60093 60096 60099 60102 60105 60108 60111 60114 60117 60120 60123 60126 60129 60132 60135 60138 60141 60144 60147 60150 60153 60156 60159 60162 60165 60168 60171 60174 60177 60180 60183 60186 60189 60192 60195 60198 60201 60204 60207 60210 60213 60216 60219 60222 60225 60228 60231 60234 60237 60240 60243 60246 60249 60252 60255 60258 60261 60264 60267 60270 60273 60276 60279 60282 60285 60288 60291 60294 60297 60300 60303 60306 60309 60312 60315 60318 60321 60324 60327 60330 60333 60336 60339 60342 60345 60348 60351 60354 60357 60360 60363 60366 60369 60372 60375 60378 60381 60384 60387 60390 60393 60396 60399 60402 60405 60408 60411 60414 60417 60420 60423 60426 60429 60432 60435 60438 60441 60444 60447 60450 60453 60456 60459 60462 60465 60468 60471 60474 60477 60480 60483 60486 60489 60492 60495 60498 60501 60504 60507 60510 60513 60516 60519 60522 60525 60528 60531 60534 60537 60540 60543 60546 60549 60552 60555 60558 60561 60564 60567 60570 60573 60576 60579 60582 60585 60588 60591 60594 60597 60600 60603 60606 60609 60612 60615 60618 60621 60624 60627 60630 60633 60636 60639 60642 60645 60648 60651 60654 60657 60660 60663 60666 60669 60672 60675 60678 60681 60684 60687 60690 60693 60696 60699 60702 60705 60708 60711 60714 60717 60720 60723 60726 60729 60732 60735 60738 60741 60744 60747 60750 60753 60756 60759 60762 60765 60768 60771 60774 60777 60780 60783 60786 60789 60792 60795 60798 60801 60804 60807 60810 60813 60816 60819 60822 60825 60828 60831 60834 60837 60840 60843 60846 60849 60852 60855 60858 60861 60864 60867 60870 60873 60876 60879 60882 60885 60888 60891 60894 60897 60900 60903 60906 60909 60912 60915 60918 60921 60924 60927 60930 60933 60936 60939 60942 60945 60948 60951 60954 60957 60960 60963 60966 60969 60972 60975 60978 60981 60984 60987 60990 60993 60996 60999 61002 61005 61008 61011 61014 61017 61020 61023 61026 61029 61032 61035 61038 61041 61044 61047 61050 61053 61056 61059 61062 61065 61068 61071 61074 61077 61080 61083 61086 61089 61092 61095 61098 61101 61104 61107 61110 61113 61116 61119 61122 61125 61128 61131 61134 61137 61140 61143 61146 61149 61152 61155 61158 61161 61164 61167 61170 61173 61176 61179 61182 61185 61188 61191 61194 61197 61200 61203 61206 61209 61212 61215 61218 61221 61224 61227 61230 61233 61236 61239 61242 61245 61248 61251 61254 61257 61260 61263 61266 61269 61272 61275 61278 61281 61284 61287 61290 61293 61296 61299 61302 61305 61308 61311 61314 61317 61320 61323 61326 61329 61332 61335 61338 61341 61344 61347 61350 61353 61356 61359 61362 61365 61368 61371 61374 61377 61380 61383 61386 61389 61392 61395 61398 61401 61404 61407 61410 61413 61416 61419 61422 61425 61428 61431 61434 61437 61440 61443 61446 61449 61452 61455 61458 61461 61464 61467 61470 61473 61476 61479 61482 61485 61488 61491 61494 61497 61500 61503 61506 61509 61512 61515 61518 61521 61524 61527 61530 61533 61536 61539 61542 61545 61548 61551 61554 61557 61560 61563 61566 61569 61572 61575 61578 61581 61584 61587 61590 61593 61596 61599 61602 61605 61608 61611 61614 61617 61620 61623 61626 61629 61632 61635 61638 61641 61644 61647 61650 61653 61656 61659 61662 61665 61668 61671 61674 61677 61680 61683 61686 61689 61692 61695 61698 61701 61704 61707 61710 61713 61716 61719 61722 61725 61728 61731 61734 61737 61740 61743 61746 61749 61752 61755 61758 61761 61764 61767 61770 61773 61776 61779 61782 61785 61788 61791 61794 61797 61800 61803 61806 61809 61812 61815 61818 61821 61824 61827 61830 61833 61836 61839 61842 61845 61848 61851 61854 61857 61860 61863 61866 61869 61872 61875 61878 61881 61884 61887 61890 61893 61896 61899 61902 61905 61908 61911 61914 61917 61920 61923 61926 61929 61932 61935 61938 61941 61944 61947 61950 61953 61956 61959 61962 61965 61968 61971 61974 61977 61980 61983 61986 61989 61992 61995 61998 62001 62004 62007 62010 62013 62016 62019 62022 62025 62028 62031 62034 62037 62040 62043 62046 62049 62052 62055 62058 62061 62064 62067 62070 62073 62076 62079 62082 62085 62088 62091 62094 62097 62100 62103 62106 62109 62112 62115 62118 62121 62124 62127 62130 62133 62136 62139 62142 62145 62148 62151 62154 62157 62160 62163 62166 62169 62172 62175 62178 62181 62184 62187 62190 62193 62196 62199 62202 62205 62208 62211 62214 62217 62220 62223 62226 62229 62232 62235 62238 62241 62244 62247 62250 62253 62256 62259 62262 62265 62268 62271 62274 62277 62280 62283 62286 62289 62292 62295 62298 62301 62304 62307 62310 62313 62316 62319 62322 62325 62328 62331 62334 62337 62340 62343 62346 62349 62352 62355 62358 62361 62364 62367 62370 62373 62376 62379 62382 62385 62388 62391 62394 62397 62400 62403 62406 62409 62412 62415 62418 62421 62424 62427 62430 62433 62436 62439 62442 62445 62448 62451 62454 62457 62460 62463 62466 62469 62472 62475 62478 62481 62484 62487 62490 62493 62496 62499 62502 62505 62508 62511 62514 62517 62520 62523 62526 62529 62532 62535 62538 62541 62544 62547 62550 62553 62556 62559 62562 62565 62568 62571 62574 62577 62580 62583 62586 62589 62592 62595 62598 62601 62604 62607 62610 62613 62616 62619 62622 62625 62628 62631 62634 62637 62640 62643 62646 62649 62652 62655 62658 62661 62664 62667 62670 62673 62676 62679 62682 62685 62688 62691 62694 62697 62700 62703 62706 62709 62712 62715 62718 62721 62724 62727 62730 62733 62736 62739 62742 62745 62748 62751 62754 62757 62760 62763 62766 62769 62772 62775 62778 62781 62784 62787 62790 62793 62796 62799 62802 62805 62808 62811 62814 62817 62820 62823 62826 62829 62832 62835 62838 62841 62844 62847 62850 62853 62856 62859 62862 62865 62868 62871 62874 62877 62880 62883 62886 62889 62892 62895 62898 62901 62904 62907 62910 62913 62916 62919 62922 62925 62928 62931 62934 62937 62940 62943 62946 62949 62952 62955 62958 62961 62964 62967 62970 62973 62976 62979 62982 62985 62988 62991 62994 62997 63000 63003 63006 63009 63012 63015 63018 63021 63024 63027 63030 63033 63036 63039 63042 63045 63048 63051 63054 63057 63060 63063 63066 63069 63072 63075 63078 63081 63084 63087 63090 63093 63096 63099 63102 63105 63108 63111 63114 63117 63120 63123 63126 63129 63132 63135 63138 63141 63144 63147 63150 63153 63156 63159 63162 63165 63168 63171 63174 63177 63180 63183 63186 63189 63192 63195 63198 63201 63204 63207 63210 63213 63216 63219 63222 63225 63228 63231 63234 63237 63240 63243 63246 63249 63252 63255 63258 63261 63264 63267 63270 63273 63276 63279 63282 63285 63288 63291 63294 63297 63300 63303 63306 63309 63312 63315 63318 63321 63324 63327 63330 63333 63336 63339 63342 63345 63348 63351 63354 63357 63360 63363 63366 63369 63372 63375 63378 63381 63384 63387 63390 63393 63396 63399 63402 63405 63408 63411 63414 63417 63420 63423 63426 63429 63432 63435 63438 63441 63444 63447 63450 63453 63456 63459 63462 63465 63468 63471 63474 63477 63480 63483 63486 </DataArray>
<DataArray  type="UInt8"  Name="types"  format="ascii">5 5 5 5 5 5 5 5 5 5 5 5 5 5 5 5 5 5 5 5 5 5 5 5 5 5 5 5 5 5 5 5 5 5 5 5 5 5 5 5 5 5 5 5 5 5 5 5 5 5 5 5 5 5 5 5 5 5 5 5 5 5 5 5 5 5 5 5 5 5 5 5 5 5 5 5 5 5 5 5 5 5 5 5 5 5 5 5 5 5 5 5 5 5 5 5 5 5 5 5 5 5 5 5 5 5 5 5 5 5 5 5 5 5 5 5 5 5 5 5 5 5 5 5 5 5 5 5 5 5 5 5 5 5 5 5 5 5 5 5 5 5 5 5 5 5 5 5 5 5 5 5 5 5 5 5 5 5 5 5 5 5 5 5 5 5 5 5 5 5 5 5 5 5 5 5 5 5 5 5 5 5 5 5 5 5 5 5 5 5 5 5 5 5 5 5 5 5 5 5 5 5 5 5 5 5 5 5 5 5 5 5 5 5 5 5 5 5 5 5 5 5 5 5 5 5 5 5 5 5 5 5 5 5 5 5 5 5 5 5 5 5 5 5 5 5 5 5 5 5 5 5 5 5 5 5 5 5 5 5 5 5 5 5 5 5 5 5 5 5 5 5 5 5 5 5 5 5 5 5 5 5 5 5 5 5 5 5 5 5 5 5 5 5 5 5 5 5 5 5 5 5 5 5 5 5 5 5 5 5 5 5 5 5 5 5 5 5 5 5 5 5 5 5 5 5 5 5 5 5 5 5 5 5 5 5 5 5 5 5 5 5 5 5 5 5 5 5 5 5 5 5 5 5 5 5 5 5 5 5 5 5 5 5 5 5 5 5 5 5 5 5 5 5 5 5 5 5 5 5 5 5 5 5 5 5 5 5 5 5 5 5 5 5 5 5 5 5 5 5 5 5 5 5 5 5 5 5 5 5 5 5 5 5 5 5 5 5 5 5 5 5 5 5 5 5 5 5 5 5 5 5 5 5 5 5 5 5 5 5 5 5 5 5 5 5 5 5 5 5 5 5 5 5 5 5 5 5 5 5 5 5 5 5 5 5 5 5 5 5 5 5 5 5 5 5 5 5 5 5 5 5 5 5 5 5 5 5 5 5 5 5 5 5 5 5 5 5 5 5 5 5 5 5 5 5 5 5 5 5 5 5 5 5 5 5 5 5 5 5 5 5 5 5 5 5 5 5 5 5 5 5 5 5 5 5 5 5 5 5 5 5 5 5 5 5 5 5 5 5 5 5 5 5 5 5 5 5 5 5 5 5 5 5 5 5 5 5 5 5 5 5 5 5 5 5 5 5 5 5 5 5 5 5 5 5 5 5 5 5 5 5 5 5 5 5 5 5 5 5 5 5 5 5 5 5 5 5 5 5 5 5 5 5 5 5 5 5 5 5 5 5 5 5 5 5 5 5 5 5 5 5 5 5 5 5 5 5 5 5 5 5 5 5 5 5 5 5 5 5 5 5 5 5 5 5 5 5 5 5 5 5 5 5 5 5 5 5 5 5 5 5 5 5 5 5 5 5 5 5 5 5 5 5 5 5 5 5 5 5 5 5 5 5 5 5 5 5 5 5 5 5 5 5 5 5 5 5 5 5 5 5 5 5 5 5 5 5 5 5 5 5 5 5 5 5 5 5 5 5 5 5 5 5 5 5 5 5 5 5 5 5 5 5 5 5 5 5 5 5 5 5 5 5 5 5 5 5 5 5 5 5 5 5 5 5 5 5 5 5 5 5 5 5 5 5 5 5 5 5 5 5 5 5 5 5 5 5 5 5 5 5 5 5 5 5 5 5 5 5 5 5 5 5 5 5 5 5 5 5 5 5 5 5 5 5 5 5 5 5 5 5 5 5 5 5 5 5 5 5 5 5 5 5 5 5 5 5 5 5 5 5 5 5 5 5 5 5 5 5 5 5 5 5 5 5 5 5 5 5 5 5 5 5 5 5 5 5 5 5 5 5 5 5 5 5 5 5 5 5 5 5 5 5 5 5 5 5 5 5 5 5 5 5 5 5 5 5 5 5 5 5 5 5 5 5 5 5 5 5 5 5 5 5 5 5 5 5 5 5 5 5 5 5 5 5 5 5 5 5 5 5 5 5 5 5 5 5 5 5 5 5 5 5 5 5 5 5 5 5 5 5 5 5 5 5 5 5 5 5 5 5 5 5 5 5 5 5 5 5 5 5 5 5 5 5 5 5 5 5 5 5 5 5 5 5 5 5 5 5 5 5 5 5 5 5 5 5 5 5 5 5 5 5 5 5 5 5 5 5 5 5 5 5 5 5 5 5 5 5 5 5 5 5 5 5 5 5 5 5 5 5 5 5 5 5 5 5 5 5 5 5 5 5 5 5 5 5 5 5 5 5 5 5 5 5 5 5 5 5 5 5 5 5 5 5 5 5 5 5 5 5 5 5 5 5 5 5 5 5 5 5 5 5 5 5 5 5 5 5 5 5 5 5 5 5 5 5 5 5 5 5 5 5 5 5 5 5 5 5 5 5 5 5 5 5 5 5 5 5 5 5 5 5 5 5 5 5 5 5 5 5 5 5 5 5 5 5 5 5 5 5 5 5 5 5 5 5 5 5 5 5 5 5 5 5 5 5 5 5 5 5 5 5 5 5 5 5 5 5 5 5 5 5 5 5 5 5 5 5 5 5 5 5 5 5 5 5 5 5 5 5 5 5 5 5 5 5 5 5 5 5 5 5 5 5 5 5 5 5 5 5 5 5 5 5 5 5 5 5 5 5 5 5 5 5 5 5 5 5 5 5 5 5 5 5 5 5 5 5 5 5 5 5 5 5 5 5 5 5 5 5 5 5 5 5 5 5 5 5 5 5 5 5 5 5 5 5 5 5 5 5 5 5 5 5 5 5 5 5 5 5 5 5 5 5 5 5 5 5 5 5 5 5 5 5 5 5 5 5 5 5 5 5 5 5 5 5 5 5 5 5 5 5 5 5 5 5 5 5 5 5 5 5 5 5 5 5 5 5 5 5 5 5 5 5 5 5 5 5 5 5 5 5 5 5 5 5 5 5 5 5 5 5 5 5 5 5 5 5 5 5 5 5 5 5 5 5 5 5 5 5 5 5 5 5 5 5 5 5 5 5 5 5 5 5 5 5 5 5 5 5 5 5 5 5 5 5 5 5 5 5 5 5 5 5 5 5 5 5 5 5 5 5 5 5 5 5 5 5 5 5 5 5 5 5 5 5 5 5 5 5 5 5 5 5 5 5 5 5 5 5 5 5 5 5 5 5 5 5 5 5 5 5 5 5 5 5 5 5 5 5 5 5 5 5 5 5 5 5 5 5 5 5 5 5 5 5 5 5 5 5 5 5 5 5 5 5 5 5 5 5 5 5 5 5 5 5 5 5 5 5 5 5 5 5 5 5 5 5 5 5 5 5 5 5 5 5 5 5 5 5 5 5 5 5 5 5 5 5 5 5 5 5 5 5 5 5 5 5 5 5 5 5 5 5 5 5 5 5 5 5 5 5 5 5 5 5 5 5 5 5 5 5 5 5 5 5 5 5 5 5 5 5 5 5 5 5 5 5 5 5 5 5 5 5 5 5 5 5 5 5 5 5 5 5 5 5 5 5 5 5 5 5 5 5 5 5 5 5 5 5 5 5 5 5 5 5 5 5 5 5 5 5 5 5 5 5 5 5 5 5 5 5 5 5 5 5 5 5 5 5 5 5 5 5 5 5 5 5 5 5 5 5 5 5 5 5 5 5 5 5 5 5 5 5 5 5 5 5 5 5 5 5 5 5 5 5 5 5 5 5 5 5 5 5 5 5 5 5 5 5 5 5 5 5 5 5 5 5 5 5 5 5 5 5 5 5 5 5 5 5 5 5 5 5 5 5 5 5 5 5 5 5 5 5 5 5 5 5 5 5 5 5 5 5 5 5 5 5 5 5 5 5 5 5 5 5 5 5 5 5 5 5 5 5 5 5 5 5 5 5 5 5 5 5 5 5 5 5 5 5 5 5 5 5 5 5 5 5 5 5 5 5 5 5 5 5 5 5 5 5 5 5 5 5 5 5 5 5 5 5 5 5 5 5 5 5 5 5 5 5 5 5 5 5 5 5 5 5 5 5 5 5 5 5 5 5 5 5 5 5 5 5 5 5 5 5 5 5 5 5 5 5 5 5 5 5 5 5 5 5 5 5 5 5 5 5 5 5 5 5 5 5 5 5 5 5 5 5 5 5 5 5 5 5 5 5 5 5 5 5 5 5 5 5 5 5 5 5 5 5 5 5 5 5 5 5 5 5 5 5 5 5 5 5 5 5 5 5 5 5 5 5 5 5 5 5 5 5 5 5 5 5 5 5 5 5 5 5 5 5 5 5 5 5 5 5 5 5 5 5 5 5 5 5 5 5 5 5 5 5 5 5 5 5 5 5 5 5 5 5 5 5 5 5 5 5 5 5 5 5 5 5 5 5 5 5 5 5 5 5 5 5 5 5 5 5 5 5 5 5 5 5 5 5 5 5 5 5 5 5 5 5 5 5 5 5 5 5 5 5 5 5 5 5 5 5 5 5 5 5 5 5 5 5 5 5 5 5 5 5 5 5 5 5 5 5 5 5 5 5 5 5 5 5 5 5 5 5 5 5 5 5 5 5 5 5 5 5 5 5 5 5 5 5 5 5 5 5 5 5 5 5 5 5 5 5 5 5 5 5 5 5 5 5 5 5 5 5 5 5 5 5 5 5 5 5 5 5 5 5 5 5 5 5 5 5 5 5 5 5 5 5 5 5 5 5 5 5 5 5 5 5 5 5 5 5 5 5 5 5 5 5 5 5 5 5 5 5 5 5 5 5 5 5 5 5 5 5 5 5 5 5 5 5 5 5 5 5 5 5 5 5 5 5 5 5 5 5 5 5 5 5 5 5 5 5 5 5 5 5 5 5 5 5 5 5 5 5 5 5 5 5 5 5 5 5 5 5 5 5 5 5 5 5 5 5 5 5 5 5 5 5 5 5 5 5 5 5 5 5 5 5 5 5 5 5 5 5 5 5 5 5 5 5 5 5 5 5 5 5 5 5 5 5 5 5 5 5 5 5 5 5 5 5 5 5 5 5 5 5 5 5 5 5 5 5 5 5 5 5 5 5 5 5 5 5 5 5 5 5 5 5 5 5 5 5 5 5 5 5 5 5 5 5 5 5 5 5 5 5 5 5 5 5 5 5 5 5 5 5 5 5 5 5 5 5 5 5 5 5 5 5 5 5 5 5 5 5 5 5 5 5 5 5 5 5 5 5 5 5 5 5 5 5 5 5 5 5 5 5 5 5 5 5 5 5 5 5 5 5 5 5 5 5 5 5 5 5 5 5 5 5 5 5 5 5 5 5 5 5 5 5 5 5 5 5 5 5 5 5 5 5 5 5 5 5 5 5 5 5 5 5 5 5 5 5 5 5 5 5 5 5 5 5 5 5 5 5 5 5 5 5 5 5 5 5 5 5 5 5 5 5 5 5 5 5 5 5 5 5 5 5 5 5 5 5 5 5 5 5 5 5 5 5 5 5 5 5 5 5 5 5 5 5 5 5 5 5 5 5 5 5 5 5 5 5 5 5 5 5 5 5 5 5 5 5 5 5 5 5 5 5 5 5 5 5 5 5 5 5 5 5 5 5 5 5 5 5 5 5 5 5 5 5 5 5 5 5 5 5 5 5 5 5 5 5 5 5 5 5 5 5 5 5 5 5 5 5 5 5 5 5 5 5 5 5 5 5 5 5 5 5 5 5 5 5 5 5 5 5 5 5 5 5 5 5 5 5 5 5 5 5 5 5 5 5 5 5 5 5 5 5 5 5 5 5 5 5 5 5 5 5 5 5 5 5 5 5 5 5 5 5 5 5 5 5 5 5 5 5 5 5 5 5 5 5 5 5 5 5 5 5 5 5 5 5 5 5 5 5 5 5 5 5 5 5 5 5 5 5 5 5 5 5 5 5 5 5 5 5 5 5 5 5 5 5 5 5 5 5 5 5 5 5 5 5 5 5 5 5 5 5 5 5 5 5 5 5 5 5 5 5 5 5 5 5 5 5 5 5 5 5 5 5 5 5 5 5 5 5 5 5 5 5 5 5 5 5 5 5 5 5 5 5 5 5 5 5 5 5 5 5 5 5 5 5 5 5 5 5 5 5 5 5 5 5 5 5 5 5 5 5 5 5 5 5 5 5 5 5 5 5 5 5 5 5 5 5 5 5 5 5 5 5 5 5 5 5 5 5 5 5 5 5 5 5 5 5 5 5 5 5 5 5 5 5 5 5 5 5 5 5 5 5 5 5 5 5 5 5 5 5 5 5 5 5 5 5 5 5 5 5 5 5 5 5 5 5 5 5 5 5 5 5 5 5 5 5 5 5 5 5 5 5 5 5 5 5 5 5 5 5 5 5 5 5 5 5 5 5 5 5 5 5 5 5 5 5 5 5 5 5 5 5 5 5 5 5 5 5 5 5 5 5 5 5 5 5 5 5 5 5 5 5 5 5 5 5 5 5 5 5 5 5 5 5 5 5 5 5 5 5 5 5 5 5 5 5 5 5 5 5 5 5 5 5 5 5 5 5 5 5 5 5 5 5 5 5 5 5 5 5 5 5 5 5 5 5 5 5 5 5 5 5 5 5 5 5 5 5 5 5 5 5 5 5 5 5 5 5 5 5 5 5 5 5 5 5 5 5 5 5 5 5 5 5 5 5 5 5 5 5 5 5 5 5 5 5 5 5 5 5 5 5 5 5 5 5 5 5 5 5 5 5 5 5 5 5 5 5 5 5 5 5 5 5 5 5 5 5 5 5 5 5 5 5 5 5 5 5 5 5 5 5 5 5 5 5 5 5 5 5 5 5 5 5 5 5 5 5 5 5 5 5 5 5 5 5 5 5 5 5 5 5 5 5 5 5 5 5 5 5 5 5 5 5 5 5 5 5 5 5 5 5 5 5 5 5 5 5 5 5 5 5 5 5 5 5 5 5 5 5 5 5 5 5 5 5 5 5 5 5 5 5 5 5 5 5 5 5 5 5 5 5 5 5 5 5 5 5 5 5 5 5 5 5 5 5 5 5 5 5 5 5 5 5 5 5 5 5 5 5 5 5 5 5 5 5 5 5 5 5 5 5 5 5 5 5 5 5 5 5 5 5 5 5 5 5 5 5 5 5 5 5 5 5 5 5 5 5 5 5 5 5 5 5 5 5 5 5 5 5 5 5 5 5 5 5 5 5 5 5 5 5 5 5 5 5 5 5 5 5 5 5 5 5 5 5 5 5 5 5 5 5 5 5 5 5 5 5 5 5 5 5 5 5 5 5 5 5 5 5 5 5 5 5 5 5 5 5 5 5 5 5 5 5 5 5 5 5 5 5 5 5 5 5 5 5 5 5 5 5 5 5 5 5 5 5 5 5 5 5 5 5 5 5 5 5 5 5 5 5 5 5 5 5 5 5 5 5 5 5 5 5 5 5 5 5 5 5 5 5 5 5 5 5 5 5 5 5 5 5 5 5 5 5 5 5 5 5 5 5 5 5 5 5 5 5 5 5 5 5 5 5 5 5 5 5 5 5 5 5 5 5 5 5 5 5 5 5 5 5 5 5 5 5 5 5 5 5 5 5 5 5 5 5 5 5 5 5 5 5 5 5 5 5 5 5 5 5 5 5 5 5 5 5 5 5 5 5 5 5 5 5 5 5 5 5 5 5 5 5 5 5 5 5 5 5 5 5 5 5 5 5 5 5 5 5 5 5 5 5 5 5 5 5 5 5 5 5 5 5 5 5 5 5 5 5 5 5 5 5 5 5 5 5 5 5 5 5 5 5 5 5 5 5 5 5 5 5 5 5 5 5 5 5 5 5 5 5 5 5 5 5 5 5 5 5 5 5 5 5 5 5 5 5 5 5 5 5 5 5 5 5 5 5 5 5 5 5 5 5 5 5 5 5 5 5 5 5 5 5 5 5 5 5 5 5 5 5 5 5 5 5 5 5 5 5 5 5 5 5 5 5 5 5 5 5 5 5 5 5 5 5 5 5 5 5 5 5 5 5 5 5 5 5 5 5 5 5 5 5 5 5 5 5 5 5 5 5 5 5 5 5 5 5 5 5 5 5 5 5 5 5 5 5 5 5 5 5 5 5 5 5 5 5 5 5 5 5 5 5 5 5 5 5 5 5 5 5 5 5 5 5 5 5 5 5 5 5 5 5 5 5 5 5 5 5 5 5 5 5 5 5 5 5 5 5 5 5 5 5 5 5 5 5 5 5 5 5 5 5 5 5 5 5 5 5 5 5 5 5 5 5 5 5 5 5 5 5 5 5 5 5 5 5 5 5 5 5 5 5 5 5 5 5 5 5 5 5 5 5 5 5 5 5 5 5 5 5 5 5 5 5 5 5 5 5 5 5 5 5 5 5 5 5 5 5 5 5 5 5 5 5 5 5 5 5 5 5 5 5 5 5 5 5 5 5 5 5 5 5 5 5 5 5 5 5 5 5 5 5 5 5 5 5 5 5 5 5 5 5 5 5 5 5 5 5 5 5 5 5 5 5 5 5 5 5 5 5 5 5 5 5 5 5 5 5 5 5 5 5 5 5 5 5 5 5 5 5 5 5 5 5 5 5 5 5 5 5 5 5 5 5 5 5 5 5 5 5 5 5 5 5 5 5 5 5 5 5 5 5 5 5 5 5 5 5 5 5 5 5 5 5 5 5 5 5 5 5 5 5 5 5 5 5 5 5 5 5 5 5 5 5 5 5 5 5 5 5 5 5 5 5 5 5 5 5 5 5 5 5 5 5 5 5 5 5 5 5 5 5 5 5 5 5 5 5 5 5 5 5 5 5 5 5 5 5 5 5 5 5 5 5 5 5 5 5 5 5 5 5 5 5 5 5 5 5 5 5 5 5 5 5 5 5 5 5 5 5 5 5 5 5 5 5 5 5 5 5 5 5 5 5 5 5 5 5 5 5 5 5 5 5 5 5 5 5 5 5 5 5 5 5 5 5 5 5 5 5 5 5 5 5 5 5 5 5 5 5 5 5 5 5 5 5 5 5 5 5 5 5 5 5 5 5 5 5 5 5 5 5 5 5 5 5 5 5 5 5 5 5 5 5 5 5 5 5 5 5 5 5 5 5 5 5 5 5 5 5 5 5 5 5 5 5 5 5 5 5 5 5 5 5 5 5 5 5 5 5 5 5 5 5 5 5 5 5 5 5 5 5 5 5 5 5 5 5 5 5 5 5 5 5 5 5 5 5 5 5 5 5 5 5 5 5 5 5 5 5 5 5 5 5 5 5 5 5 5 5 5 5 5 5 5 5 5 5 5 5 5 5 5 5 5 5 5 5 5 5 5 5 5 5 5 5 5 5 5 5 5 5 5 5 5 5 5 5 5 5 5 5 5 5 5 5 5 5 5 5 5 5 5 5 5 5 5 5 5 5 5 5 5 5 5 5 5 5 5 5 5 5 5 5 5 5 5 5 5 5 5 5 5 5 5 5 5 5 5 5 5 5 5 5 5 5 5 5 5 5 5 5 5 5 5 5 5 5 5 5 5 5 5 5 5 5 5 5 5 5 5 5 5 5 5 5 5 5 5 5 5 5 5 5 5 5 5 5 5 5 5 5 5 5 5 5 5 5 5 5 5 5 5 5 5 5 5 5 5 5 5 5 5 5 5 5 5 5 5 5 5 5 5 5 5 5 5 5 5 5 5 5 5 5 5 5 5 5 5 5 5 5 5 5 5 5 5 5 5 5 5 5 5 5 5 5 5 5 5 5 5 5 5 5 5 5 5 5 5 5 5 5 5 5 5 5 5 5 5 5 5 5 5 5 5 5 5 5 5 5 5 5 5 5 5 5 5 5 5 5 5 5 5 5 5 5 5 5 5 5 5 5 5 5 5 5 5 5 5 5 5 5 5 5 5 5 5 5 5 5 5 5 5 5 5 5 5 5 5 5 5 5 5 5 5 5 5 5 5 5 5 5 5 5 5 5 5 5 5 5 5 5 5 5 5 5 5 5 5 5 5 5 5 5 5 5 5 5 5 5 5 5 5 5 5 5 5 5 5 5 5 5 5 5 5 5 5 5 5 5 5 5 5 5 5 5 5 5 5 5 5 5 5 5 5 5 5 5 5 5 5 5 5 5 5 5 5 5 5 5 5 5 5 5 5 5 5 5 5 5 5 5 5 5 5 5 5 5 5 5 5 5 5 5 5 5 5 5 5 5 5 5 5 5 5 5 5 5 5 5 5 5 5 5 5 5 5 5 5 5 5 5 5 5 5 5 5 5 5 5 5 5 5 5 5 5 5 5 5 5 5 5 5 5 5 5 5 5 5 5 5 5 5 5 5 5 5 5 5 5 5 5 5 5 5 5 5 5 5 5 5 5 5 5 5 5 5 5 5 5 5 5 5 5 5 5 5 5 5 5 5 5 5 5 5 5 5 5 5 5 5 5 5 5 5 5 5 5 5 5 5 5 5 5 5 5 5 5 5 5 5 5 5 5 5 5 5 5 5 5 5 5 5 5 5 5 5 5 5 5 5 5 5 5 5 5 5 5 5 5 5 5 5 5 5 5 5 5 5 5 5 5 5 5 5 5 5 5 5 5 5 5 5 5 5 5 5 5 5 5 5 5 5 5 5 5 5 5 5 5 5 5 5 5 5 5 5 5 5 5 5 5 5 5 5 5 5 5 5 5 5 5 5 5 5 5 5 5 5 5 5 5 5 5 5 5 5 5 5 5 5 5 5 5 5 5 5 5 5 5 5 5 5 5 5 5 5 5 5 5 5 5 5 5 5 5 5 5 5 5 5 5 5 5 5 5 5 5 5 5 5 5 5 5 5 5 5 5 5 5 5 5 5 5 5 5 5 5 5 5 5 5 5 5 5 5 5 5 5 5 5 5 5 5 5 5 5 5 5 5 5 5 5 5 5 5 5 5 5 5 5 5 5 5 5 5 5 5 5 5 5 5 5 5 5 5 5 5 5 5 5 5 5 5 5 5 5 5 5 5 5 5 5 5 5 5 5 5 5 5 5 5 5 5 5 5 5 5 5 5 5 5 5 5 5 5 5 5 5 5 5 5 5 5 5 5 5 5 5 5 5 5 5 5 5 5 5 5 5 5 5 5 5 5 5 5 5 5 5 5 5 5 5 5 5 5 5 5 5 5 5 5 5 5 5 5 5 5 5 5 5 5 5 5 5 5 5 5 5 5 5 5 5 5 5 5 5 5 5 5 5 5 5 5 5 5 5 5 5 5 5 5 5 5 5 5 5 5 5 5 5 5 5 5 5 5 5 5 5 5 5 5 5 5 5 5 5 5 5 5 5 5 5 5 5 5 5 5 5 5 5 5 5 5 5 5 5 5 5 5 5 5 5 5 5 5 5 5 5 5 5 5 5 5 5 5 5 5 5 5 5 5 5 5 5 5 5 5 5 5 5 5 5 5 5 5 5 5 5 5 5 5 5 5 5 5 5 5 5 5 5 5 5 5 5 5 5 5 5 5 5 5 5 5 5 5 5 5 5 5 5 5 5 5 5 5 5 5 5 5 5 5 5 5 5 5 5 5 5 5 5 5 5 5 5 5 5 5 5 5 5 5 5 5 5 5 5 5 5 5 5 5 5 5 5 5 5 5 5 5 5 5 5 5 5 5 5 5 5 5 5 5 5 5 5 5 5 5 5 5 5 5 5 5 5 5 5 5 5 5 5 5 5 5 5 5 5 5 5 5 5 5 5 5 5 5 5 5 5 5 5 5 5 5 5 5 5 5 5 5 5 5 5 5 5 5 5 5 5 5 5 5 5 5 5 5 5 5 5 5 5 5 5 5 5 5 5 5 5 5 5 5 5 5 5 5 5 5 5 5 5 5 5 5 5 5 5 5 5 5 5 5 5 5 5 5 5 5 5 5 5 5 5 5 5 5 5 5 5 5 5 5 5 5 5 5 5 5 5 5 5 5 5 5 5 5 5 5 5 5 5 5 5 5 5 5 5 5 5 5 5 5 5 5 5 5 5 5 5 5 5 5 5 5 5 5 5 5 5 5 5 5 5 5 5 5 5 5 5 5 5 5 5 5 5 5 5 5 5 5 5 5 5 5 5 5 5 5 5 5 5 5 5 5 5 5 5 5 5 5 5 5 5 5 5 5 5 5 5 5 5 5 5 5 5 5 5 5 5 5 5 5 5 5 5 5 5 5 5 5 5 5 5 5 5 5 5 5 5 5 5 5 5 5 5 5 5 5 5 5 5 5 5 5 5 5 5 5 5 5 5 5 5 5 5 5 5 5 5 5 5 5 5 5 5 5 5 5 5 5 5 5 5 5 5 5 5 5 5 5 5 5 5 5 5 5 5 5 5 5 5 5 5 5 5 5 5 5 5 5 5 5 5 5 5 5 5 5 5 5 5 5 5 5 5 5 5 5 5 5 5 5 5 5 5 5 5 5 5 5 5 5 5 5 5 5 5 5 5 5 5 5 5 5 5 5 5 5 5 5 5 5 5 5 5 5 5 5 5 5 5 5 5 5 5 5 5 5 5 5 5 5 5 5 5 5 5 5 5 5 5 5 5 5 5 5 5 5 5 5 5 5 5 5 5 5 5 5 5 5 5 5 5 5 5 5 5 5 5 5 5 5 5 5 5 5 5 5 5 5 5 5 5 5 5 5 5 5 5 5 5 5 5 5 5 5 5 5 5 5 5 5 5 5 5 5 5 5 5 5 5 5 5 5 5 5 5 5 5 5 5 5 5 5 5 5 5 5 5 5 5 5 5 5 5 5 5 5 5 5 5 5 5 5 5 5 5 5 5 5 5 5 5 5 5 5 5 5 5 5 5 5 5 5 5 5 5 5 5 5 5 5 5 5 5 5 5 5 5 5 5 5 5 5 5 5 5 5 5 5 5 5 5 5 5 5 5 5 5 5 5 5 5 5 5 5 5 5 5 5 5 5 5 5 5 5 5 5 5 5 5 5 5 5 5 5 5 5 5 5 5 5 5 5 5 5 5 5 5 5 5 5 5 5 5 5 5 5 5 5 5 5 5 5 5 5 5 5 5 5 5 5 5 5 5 5 5 5 5 5 5 5 5 5 5 5 5 5 5 5 5 5 5 5 5 5 5 5 5 5 5 5 5 5 5 5 5 5 5 5 5 5 5 5 5 5 5 5 5 5 5 5 5 5 5 5 5 5 5 5 5 5 5 5 5 5 5 5 5 5 5 5 5 5 5 5 5 5 5 5 5 5 5 5 5 5 5 5 5 5 5 5 5 5 5 5 5 5 5 5 5 5 5 5 5 5 5 5 5 5 5 5 5 5 5 5 5 5 5 5 5 5 5 5 5 5 5 5 5 5 5 5 5 5 5 5 5 5 5 5 5 5 5 5 5 5 5 5 5 5 5 5 5 5 5 5 5 5 5 5 5 5 5 5 5 5 5 5 5 5 5 5 5 5 5 5 5 5 5 5 5 5 5 5 5 5 5 5 5 5 5 5 5 5 5 5 5 5 5 5 5 5 5 5 5 5 5 5 5 5 5 5 5 5 5 5 5 5 5 5 5 5 5 5 5 5 5 5 5 5 5 5 5 5 5 5 5 5 5 5 5 5 5 5 5 5 5 5 5 5 5 5 5 5 5 5 5 5 5 5 5 5 5 5 5 5 5 5 5 5 5 5 5 5 5 5 5 5 5 5 5 5 5 5 5 5 5 5 5 5 5 5 5 5 5 5 5 5 5 5 5 5 5 5 5 5 5 5 5 5 5 5 5 5 5 5 5 5 5 5 5 5 5 5 5 5 5 5 5 5 5 5 5 5 5 5 5 5 5 5 5 5 5 5 5 5 5 5 5 5 5 5 5 5 5 5 5 5 5 5 5 5 5 5 5 5 5 5 5 5 5 5 5 5 5 5 5 5 5 5 5 5 5 5 5 5 5 5 5 5 5 5 5 5 5 5 5 5 5 5 5 5 5 5 5 5 5 5 5 5 5 5 5 5 5 5 5 5 5 5 5 5 5 5 5 5 5 5 5 5 5 5 5 5 5 5 5 5 5 5 5 5 5 5 5 5 5 5 5 5 5 5 5 5 5 5 5 5 5 5 5 5 5 5 5 5 5 5 5 5 5 5 5 5 5 5 5 5 5 5 5 5 5 5 5 5 5 5 5 5 5 5 5 5 5 5 5 5 5 5 5 5 5 5 5 5 5 5 5 5 5 5 5 5 5 5 5 5 5 5 5 5 5 5 5 5 5 5 5 5 5 5 5 5 5 5 5 5 5 5 5 5 5 5 5 5 5 5 5 5 5 5 5 5 5 5 5 5 5 5 5 5 5 5 5 5 5 5 5 5 5 5 5 5 5 5 5 5 5 5 5 5 5 5 5 5 5 5 5 5 5 5 5 5 5 5 5 5 5 5 5 5 5 5 5 5 5 5 5 5 5 5 5 5 5 5 5 5 5 5 5 5 5 5 5 5 5 5 5 5 5 5 5 5 5 5 5 5 5 5 5 5 5 5 5 5 5 5 5 5 5 5 5 5 5 5 5 5 5 5 5 5 5 5 5 5 5 5 5 5 5 5 5 5 5 5 5 5 5 5 5 5 5 5 5 5 5 5 5 5 5 5 5 5 5 5 5 5 5 5 5 5 5 5 5 5 5 5 5 5 5 5 5 5 5 5 5 5 5 5 5 5 5 5 5 5 5 5 5 5 5 5 5 5 5 5 5 5 5 5 5 5 5 5 5 5 5 5 5 5 5 5 5 5 5 5 5 5 5 5 5 5 5 5 5 5 5 5 5 5 5 5 5 5 5 5 5 5 5 5 5 5 5 5 5 5 5 5 5 5 5 5 5 5 5 5 5 5 5 5 5 5 5 5 5 5 5 5 5 5 5 5 5 5 5 5 5 5 5 5 5 5 5 5 5 5 5 5 5 5 5 5 5 5 5 5 5 5 5 5 5 5 5 5 5 5 5 5 5 5 5 5 5 5 5 5 5 5 5 5 5 5 5 5 5 5 5 5 5 5 5 5 5 5 5 5 5 5 5 5 5 5 5 5 5 5 5 5 5 5 5 5 5 5 5 5 5 5 5 5 5 5 5 5 5 5 5 5 5 5 5 5 5 5 5 5 5 5 5 5 5 5 5 5 5 5 5 5 5 5 5 5 5 5 5 5 5 5 5 5 5 5 5 5 5 5 5 5 5 5 5 5 5 5 5 5 5 5 5 5 5 5 5 5 5 5 5 5 5 5 5 5 5 5 5 5 5 5 5 5 5 5 5 5 5 5 5 5 5 5 5 5 5 5 5 5 5 5 5 5 5 5 5 5 5 5 5 5 5 5 5 5 5 5 5 5 5 5 5 5 5 5 5 5 5 5 5 5 5 5 5 5 5 5 5 5 5 5 5 5 5 5 5 5 5 5 5 5 5 5 5 5 5 5 5 5 5 5 5 5 5 5 5 5 5 5 5 5 5 5 5 5 5 5 5 5 5 5 5 5 5 5 5 5 5 5 5 5 5 5 5 5 5 5 5 5 5 5 5 5 5 5 5 5 5 5 5 5 5 5 5 5 5 5 5 5 5 5 5 5 5 5 5 5 5 5 5 5 5 5 5 5 5 5 5 5 5 5 5 5 5 5 5 5 5 5 5 5 5 5 5 5 5 5 5 5 5 5 5 5 5 5 5 5 5 5 5 5 5 5 5 5 5 5 5 5 5 5 5 5 5 5 5 5 5 5 5 5 5 5 5 5 5 5 5 5 5 5 5 5 5 5 5 5 5 5 5 5 5 5 5 5 5 5 5 5 5 5 5 5 5 5 5 5 5 5 5 5 5 5 5 5 5 5 5 5 5 5 5 5 5 5 5 5 5 5 5 5 5 5 5 5 5 5 5 5 5 5 5 5 5 5 5 5 5 5 5 5 5 5 5 5 5 5 5 5 5 5 5 5 5 5 5 5 5 5 5 5 5 5 5 5 5 5 5 5 5 5 5 5 5 5 5 5 5 5 5 5 5 5 5 5 5 5 5 5 5 5 5 5 5 5 5 5 5 5 5 5 5 5 5 5 5 5 5 5 5 5 5 5 5 5 5 5 5 5 5 5 5 5 5 5 5 5 5 5 5 5 5 5 5 5 5 5 5 5 5 5 5 5 5 5 5 5 5 5 5 5 5 5 5 5 5 5 5 5 5 5 5 5 5 5 5 5 5 5 5 5 5 5 5 5 5 5 5 5 5 5 5 5 5 5 5 5 5 5 5 5 5 5 5 5 5 5 5 5 5 5 5 5 5 5 5 5 5 5 5 5 5 5 5 5 5 5 5 5 5 5 5 5 5 5 5 5 5 5 5 5 5 5 5 5 5 5 5 5 5 5 5 5 5 5 5 5 5 5 5 5 5 5 5 5 5 5 5 5 5 5 5 5 5 5 5 5 5 5 5 5 5 5 5 5 5 5 5 5 5 5 5 5 5 5 5 5 5 5 5 5 5 5 5 5 5 5 5 5 5 5 5 5 5 5 5 5 5 5 5 5 5 5 5 5 5 5 5 5 5 5 5 5 5 5 5 5 5 5 5 5 5 5 5 5 5 5 5 5 5 5 5 5 5 5 5 5 5 5 5 5 5 5 5 5 5 5 5 5 5 5 5 5 5 5 5 5 5 5 5 5 5 5 5 5 5 5 5 5 5 5 5 5 5 5 5 5 5 5 5 5 5 5 5 5 5 5 5 5 5 5 5 5 5 5 5 5 5 5 5 5 5 5 5 5 5 5 5 5 5 5 5 5 5 5 5 5 5 5 5 5 5 5 5 5 5 5 5 5 5 5 5 5 5 5 5 5 5 5 5 5 5 5 5 5 5 5 5 5 5 5 5 5 5 5 5 5 5 5 5 5 5 5 5 5 5 5 5 5 5 5 5 5 5 5 5 5 5 5 5 5 5 5 5 5 5 5 5 5 5 5 5 5 5 5 5 5 5 5 5 5 5 5 5 5 5 5 5 5 5 5 5 5 5 5 5 5 5 5 5 5 5 5 5 5 5 5 5 5 5 5 5 5 5 5 5 5 5 5 5 5 5 5 5 5 5 5 5 5 5 5 5 5 5 5 5 5 5 5 5 5 5 5 5 5 5 5 5 5 5 5 5 5 5 5 5 5 5 5 5 5 5 5 5 5 5 5 5 5 5 5 5 5 5 5 5 5 5 5 5 5 5 5 5 5 5 5 5 5 5 5 5 5 5 5 5 5 5 5 5 5 5 5 5 5 5 5 5 5 5 5 5 5 5 5 5 5 5 5 5 5 5 5 5 5 5 5 5 5 5 5 5 5 5 5 5 5 5 5 5 5 5 5 5 5 5 5 5 5 5 5 5 5 5 5 5 5 5 5 5 5 5 5 5 5 5 5 5 5 5 5 5 5 5 5 5 5 5 5 5 5 5 5 5 5 5 5 5 5 5 5 5 5 5 5 5 5 5 5 5 5 5 5 5 5 5 5 5 5 5 5 5 5 5 5 5 5 5 5 5 5 5 5 5 5 5 5 5 5 5 5 5 5 5 5 5 5 5 5 5 5 5 5 5 5 5 5 5 5 5 5 5 5 5 5 5 5 5 5 5 5 5 5 5 5 5 5 5 5 5 5 5 5 5 5 5 5 5 5 5 5 5 5 5 5 5 5 5 5 5 5 5 5 5 5 5 5 5 5 5 5 5 5 5 5 5 5 5 5 5 5 5 5 5 5 5 5 5 5 5 5 5 5 5 5 5 5 5 5 5 5 5 5 5 5 5 5 5 5 5 5 5 5 5 5 5 5 5 5 5 5 5 5 5 5 5 5 5 5 5 5 5 5 5 5 5 5 5 5 5 5 5 5 5 5 5 5 5 5 5 5 5 5 5 5 5 5 5 5 5 5 5 5 5 5 5 5 5 5 5 5 5 5 5 5 5 5 5 5 5 5 5 5 5 5 5 5 5 5 5 5 5 5 5 5 5 5 5 5 5 5 5 5 5 5 5 5 5 5 5 5 5 5 5 5 5 5 5 5 5 5 5 5 5 5 5 5 5 5 5 5 5 5 5 5 5 5 5 5 5 5 5 5 5 5 5 5 5 5 5 5 5 5 5 5 5 5 5 5 5 5 5 5 5 5 5 5 5 5 5 5 5 5 5 5 5 5 5 5 5 5 5 5 5 5 5 5 5 5 5 5 5 5 5 5 5 5 5 5 5 5 5 5 5 5 5 5 5 5 5 5 5 5 5 5 5 5 5 5 5 5 5 5 5 5 5 5 5 5 5 5 5 5 5 5 5 5 5 5 5 5 5 5 5 5 5 5 5 5 5 5 5 5 5 5 5 5 5 5 5 5 5 5 5 5 5 5 5 5 5 5 5 5 5 5 5 5 5 5 5 5 5 5 5 5 5 5 5 5 5 5 5 5 5 5 5 5 5 5 5 5 5 5 5 5 5 5 5 5 5 5 5 5 5 5 5 5 5 5 5 5 5 5 5 5 5 5 5 5 5 5 5 5 5 5 5 5 5 5 5 5 5 5 5 5 5 5 5 5 5 5 5 5 5 5 5 5 5 5 5 5 5 5 5 5 5 5 5 5 5 5 5 5 5 5 5 5 5 5 5 5 5 5 5 5 5 5 5 5 5 5 5 5 5 5 5 5 5 5 5 5 5 5 5 5 5 5 5 5 5 5 5 5 5 5 5 5 5 5 5 5 5 5 5 5 5 5 5 5 5 5 5 5 5 5 5 5 5 5 5 5 5 5 5 5 5 5 5 5 5 5 5 5 5 5 5 5 5 5 5 5 5 5 5 5 5 5 5 5 5 5 5 5 5 5 5 5 5 5 5 5 5 5 5 5 5 5 5 5 5 5 5 5 5 5 5 5 5 5 5 5 5 5 5 5 5 5 5 5 5 5 5 5 5 5 5 5 5 5 5 5 5 5 5 5 5 5 5 5 5 5 5 5 5 5 5 5 5 5 5 5 5 5 5 5 5 5 5 5 5 5 5 5 5 5 5 5 5 5 5 5 5 5 5 5 5 5 5 5 5 5 5 5 5 5 5 5 5 5 5 5 5 5 5 5 5 5 5 5 5 5 5 5 5 5 5 5 5 5 5 5 5 5 5 5 5 5 5 5 5 5 5 5 5 5 5 5 5 5 5 5 5 5 5 5 5 5 5 5 5 5 5 5 5 5 5 5 5 5 5 5 5 5 5 5 5 5 5 5 5 5 5 5 5 5 5 5 5 5 5 5 5 5 5 5 5 5 5 5 5 5 5 5 5 5 5 5 5 5 5 5 5 5 5 5 5 5 5 5 5 5 5 5 5 5 5 5 5 5 5 5 5 5 5 5 5 5 5 5 5 5 5 5 5 5 5 5 5 5 5 5 5 5 5 5 5 5 5 5 5 5 5 5 5 5 5 5 5 5 5 5 5 5 5 5 5 5 5 5 5 5 5 5 5 5 5 5 5 5 5 5 5 5 5 5 5 5 5 5 5 5 5 5 5 5 5 5 5 5 5 5 5 5 5 5 5 5 5 5 5 5 5 5 5 5 5 5 5 5 5 5 5 5 5 5 5 5 5 5 5 5 5 5 5 5 5 5 5 5 5 5 5 5 5 5 5 5 5 5 5 5 5 5 5 5 5 5 5 5 5 5 5 5 5 5 5 5 5 5 5 5 5 5 5 5 5 5 5 5 5 5 5 5 5 5 5 5 5 5 5 5 5 5 5 5 5 5 5 5 5 5 5 5 5 5 5 5 5 5 5 5 5 5 5 5 5 5 5 5 5 5 5 5 5 5 5 5 5 5 5 5 5 5 5 5 5 5 5 5 5 5 5 5 5 5 5 5 5 5 5 5 5 5 5 5 5 5 5 5 5 5 5 5 5 5 5 5 5 5 5 5 5 5 5 5 5 5 5 5 5 5 5 5 5 5 5 5 5 5 5 5 5 5 5 5 5 5 5 5 5 5 5 5 5 5 5 5 5 5 5 5 5 5 5 5 5 5 5 5 5 5 5 5 5 5 5 5 5 5 5 5 5 5 5 5 5 5 5 5 5 5 5 5 5 5 5 5 5 5 5 5 5 5 5 5 5 5 5 5 5 5 5 5 5 5 5 5 5 5 5 5 5 5 5 5 5 5 5 5 5 5 5 5 5 5 5 5 5 5 5 5 5 5 5 5 5 5 5 5 5 5 5 5 5 5 5 5 5 5 5 5 5 5 5 5 5 5 5 5 5 5 5 5 5 5 5 5 5 5 5 5 5 5 5 5 5 5 5 5 5 5 5 5 5 5 5 5 5 5 5 5 5 5 5 5 5 5 5 5 5 5 5 5 5 5 5 5 5 5 5 5 5 5 5 5 5 5 5 5 5 5 5 5 5 5 5 5 5 5 5 5 5 5 5 5 5 5 5 5 5 5 5 5 5 5 5 5 5 5 5 5 5 5 5 5 5 5 5 5 5 5 5 5 5 5 5 5 5 5 5 5 5 5 5 5 5 5 5 5 5 5 5 5 5 5 5 5 5 5 5 5 5 5 5 5 5 5 5 5 5 5 5 5 5 5 5 5 5 5 5 5 5 5 5 5 5 5 5 5 5 5 5 5 5 5 5 5 5 5 5 5 5 5 5 5 5 5 5 5 5 5 5 5 5 5 5 5 5 5 5 5 5 5 5 5 5 5 5 5 5 5 5 5 5 5 5 5 5 5 5 5 5 5 5 5 5 5 5 5 5 5 5 5 5 5 5 5 5 5 5 5 5 5 5 5 5 5 5 5 5 5 5 5 5 5 5 5 5 5 5 5 5 5 5 5 5 5 5 5 5 5 5 5 5 5 5 5 5 5 5 5 5 5 5 5 5 5 5 5 5 5 5 5 5 5 5 5 5 5 5 5 5 5 5 5 5 5 5 5 5 5 5 5 5 5 5 5 5 5 5 5 5 5 5 5 5 5 5 5 5 5 5 5 5 5 5 5 5 5 5 5 5 5 5 5 5 5 5 5 5 5 5 5 5 5 5 5 5 5 5 5 5 5 5 5 5 5 5 5 5 5 5 5 5 5 5 5 5 5 5 5 5 5 5 5 5 5 5 5 5 5 5 5 5 5 5 5 5 5 5 5 5 5 5 5 5 5 5 5 5 5 5 5 5 5 5 5 5 5 5 5 5 5 5 5 5 5 5 5 5 5 5 5 5 5 5 5 5 5 5 5 5 5 5 5 5 5 5 5 5 5 5 5 5 5 5 5 5 5 5 5 5 5 5 5 5 5 5 5 5 5 5 5 5 5 5 5 5 5 5 5 5 5 5 5 5 5 5 5 5 5 5 5 5 5 5 5 5 5 5 5 5 5 5 5 5 5 5 5 5 5 5 5 5 5 5 5 5 5 5 5 5 5 5 5 5 5 5 5 5 5 5 5 5 5 5 5 5 5 5 5 5 5 5 5 5 5 5 5 5 5 5 5 5 5 5 5 5 5 5 5 5 5 5 5 5 5 5 5 5 5 5 5 5 5 5 5 5 5 5 5 5 5 5 5 5 5 5 5 5 5 5 5 5 5 5 5 5 5 5 5 5 5 5 5 5 5 5 5 5 5 5 5 5 5 5 5 5 5 5 5 5 5 5 5 5 5 5 5 5 5 5 5 5 5 5 5 5 5 5 5 5 5 5 5 5 5 5 5 5 5 5 5 5 5 5 5 5 5 5 5 5 5 5 5 5 5 5 5 5 5 5 5 5 5 5 5 5 5 5 5 5 5 5 5 5 5 5 5 5 5 5 5 5 5 5 5 5 5 5 5 5 5 5 5 5 5 5 5 5 5 5 5 5 5 5 5 5 5 5 5 5 5 5 5 5 5 5 5 5 5 5 5 5 5 5 5 5 5 5 5 5 5 5 5 5 5 5 5 5 5 5 5 5 5 5 5 5 5 5 5 5 5 5 5 5 5 5 5 5 5 5 5 5 5 5 5 5 5 5 5 5 5 5 5 5 5 5 5 5 5 5 5 5 5 5 5 5 5 5 5 5 5 5 5 5 5 5 5 5 5 5 5 5 5 5 5 5 5 5 5 5 5 5 5 5 5 5 5 5 5 5 5 5 5 5 5 5 5 5 5 5 5 5 5 5 5 5 5 5 5 5 5 5 5 5 5 5 5 5 5 5 5 5 5 5 5 5 5 5 5 5 5 5 5 5 5 5 5 5 5 5 5 5 5 5 5 5 5 5 5 5 5 5 5 5 5 5 5 5 5 5 5 5 5 5 5 5 5 5 5 5 5 5 5 5 5 5 5 5 5 5 5 5 5 5 5 5 5 5 5 5 5 5 5 5 5 5 5 5 5 5 5 5 5 5 5 5 5 5 5 5 5 5 5 5 5 5 5 5 5 5 5 5 5 5 5 5 5 5 5 5 5 5 5 5 5 5 5 5 5 5 5 5 5 5 5 5 5 5 5 5 5 5 5 5 5 5 5 5 5 5 5 5 5 5 5 5 5 5 5 5 5 5 5 5 5 5 5 5 5 5 5 5 5 5 5 5 5 5 5 5 5 5 5 5 5 5 5 5 5 5 5 5 5 5 5 5 5 5 5 5 5 5 5 5 5 5 5 5 5 5 5 5 5 5 5 5 5 5 5 5 5 5 5 5 5 5 5 5 5 5 5 5 5 5 5 5 5 5 5 5 5 5 5 5 5 5 5 5 5 5 5 5 5 5 5 5 5 5 5 5 5 5 5 5 5 5 5 5 5 5 5 5 5 5 5 5 5 5 5 5 5 5 5 5 5 5 5 5 5 5 5 5 5 5 5 5 5 5 5 5 5 5 5 5 5 5 5 5 5 5 5 5 5 5 5 5 5 5 5 5 5 5 5 5 5 5 5 5 5 5 5 5 5 5 5 5 5 5 5 5 5 5 5 5 5 5 5 5 5 5 5 5 5 5 5 5 5 5 5 5 5 5 5 5 5 5 5 5 5 5 5 5 5 5 5 5 5 5 5 5 5 5 5 5 5 5 5 5 5 5 5 5 5 5 5 5 5 5 5 5 5 5 5 5 5 5 5 5 5 5 5 5 5 5 5 5 5 5 5 5 5 5 5 5 5 5 5 5 5 5 5 5 5 5 5 5 5 5 5 5 5 5 5 5 5 5 5 5 5 5 5 5 5 5 5 5 5 5 5 5 5 5 5 5 5 5 5 5 5 5 5 5 5 5 5 5 5 5 5 5 5 5 5 5 5 5 5 5 5 5 5 5 5 5 5 5 5 5 5 5 5 5 5 5 5 5 5 5 5 5 5 5 5 5 5 5 5 5 5 5 5 5 5 5 5 5 5 5 5 5 5 5 5 5 5 5 5 5 5 5 5 5 5 5 5 5 5 5 5 5 5 5 5 5 5 5 5 5 5 5 5 5 5 5 5 5 5 5 5 5 5 5 5 5 5 5 5 5 5 5 5 5 5 5 5 5 5 5 5 5 5 5 5 5 5 5 5 5 5 5 5 5 5 5 5 5 5 5 5 5 5 5 5 5 5 5 5 5 5 5 5 5 5 5 5 5 5 5 5 5 5 5 5 5 5 5 5 5 5 5 5 5 5 5 5 5 5 5 5 5 5 5 5 5 5 5 5 5 5 5 5 5 5 5 5 5 5 5 5 5 5 5 5 5 5 5 5 5 5 5 5 5 5 5 5 5 5 5 5 5 5 5 5 5 5 5 5 5 5 5 5 5 5 5 5 5 5 5 5 5 5 5 5 5 5 5 5 5 5 5 5 5 5 5 5 5 5 5 5 5 5 5 5 5 5 5 5 5 5 5 5 5 5 5 5 5 5 5 5 5 5 5 5 5 5 5 5 5 5 5 5 5 5 5 5 5 5 5 5 5 5 5 5 5 5 5 5 5 5 5 5 5 5 5 5 5 5 5 5 5 5 5 5 5 5 5 5 5 5 5 5 5 5 5 5 5 5 5 5 5 5 5 5 5 5 5 5 5 5 5 5 5 5 5 5 5 5 5 5 5 5 5 5 5 5 5 5 5 5 5 5 5 5 5 5 5 5 5 5 5 5 5 5 5 5 5 5 5 5 5 5 5 5 5 5 5 5 5 5 5 5 5 5 5 5 5 5 5 5 5 5 5 5 5 5 5 5 5 5 5 5 5 5 5 5 5 5 5 5 5 5 5 5 5 5 5 5 5 5 5 5 5 5 5 5 5 5 5 5 5 5 5 5 5 5 5 5 5 5 5 5 5 5 5 5 5 5 5 5 5 5 5 5 5 5 5 5 5 5 5 5 5 5 5 5 5 5 5 5 5 5 5 5 5 5 5 5 5 5 5 5 5 5 5 5 5 5 5 5 5 5 5 5 5 5 5 5 5 5 5 5 5 5 5 5 5 5 5 5 5 5 5 5 5 5 5 5 5 5 5 5 5 5 5 5 5 5 5 5 5 5 5 5 5 5 5 5 5 5 5 5 5 5 5 5 5 5 5 5 5 5 5 5 5 5 5 5 5 5 5 5 5 5 5 5 5 5 5 5 5 5 5 5 5 5 5 5 5 5 5 5 5 5 5 5 5 5 5 5 5 5 5 5 5 5 5 5 5 5 5 5 5 5 5 5 5 5 5 5 5 5 5 5 5 5 5 5 5 5 5 5 5 5 5 5 5 5 5 5 5 5 5 5 5 5 5 5 5 5 5 5 5 5 5 5 5 5 5 5 5 5 5 5 5 5 5 5 5 5 5 5 5 5 5 5 5 5 5 5 5 5 5 5 5 5 5 5 5 5 5 5 5 5 5 5 5 5 5 5 5 5 5 5 5 5 5 5 5 5 5 5 5 5 5 5 5 5 5 5 5 5 5 5 5 5 5 5 5 5 5 5 5 5 5 5 5 5 5 5 5 5 5 5 5 5 5 5 5 5 5 5 5 5 5 5 5 5 5 5 5 5 5 5 5 5 5 5 5 5 5 5 5 5 5 5 5 5 5 5 5 5 5 5 5 5 5 5 5 5 5 5 5 5 5 5 5 5 5 5 5 5 5 5 5 5 5 5 5 5 5 5 5 5 5 5 5 5 5 5 5 5 5 5 5 5 5 5 5 5 5 5 5 5 5 5 5 5 5 5 5 5 5 5 5 5 5 5 5 5 5 5 5 5 5 5 5 5 5 5 5 5 5 5 5 5 5 5 5 5 5 5 5 5 5 5 5 5 5 5 5 5 5 5 5 5 5 5 5 5 5 5 5 5 5 5 5 5 5 5 5 5 5 5 5 5 5 5 5 5 5 5 5 5 5 5 5 5 5 5 5 5 5 5 5 5 5 5 5 5 5 5 5 5 5 5 5 5 5 5 5 5 5 5 5 5 5 5 5 5 5 5 5 5 5 5 5 5 5 5 5 5 5 5 5 5 5 5 5 5 5 5 5 5 5 5 5 5 5 5 5 5 5 5 5 5 5 5 5 5 5 5 5 5 5 5 5 5 5 5 5 5 5 5 5 5 5 5 5 5 5 5 5 5 5 5 5 5 5 5 5 5 5 5 5 5 5 5 5 5 5 5 5 5 5 5 5 5 5 5 5 5 5 5 5 5 5 5 5 5 5 5 5 5 5 5 5 5 5 5 5 5 5 5 5 5 5 5 5 5 5 5 5 5 5 5 5 5 5 5 5 5 5 5 5 5 5 5 5 5 5 5 5 5 5 5 5 5 5 5 5 5 5 5 5 5 5 5 5 5 5 5 5 5 5 5 5 5 5 5 5 5 5 5 5 5 5 5 5 5 5 5 5 5 5 5 5 5 5 5 5 5 5 5 5 5 5 5 5 5 5 5 5 5 5 5 5 5 5 5 5 5 5 5 5 5 5 5 5 5 5 5 5 5 5 5 5 5 5 5 5 5 5 5 5 5 5 5 5 5 5 5 5 5 5 5 5 5 5 5 5 5 5 5 5 5 5 5 5 5 5 5 5 5 5 5 5 5 5 5 5 5 5 5 5 5 5 5 5 5 5 5 5 5 5 5 5 5 5 5 5 5 5 5 5 5 5 5 5 5 5 5 5 5 5 5 5 5 5 5 5 5 5 5 5 5 5 5 5 5 5 5 5 5 5 5 5 5 5 5 5 5 5 5 5 5 5 5 5 5 5 5 5 5 5 5 5 5 5 5 5 5 5 5 5 5 5 5 5 5 5 5 5 5 5 5 5 5 5 5 5 5 5 5 5 5 5 5 5 5 5 5 5 5 5 5 5 5 5 5 5 5 5 5 5 5 5 5 5 5 5 5 5 5 5 5 5 5 5 5 5 5 5 5 5 5 5 5 5 5 5 5 5 5 5 5 5 5 5 5 5 5 5 5 5 5 5 5 5 5 5 5 5 5 5 5 5 5 5 5 5 5 5 5 5 5 5 5 5 5 5 5 5 5 5 5 5 5 5 5 5 5 5 5 5 5 5 5 5 5 5 5 5 5 5 5 5 5 5 5 5 5 5 5 5 5 5 5 5 5 5 5 5 5 5 5 5 5 5 5 5 5 5 5 5 5 5 5 5 5 5 5 5 5 5 5 5 5 5 5 5 5 5 5 5 5 5 5 5 5 5 5 5 5 5 5 5 5 5 5 5 5 5 5 5 5 5 5 5 5 5 5 5 5 5 5 5 5 5 5 5 5 5 5 5 5 5 5 5 5 5 5 5 5 5 5 5 5 5 5 5 5 5 5 5 5 5 5 5 5 5 5 5 5 5 5 5 5 5 5 5 5 5 5 5 5 5 5 5 5 5 5 5 5 5 5 5 5 5 5 5 5 5 5 5 5 5 5 5 5 5 5 5 5 5 5 5 5 5 5 5 5 5 5 5 5 5 5 5 5 5 5 5 5 5 5 5 5 5 5 5 5 5 5 5 5 5 5 5 5 5 5 5 5 5 5 5 5 5 5 5 5 5 5 5 5 5 5 5 5 5 5 5 5 5 5 5 5 5 5 5 5 5 5 5 5 5 5 5 5 5 5 5 5 5 5 5 5 5 5 5 5 5 5 5 5 5 5 5 5 5 5 5 5 5 5 5 5 5 5 5 5 5 5 5 5 5 5 5 5 5 5 5 5 5 5 5 5 5 5 5 5 5 5 5 5 5 5 5 5 5 5 5 5 5 5 5 5 5 5 5 5 5 5 5 5 5 5 5 5 5 5 5 5 5 5 5 5 5 5 5 5 5 5 5 5 5 5 5 5 5 5 5 5 5 5 5 5 5 5 5 5 5 5 5 5 5 5 5 5 5 5 5 5 5 5 5 5 5 5 5 5 5 5 5 5 5 5 5 5 5 5 5 5 5 5 5 5 5 5 5 5 5 5 5 5 5 5 5 5 5 5 5 5 5 5 5 5 5 5 5 5 5 5 5 5 5 5 5 5 5 5 5 5 5 5 5 5 5 5 5 5 5 5 5 5 5 5 5 5 5 5 5 5 5 5 5 5 5 5 5 5 5 5 5 5 5 5 5 5 5 5 5 5 5 5 5 5 5 5 5 5 5 5 5 5 5 5 5 5 5 5 5 5 5 5 5 5 5 5 5 5 5 5 5 5 5 5 5 5 5 5 5 5 5 5 5 5 5 5 5 5 5 5 5 5 5 5 5 5 5 5 5 5 5 5 5 5 5 5 5 5 5 5 5 5 5 5 5 5 5 5 5 5 5 5 5 5 5 5 5 5 5 5 5 5 5 5 5 5 5 5 5 5 5 5 5 5 5 5 5 5 5 5 5 5 5 5 5 5 5 5 5 5 5 5 5 5 5 5 5 5 5 5 5 5 5 5 5 5 5 5 5 5 5 5 5 5 5 5 5 5 5 5 5 5 5 5 5 5 5 5 5 5 5 5 5 5 5 5 5 5 5 5 5 5 5 5 5 5 5 5 5 5 5 5 5 5 5 5 5 5 5 5 5 5 5 5 5 5 5 5 5 5 5 5 5 5 5 5 5 5 5 5 5 5 5 5 5 5 5 5 5 5 5 5 5 5 5 5 5 5 5 5 5 5 5 5 5 5 5 5 5 5 5 5 5 5 5 5 5 5 5 5 5 5 5 5 5 5 5 5 5 5 5 5 5 5 5 5 5 5 5 5 5 5 5 5 5 5 5 5 5 5 5 5 5 5 5 5 5 5 5 5 5 5 5 5 5 5 5 5 5 5 5 5 5 5 5 5 5 5 5 5 5 5 5 5 5 5 5 5 5 5 5 5 5 5 5 5 5 5 5 5 5 5 5 5 5 5 5 5 5 5 5 5 5 5 5 5 5 5 5 5 5 5 5 5 5 5 5 5 5 5 5 5 5 5 5 5 5 5 5 5 5 5 5 5 5 5 5 5 5 5 5 5 5 5 5 5 5 5 5 5 5 5 5 5 5 5 5 5 5 5 5 5 5 5 5 5 5 5 5 5 5 5 5 5 5 5 5 5 5 5 5 5 5 5 5 5 5 5 5 5 5 5 5 5 5 5 5 5 5 5 5 5 5 5 5 5 5 5 5 5 5 5 5 5 5 5 5 5 5 5 5 5 5 5 5 5 5 5 5 5 5 5 5 5 5 5 5 5 5 5 5 5 5 5 5 5 5 5 5 5 5 5 5 5 5 5 5 5 5 5 5 5 5 5 5 5 5 5 5 5 5 5 5 5 5 5 5 5 5 5 5 5 5 5 5 5 5 5 5 5 5 5 5 5 5 5 5 5 5 5 5 5 5 5 5 5 5 5 5 5 5 5 5 5 5 5 5 5 5 5 5 5 5 5 5 5 5 5 5 5 5 5 5 5 5 5 5 5 5 5 5 5 5 5 5 5 5 5 5 5 5 5 5 5 5 5 5 5 5 5 5 5 5 5 5 5 5 5 5 5 5 5 5 5 5 5 5 5 5 5 5 5 5 5 5 5 5 5 5 5 5 5 5 5 5 5 5 5 5 5 5 5 5 5 5 5 5 5 5 5 5 5 5 5 5 5 5 5 5 5 5 5 5 5 5 5 5 5 5 5 5 5 5 5 5 5 5 5 5 5 5 5 5 5 5 5 5 5 5 5 5 5 5 5 5 5 5 5 5 5 5 5 5 5 5 5 5 5 5 5 5 5 5 5 5 5 5 5 5 5 5 5 5 5 5 5 5 5 5 5 5 5 5 5 5 5 5 5 5 5 5 5 5 5 5 5 5 5 5 5 5 5 5 5 5 5 5 5 5 5 5 5 5 5 5 5 5 5 5 5 5 5 5 5 5 5 5 5 5 5 5 5 5 5 5 5 5 5 5 5 5 5 5 5 5 5 5 5 5 5 5 5 5 5 5 5 5 5 5 5 5 5 5 5 5 5 5 5 5 5 5 5 5 5 5 5 5 5 5 5 5 5 5 5 5 5 5 5 5 5 5 5 5 5 5 5 5 5 5 5 5 5 5 5 5 5 5 5 5 5 5 5 5 5 5 5 5 5 5 5 5 5 5 5 5 5 5 5 5 5 5 5 5 5 5 5 5 5 5 5 5 5 5 5 5 5 5 5 5 5 5 5 5 5 5 5 5 5 5 5 5 5 5 5 5 5 5 5 5 5 5 5 5 5 5 5 5 5 5 5 5 5 5 5 5 5 5 5 5 5 5 5 5 5 5 5 5 5 5 5 5 5 5 5 5 5 5 5 5 5 5 5 5 5 5 5 5 5 5 5 5 5 5 5 5 5 5 5 5 5 5 5 5 5 5 5 5 5 5 5 5 5 5 5 5 5 5 5 5 5 5 5 5 5 5 5 5 5 5 5 5 5 5 5 5 5 5 5 5 5 5 5 5 5 5 5 5 5 5 5 5 5 5 5 5 5 5 5 5 5 5 5 5 5 5 5 5 5 5 5 5 5 5 5 5 5 5 5 5 5 5 5 5 5 5 5 5 5 5 5 5 5 5 5 5 5 5 5 5 5 5 5 5 5 5 5 5 5 5 5 5 5 5 5 5 5 5 5 5 5 5 5 5 5 5 5 5 5 5 5 5 5 5 5 5 5 5 5 5 5 5 5 5 5 5 5 5 5 5 5 5 5 5 5 5 5 5 5 5 5 5 5 5 5 5 5 5 5 5 5 5 5 5 5 5 5 5 5 5 5 5 5 5 5 5 5 5 5 5 5 5 5 5 5 5 5 5 5 5 5 5 5 5 5 5 5 5 5 5 5 5 5 5 5 5 5 5 5 5 5 5 5 5 5 5 5 5 5 5 5 5 5 5 5 5 5 5 5 5 5 5 5 5 5 5 5 5 5 5 5 5 5 5 5 5 5 5 5 5 5 5 5 5 5 5 5 5 5 5 5 5 5 5 5 5 5 5 5 5 5 5 5 5 5 5 5 5 5 5 5 5 5 5 5 5 5 5 5 5 5 5 5 5 5 5 5 5 5 5 5 5 5 5 5 5 5 5 5 5 5 5 5 5 5 5 5 5 5 5 5 5 5 5 5 5 5 5 5 5 5 5 5 5 5 5 5 5 5 5 5 5 5 5 5 5 5 5 5 5 5 5 5 5 5 5 5 5 5 5 5 5 5 5 5 5 5 5 5 5 5 5 5 5 5 5 5 5 5 5 5 5 5 5 5 5 5 5 5 5 5 5 5 5 5 5 5 5 5 5 5 5 5 5 5 5 5 5 5 5 5 5 5 5 5 5 5 5 5 5 5 5 5 5 5 5 5 5 5 5 5 5 5 5 5 5 5 5 5 5 5 5 5 5 5 5 5 5 5 5 5 5 5 5 5 5 5 5 5 5 5 5 5 5 5 5 5 5 5 5 5 5 5 5 5 5 5 5 5 5 5 5 5 5 5 5 5 5 5 5 5 5 5 5 5 5 5 5 5 5 5 5 5 5 5 5 5 5 5 5 5 5 5 5 5 5 5 5 5 5 5 5 5 5 5 5 5 5 5 5 5 5 5 5 5 5 5 5 5 5 5 5 5 5 5 5 5 5 5 5 5 5 5 5 5 5 5 5 5 5 5 5 5 5 5 5 5 5 5 5 5 5 5 5 5 5 5 5 5 5 5 5 5 5 5 5 5 5 5 5 5 5 5 5 5 5 5 5 5 5 5 5 5 5 5 5 5 5 5 5 5 5 5 5 5 5 5 5 5 5 5 5 5 5 5 5 5 5 5 5 5 5 5 5 5 5 5 5 5 5 5 5 5 5 5 5 5 5 5 5 5 5 5 5 5 5 5 5 5 5 5 5 5 5 5 5 5 5 5 5 5 5 5 5 5 5 5 5 5 5 5 5 5 5 5 5 5 5 5 5 5 5 5 5 5 5 5 5 5 5 5 5 5 5 5 5 5 5 5 5 5 5 5 5 5 5 5 5 5 5 5 5 5 5 5 5 5 5 5 5 5 5 5 5 5 5 5 5 5 5 5 5 5 5 5 5 5 5 5 5 5 5 5 5 5 5 5 5 5 5 5 5 5 5 5 5 5 5 5 5 5 5 5 5 5 5 5 5 5 5 5 5 5 5 5 5 5 5 5 5 5 5 5 5 5 5 5 5 5 5 5 5 5 5 5 5 5 5 5 5 5 5 5 5 5 5 5 5 5 5 5 5 5 5 5 5 5 5 5 5 5 5 5 5 5 5 5 5 5 5 5 5 5 5 5 5 5 5 5 5 5 5 5 5 5 5 5 5 5 5 5 5 5 5 5 5 5 5 5 5 5 5 5 5 5 5 5 5 5 5 5 5 5 5 5 5 5 5 5 5 5 5 5 5 5 5 5 5 5 5 5 5 5 5 5 5 5 5 5 5 5 5 5 5 5 5 5 5 5 5 5 5 5 5 5 5 5 5 5 5 5 5 5 5 5 5 5 5 5 5 5 5 5 5 5 5 5 5 5 5 5 5 5 5 5 5 5 5 5 5 5 5 5 5 5 5 5 5 5 5 5 5 5 5 5 5 5 5 5 5 5 5 5 5 5 5 5 5 5 5 5 5 5 5 5 5 5 5 5 5 5 5 5 5 5 5 5 5 5 5 5 5 5 5 5 5 5 5 5 5 5 5 5 5 5 5 5 5 5 5 5 5 5 5 5 5 5 5 5 5 5 5 5 5 5 5 5 5 5 5 5 5 5 5 5 5 5 5 5 5 5 5 5 5 5 5 5 5 5 5 5 5 5 5 5 5 5 5 5 5 5 5 5 5 5 5 5 5 5 5 5 5 5 5 5 5 5 5 5 5 5 5 5 5 5 5 5 5 5 5 5 5 5 5 5 5 5 5 5 5 5 5 5 5 5 5 5 5 5 5 5 5 5 5 5 5 5 5 5 5 5 5 5 5 5 5 5 5 5 5 5 5 5 5 5 5 5 5 5 5 5 5 5 5 5 5 5 5 5 5 5 5 5 5 5 5 5 5 5 5 5 5 5 5 5 5 5 5 5 5 5 5 5 5 5 5 5 5 5 5 5 5 5 5 5 5 5 5 5 5 5 5 5 5 5 5 5 5 5 5 5 5 5 5 5 5 5 5 5 5 5 5 5 5 5 5 5 5 5 5 5 5 5 5 5 5 5 5 5 5 5 5 5 5 5 5 5 5 5 5 5 5 5 5 5 5 5 5 5 5 5 5 5 5 5 5 5 5 5 5 5 5 5 5 5 5 5 5 5 5 5 5 5 5 5 5 5 5 5 5 5 5 5 5 5 5 5 5 5 5 5 5 5 5 5 5 5 5 5 5 5 5 5 5 5 5 5 5 5 5 5 5 5 5 5 5 5 5 5 5 5 5 5 5 5 5 5 5 5 5 5 5 5 5 5 5 5 5 5 5 5 5 5 5 5 5 5 5 5 5 5 5 5 5 5 5 5 5 5 5 5 5 5 5 5 5 5 5 5 5 5 5 5 5 5 5 5 5 5 5 5 5 5 5 5 5 5 5 5 5 5 5 5 5 5 5 5 5 5 5 5 5 5 5 5 5 5 5 5 5 5 5 5 5 5 5 5 5 5 5 5 5 5 5 5 5 5 5 5 5 5 5 5 5 5 5 5 5 5 5 5 5 5 5 5 5 5 5 5 5 5 5 5 5 5 5 5 5 5 5 5 5 5 5 5 5 5 5 5 5 5 5 5 5 5 5 5 5 5 5 5 5 5 5 5 5 5 5 5 5 5 5 5 5 5 5 5 5 5 5 5 5 5 5 5 5 5 5 5 5 5 5 5 5 5 5 5 5 5 5 5 5 5 5 5 5 5 5 5 5 5 5 5 5 5 5 5 5 5 5 5 5 5 5 5 5 5 5 5 5 5 5 5 5 5 5 5 5 5 5 5 5 5 5 5 5 5 5 5 5 5 5 5 5 5 5 5 5 5 5 5 5 5 5 5 5 5 5 5 5 5 5 5 5 5 5 5 5 5 5 5 5 5 5 5 5 5 5 5 5 5 5 5 5 5 5 5 5 5 5 5 5 5 5 5 5 5 5 5 5 5 5 5 5 5 5 5 5 5 5 5 5 5 5 5 5 5 5 5 5 5 5 5 5 5 5 5 5 5 5 5 5 5 5 5 5 5 5 5 5 5 5 5 5 5 5 5 5 5 5 5 5 5 5 5 5 5 5 5 5 5 5 5 5 5 5 5 5 5 5 5 5 5 5 5 5 5 5 5 5 5 5 5 5 5 5 5 5 5 5 5 5 5 5 5 5 5 5 5 5 5 5 5 5 5 5 5 5 5 5 5 5 5 5 5 5 5 5 5 5 5 5 5 5 5 5 5 5 5 5 5 5 5 5 5 5 5 5 5 5 5 5 5 5 5 5 5 5 5 5 5 5 5 5 5 5 5 5 5 5 5 5 5 5 5 5 5 5 5 5 5 5 5 5 5 5 5 5 5 5 5 5 5 5 5 5 5 5 5 5 5 5 5 5 5 5 5 5 5 5 5 5 5 5 5 5 5 5 5 5 5 5 5 5 5 5 5 5 5 5 5 5 5 5 5 5 5 5 5 5 5 5 5 5 5 5 5 5 5 5 5 5 5 5 5 5 5 5 5 5 5 5 5 5 5 5 5 5 5 5 5 5 5 5 5 5 5 5 5 5 5 5 5 5 5 5 5 5 5 5 5 5 5 5 5 5 5 5 5 5 5 5 5 5 5 5 5 5 5 5 5 5 5 5 5 5 5 5 5 5 5 5 5 5 5 5 5 5 5 5 5 5 5 5 5 5 5 5 5 5 5 5 5 5 5 5 5 5 5 5 5 5 5 5 5 5 5 5 5 5 5 5 5 5 5 5 5 5 5 5 5 5 5 5 5 5 5 5 5 5 5 5 5 5 5 5 5 5 5 5 5 5 5 5 5 5 5 5 5 5 5 5 5 5 5 5 5 5 5 5 5 5 5 5 5 5 5 5 5 5 5 5 5 5 5 5 5 5 5 5 5 5 5 5 5 5 5 5 5 5 5 5 5 5 5 5 5 5 5 5 5 5 5 5 5 5 5 5 5 5 5 5 5 5 5 5 5 5 5 5 5 5 5 5 5 5 5 5 5 5 5 5 5 5 5 5 5 5 5 5 5 5 5 5 5 5 5 5 5 5 5 5 5 5 5 5 5 5 5 5 5 5 5 5 5 5 5 5 5 5 5 5 5 5 5 5 5 5 5 5 5 5 5 5 5 5 5 5 5 5 5 5 5 5 5 5 5 5 5 5 5 5 5 5 5 5 5 5 5 5 5 5 5 5 5 5 5 5 5 5 5 5 5 5 5 5 5 5 5 5 5 5 5 5 5 5 5 5 5 5 5 5 5 5 5 5 5 5 5 5 5 5 5 5 5 5 5 5 5 5 5 5 5 5 5 5 5 5 5 5 5 5 5 5 5 5 5 5 5 5 5 5 5 5 5 5 5 5 5 5 5 5 5 5 5 5 5 5 5 5 5 5 5 5 5 5 5 5 5 5 5 5 5 5 5 5 5 5 5 5 5 5 5 5 5 5 5 5 5 5 5 5 5 5 5 5 5 5 5 5 5 5 5 5 5 5 5 5 5 5 5 5 5 5 5 5 5 5 5 5 5 5 5 5 5 5 5 5 5 5 5 5 5 5 5 5 5 5 5 5 5 5 5 5 5 5 5 5 5 5 5 5 5 5 5 5 5 5 5 5 5 5 5 5 5 5 5 5 5 5 5 5 5 5 5 5 5 5 5 5 5 5 5 5 5 5 5 5 5 5 5 5 5 5 5 5 5 5 5 5 5 5 5 5 5 5 5 5 5 5 5 5 5 5 5 5 5 5 5 5 5 5 5 5 5 5 5 5 5 5 5 5 5 5 5 5 5 5 5 5 5 5 5 5 5 5 5 5 5 5 5 5 5 5 5 5 5 5 5 5 5 5 5 5 5 5 5 5 5 5 5 5 5 5 5 5 5 5 5 5 5 5 5 5 5 5 5 5 5 5 5 5 5 5 5 5 5 5 5 5 5 5 5 5 5 5 5 5 5 5 5 5 5 5 5 5 5 5 5 5 5 5 5 5 5 5 5 5 5 5 5 5 5 5 5 5 5 5 5 5 5 5 5 5 5 5 5 5 5 5 5 5 5 5 5 5 5 5 5 5 5 5 5 5 5 5 5 5 5 5 5 5 5 5 5 5 5 5 5 5 5 5 5 5 5 5 5 5 5 5 5 5 5 5 5 5 5 5 5 5 5 5 5 5 5 5 5 5 5 5 5 5 5 5 5 5 5 5 5 5 5 5 5 5 5 5 5 5 5 5 5 5 5 5 5 5 5 5 5 5 5 5 5 5 5 5 5 5 5 5 5 5 5 5 5 5 5 5 5 5 5 5 5 5 5 5 5 5 5 5 5 5 5 5 5 5 5 5 5 5 5 5 5 5 5 5 5 5 5 5 5 5 5 5 5 5 5 5 5 5 5 5 5 5 5 5 5 5 5 5 5 5 5 5 5 5 5 5 5 5 5 5 5 5 5 5 5 5 5 5 5 5 5 5 5 5 5 5 5 5 5 5 5 5 5 5 5 5 5 5 5 5 5 5 5 5 5 5 5 5 5 5 5 5 5 5 5 5 5 5 5 5 5 5 5 5 5 5 5 5 5 5 5 5 5 5 5 5 5 5 5 5 5 5 5 5 5 5 5 5 5 5 5 5 5 5 5 5 5 5 5 5 5 5 5 5 5 5 5 5 5 5 5 5 5 5 5 5 5 5 5 5 5 5 5 5 5 5 5 5 5 5 5 5 5 5 5 5 5 5 5 5 5 5 5 5 5 5 5 5 5 5 5 5 5 5 5 5 5 5 5 5 5 5 5 5 5 5 5 5 5 5 5 5 5 5 5 5 5 5 5 5 5 5 5 5 5 5 5 5 5 5 5 5 5 5 5 5 5 5 5 5 5 5 5 5 5 5 5 5 5 5 5 5 5 5 5 5 5 5 5 5 5 5 5 5 5 5 5 5 5 5 5 5 5 5 5 5 5 5 5 5 5 5 5 5 5 5 5 5 5 5 5 5 5 5 5 5 5 5 5 5 5 5 5 5 5 5 5 5 5 5 5 5 5 5 5 5 5 5 5 5 5 5 5 5 5 5 5 5 5 5 5 5 5 5 5 5 5 5 5 5 5 5 5 5 5 5 5 5 5 5 5 5 5 5 5 5 5 5 5 5 5 5 5 5 5 5 5 5 5 5 5 5 5 5 5 5 5 5 5 5 5 5 5 5 5 5 5 5 5 5 5 5 5 5 5 5 5 5 5 5 5 5 5 5 5 5 5 5 5 5 5 5 5 5 5 5 5 5 5 5 5 5 5 5 5 5 5 5 5 5 5 5 5 5 5 5 5 5 5 5 5 5 5 5 5 5 5 5 5 5 5 5 5 5 5 5 5 5 5 5 5 5 5 5 5 5 5 5 5 5 5 5 5 5 5 5 5 5 5 5 5 5 5 5 5 5 5 5 5 5 5 5 5 5 5 5 5 5 5 5 5 5 5 5 5 5 5 5 5 5 5 5 5 5 5 5 5 5 5 5 5 5 5 5 5 5 5 5 5 5 5 5 5 5 5 5 5 5 5 5 5 5 5 5 5 5 5 5 5 5 5 5 5 5 5 5 5 5 5 5 5 5 5 5 5 5 5 5 5 5 5 5 5 5 5 5 5 5 5 5 5 5 5 5 5 5 5 5 5 5 5 5 5 5 5 5 5 5 5 5 5 5 5 5 5 5 5 5 5 5 5 5 5 5 5 5 5 5 5 5 5 5 5 5 5 5 5 5 5 5 5 5 5 5 5 5 5 5 5 5 5 5 5 5 5 5 5 5 5 5 5 5 5 5 5 5 5 5 5 5 5 5 5 5 5 5 5 5 5 5 5 5 5 5 5 5 5 5 5 5 5 5 5 5 5 5 5 5 5 5 5 5 5 5 5 5 5 5 5 5 5 5 5 5 5 5 5 5 5 5 5 5 5 5 5 5 5 5 5 5 5 5 5 5 5 5 5 5 5 5 5 5 5 5 5 5 5 5 5 5 5 5 5 5 5 5 5 5 5 5 5 5 5 5 5 5 5 5 5 5 5 5 5 5 5 5 5 5 5 5 5 5 5 5 5 5 5 5 5 5 5 5 5 5 5 5 5 5 5 5 5 5 5 5 5 5 5 5 5 5 5 5 5 5 5 5 5 5 5 5 5 5 5 5 5 5 5 5 5 5 5 5 5 5 5 5 5 5 5 5 5 5 5 5 5 5 5 5 5 5 5 5 5 5 5 5 5 5 5 5 5 5 5 5 5 5 5 5 5 5 5 5 5 5 5 5 5 5 5 5 5 5 5 5 5 5 5 5 5 5 5 5 5 5 5 5 5 5 5 5 5 5 5 5 5 5 5 5 5 5 5 5 5 5 5 5 5 5 5 5 5 5 5 5 5 5 5 5 5 5 5 5 5 5 5 5 5 5 5 5 5 5 5 5 5 5 5 5 5 5 5 5 5 5 5 5 5 5 5 5 5 5 5 5 5 5 5 5 5 5 5 5 5 5 5 5 5 5 5 5 5 5 5 5 5 5 5 5 5 5 5 5 5 5 5 5 5 5 5 5 5 5 5 5 5 5 5 5 5 5 5 5 5 5 5 5 5 5 5 5 5 5 5 5 5 5 5 5 5 5 5 5 5 5 5 5 5 5 5 5 5 5 5 5 5 5 5 5 5 5 5 5 5 5 5 5 5 5 5 5 5 5 5 5 5 5 5 5 5 5 5 5 5 5 5 5 5 5 5 5 5 5 5 5 5 5 5 5 5 5 5 5 5 5 5 5 5 5 5 5 5 5 5 5 5 5 5 5 5 5 5 5 5 5 5 5 5 5 5 5 5 5 5 5 5 5 5 5 5 5 5 5 5 5 5 5 5 5 5 5 5 5 5 5 5 5 5 5 5 5 5 5 5 5 5 5 5 5 5 5 5 5 5 5 5 5 5 5 5 5 5 5 5 5 5 5 5 5 5 5 5 5 5 5 5 5 5 5 5 5 5 5 5 5 5 5 5 5 5 5 5 5 5 5 5 5 5 5 5 5 5 5 5 5 5 5 5 5 5 5 5 5 5 5 5 5 5 5 5 5 5 5 5 5 5 5 5 5 5 5 5 5 5 5 5 5 5 5 5 5 5 5 5 5 5 5 5 5 5 5 5 5 5 5 5 5 5 5 5 5 5 5 5 5 5 5 5 5 5 5 5 5 5 5 5 5 5 5 5 5 5 5 5 5 5 5 5 5 5 5 5 5 5 5 5 5 5 5 5 5 5 5 5 5 5 5 5 5 5 5 5 5 5 5 5 5 5 5 5 5 5 5 5 5 5 5 5 5 5 5 5 5 5 5 5 5 5 5 5 5 5 5 5 5 5 5 5 5 5 5 5 5 5 5 5 5 5 5 5 5 5 5 5 5 5 5 5 5 5 5 5 5 5 5 5 5 5 5 5 5 5 5 5 5 5 5 5 5 5 5 5 5 5 5 5 5 5 5 5 5 5 5 5 5 5 5 5 5 5 5 5 5 5 5 5 5 5 5 5 5 5 5 5 5 5 5 5 5 5 5 5 5 5 5 5 5 5 5 5 5 5 5 5 5 5 5 5 5 5 5 5 5 5 5 5 5 5 5 5 5 5 5 5 5 5 5 5 5 5 5 5 5 5 5 5 5 5 5 5 5 5 5 5 5 5 5 5 5 5 5 5 5 5 5 5 5 5 5 5 5 5 5 5 5 5 5 5 5 5 5 5 5 5 5 5 5 5 5 5 5 5 5 5 5 5 5 5 5 5 5 5 5 5 5 5 5 5 5 5 5 5 5 5 5 5 5 5 5 5 5 5 5 5 5 5 5 5 5 5 5 5 5 5 5 5 5 5 5 5 5 5 5 5 5 5 5 5 5 5 5 5 5 5 5 5 5 5 5 5 5 5 5 5 5 5 5 5 5 5 5 5 5 5 5 5 5 5 5 5 5 5 5 5 5 5 5 5 5 5 5 5 5 5 5 5 5 5 5 5 5 5 5 5 5 5 5 5 5 5 5 5 5 5 5 5 5 5 5 5 5 5 5 5 5 5 5 5 5 5 5 5 5 5 5 5 5 5 5 5 5 5 5 5 5 5 5 5 5 5 5 5 5 5 5 5 5 5 5 5 5 5 5 5 5 5 5 5 5 5 5 5 5 5 5 5 5 5 5 5 5 5 5 5 5 5 5 5 5 5 5 5 5 5 5 5 5 5 5 5 5 5 5 5 5 5 5 5 5 5 5 5 5 5 5 5 5 5 5 5 5 5 5 5 5 5 5 5 5 5 5 5 5 5 5 5 5 5 5 5 5 5 5 5 5 5 5 5 5 5 5 5 5 5 5 5 5 5 5 5 5 5 5 5 5 5 5 5 5 5 5 5 5 5 5 5 5 5 5 5 5 5 5 5 5 5 5 5 5 5 5 5 5 5 5 5 5 5 5 5 5 5 5 5 5 5 5 5 5 5 5 5 5 5 5 5 5 5 5 5 5 5 5 5 5 5 5 5 5 5 5 5 5 5 5 5 5 5 5 5 5 5 5 5 5 5 5 5 5 5 5 5 5 5 5 5 5 5 5 5 5 5 5 5 5 5 5 5 5 5 5 5 5 5 5 5 5 5 5 5 5 5 5 5 5 5 5 5 5 5 5 5 5 5 5 5 5 5 5 5 5 5 5 5 5 5 5 5 5 5 5 5 5 5 5 5 5 5 5 5 5 5 5 5 5 5 5 5 5 5 5 5 5 5 5 5 5 5 5 5 5 5 5 5 5 5 5 5 5 5 5 5 5 5 5 5 5 5 5 5 5 5 5 5 5 5 5 5 5 5 5 5 5 5 5 5 5 5 5 5 5 5 5 5 5 5 5 5 5 5 5 5 5 5 5 5 5 5 5 5 5 5 5 5 5 5 5 5 5 5 5 5 5 5 5 5 5 5 5 5 5 5 5 5 5 5 5 5 5 5 5 5 5 5 5 5 5 5 5 5 5 5 5 5 5 5 5 5 5 5 5 5 5 5 5 5 5 5 5 5 5 5 5 5 5 5 5 5 5 5 5 5 5 5 5 5 5 5 5 5 5 5 5 5 5 5 5 5 5 5 5 5 5 5 5 5 5 5 5 5 5 5 5 5 5 5 5 5 5 5 5 5 5 5 5 5 5 5 5 5 5 5 5 5 5 5 5 5 5 5 5 5 5 5 5 5 5 5 5 5 5 5 5 5 5 5 5 5 5 5 5 5 5 5 5 5 5 5 5 5 5 5 5 5 5 5 5 5 5 5 5 5 5 5 5 5 5 5 5 5 5 5 5 5 5 5 5 5 5 5 5 5 5 5 5 5 5 5 5 5 5 5 5 5 5 5 5 5 5 5 5 5 5 5 5 5 5 5 5 5 5 5 5 5 5 5 5 5 5 5 5 5 5 5 5 5 5 5 5 5 5 5 5 5 5 5 5 5 5 5 5 5 5 5 5 5 5 5 5 5 5 5 5 5 5 5 5 5 5 5 5 5 5 5 5 5 5 5 5 5 5 5 5 5 5 5 5 5 5 5 5 5 5 5 5 5 5 5 5 5 5 5 5 5 5 5 5 5 5 5 5 5 5 5 5 5 5 5 5 5 5 5 5 5 5 5 5 5 5 5 5 5 5 5 5 5 5 5 5 5 5 5 5 5 5 5 5 5 5 5 5 5 5 5 5 5 5 5 5 5 5 5 5 5 5 5 5 5 5 5 5 5 5 5 5 5 5 5 5 5 5 5 5 5 5 5 5 5 5 5 5 5 5 5 5 5 5 5 5 5 5 5 5 5 5 5 5 5 5 5 5 5 5 5 5 5 5 5 5 5 5 5 5 5 5 5 5 5 5 5 5 5 5 5 5 5 5 5 5 5 5 5 5 5 5 5 5 5 5 5 5 5 5 5 5 5 5 5 5 5 5 5 5 5 5 5 5 5 5 5 5 5 5 5 5 5 5 5 5 5 5 5 5 5 5 5 5 5 5 5 5 5 5 5 5 5 5 5 5 5 5 5 5 5 5 5 5 5 5 5 5 5 5 5 5 5 5 5 5 5 5 5 5 5 5 5 5 5 5 5 5 5 5 5 5 5 5 5 5 5 5 5 5 5 5 5 5 5 5 5 5 5 5 5 5 5 5 5 5 5 5 5 5 5 5 5 5 5 5 5 5 5 5 5 5 5 5 5 5 5 5 5 5 5 5 5 5 5 5 5 5 5 5 5 5 5 5 5 5 5 5 5 5 5 5 5 5 5 5 5 5 5 5 5 5 5 5 5 5 5 5 5 5 5 5 5 5 5 5 5 5 5 5 5 5 5 5 5 5 5 5 5 5 5 5 5 5 5 5 5 5 5 5 5 5 5 5 5 5 5 5 5 5 5 5 5 5 5 5 5 5 5 5 5 5 5 5 5 5 5 5 5 5 5 5 5 5 5 5 5 5 5 5 5 5 5 5 5 5 5 5 5 5 5 5 5 5 5 5 5 5 5 5 5 5 5 5 5 5 5 5 5 5 5 5 5 5 5 5 5 5 5 5 5 5 5 5 5 5 5 5 5 5 5 5 5 5 5 5 5 5 5 5 5 5 5 5 5 5 5 5 5 5 5 5 5 5 5 5 5 5 5 5 5 5 5 5 5 5 5 5 5 5 5 5 5 5 5 5 5 5 5 5 5 5 5 5 5 5 5 5 5 5 5 5 5 5 5 5 5 5 5 5 5 5 5 5 5 5 5 5 5 5 5 5 5 5 5 5 5 5 5 5 5 5 5 5 5 5 5 5 5 5 5 5 5 5 5 5 5 5 5 5 5 5 5 5 5 5 5 5 5 5 5 5 5 5 5 5 5 5 5 5 5 5 5 5 5 5 5 5 5 5 5 5 5 5 5 5 5 5 5 5 5 5 5 5 5 5 5 5 5 5 5 5 5 5 5 5 5 5 5 5 5 5 5 5 5 5 5 5 5 5 5 5 5 5 5 5 5 5 5 5 5 5 5 5 5 5 5 5 5 5 5 5 5 5 5 5 5 5 5 5 5 5 5 5 5 5 5 5 5 5 5 5 5 5 5 5 5 5 5 5 5 5 5 5 5 5 5 5 5 5 5 5 5 5 5 5 5 5 5 5 5 5 5 5 5 5 5 5 5 5 5 5 5 5 5 5 5 5 5 5 5 5 5 5 5 5 5 5 5 5 5 5 5 5 5 5 5 5 5 5 5 5 5 5 5 5 5 5 5 5 5 5 5 5 5 5 5 5 5 5 5 5 5 5 5 5 5 5 5 5 5 5 5 5 5 5 5 5 5 5 5 5 5 5 5 5 5 5 5 5 5 5 5 5 5 5 5 5 5 5 5 5 5 5 5 5 5 5 5 5 5 5 5 5 5 5 5 5 5 5 5 5 5 5 5 5 5 5 5 5 5 5 5 5 5 5 5 5 5 5 5 5 5 5 5 5 5 5 5 5 5 5 5 5 5 5 5 5 5 5 5 5 5 5 5 5 5 5 5 5 5 5 5 5 5 5 5 5 5 5 5 5 5 5 5 5 5 5 5 5 5 5 5 5 5 5 5 5 5 5 5 5 5 5 5 5 5 5 5 5 5 5 5 5 5 5 5 5 5 5 5 5 5 5 5 5 5 5 5 5 5 5 5 5 5 5 5 5 5 5 5 5 5 5 5 5 5 5 5 5 5 5 5 5 5 5 5 5 5 5 5 5 5 5 5 5 5 5 5 5 5 5 5 5 5 5 5 5 5 5 5 5 5 5 5 5 5 5 5 5 5 5 5 5 5 5 5 5 5 5 5 5 5 5 5 5 5 5 5 5 5 5 5 5 5 5 5 5 5 5 5 5 5 5 5 5 5 5 5 5 5 5 5 5 5 5 5 5 5 5 5 5 5 5 5 5 5 5 5 5 5 5 5 5 5 5 5 5 5 5 5 5 5 5 5 5 5 5 5 5 5 5 5 5 5 5 5 5 5 5 5 5 5 5 5 5 5 5 5 5 5 5 5 5 5 5 5 5 5 5 5 5 5 5 5 5 5 5 5 5 5 5 5 5 5 5 5 5 5 5 5 5 5 5 5 5 5 5 5 5 5 5 5 5 5 5 5 5 5 5 5 5 5 5 5 5 5 5 5 5 5 5 5 5 5 5 5 5 5 5 5 5 5 5 5 5 5 5 5 5 5 5 5 5 5 5 5 5 5 5 5 5 5 5 5 5 5 5 5 5 5 5 5 5 5 5 5 5 5 5 5 5 5 5 5 5 5 5 5 5 5 5 5 5 5 5 5 5 5 5 5 5 5 5 5 5 5 5 5 5 5 5 5 5 5 5 5 5 5 5 5 5 5 5 5 5 5 5 5 5 5 5 5 5 5 5 5 5 5 5 5 5 5 5 5 5 5 5 5 5 5 5 5 5 5 5 5 5 5 5 5 5 5 5 5 5 5 5 5 5 5 5 5 5 5 5 5 5 5 5 5 5 5 5 5 5 5 5 5 5 5 5 5 5 5 5 5 5 5 5 5 5 5 5 5 5 5 5 5 5 5 5 5 5 5 5 5 5 5 5 5 5 5 5 5 5 5 5 5 5 5 5 5 5 5 5 5 5 5 5 5 5 5 5 5 5 5 5 5 5 5 5 5 5 5 5 5 5 5 5 5 5 5 5 5 5 5 5 5 5 5 5 5 5 5 5 5 5 5 5 5 5 5 5 5 5 5 5 5 5 5 5 5 5 5 5 5 5 5 5 5 5 5 5 5 5 5 5 5 5 5 5 5 5 5 5 5 5 5 5 5 5 5 5 5 5 5 5 5 5 5 5 5 5 5 5 5 5 5 5 5 5 5 5 5 5 5 5 5 5 5 5 5 5 5 5 5 5 5 5 5 5 5 5 5 5 5 5 5 5 5 5 5 5 5 5 5 5 5 5 5 5 5 5 5 5 5 5 5 5 5 5 5 5 5 5 5 5 5 5 5 5 5 5 5 5 5 5 5 5 5 5 5 5 5 5 5 5 5 5 5 5 5 5 5 5 5 5 5 5 5 5 5 5 5 5 5 5 5 5 5 5 5 5 5 5 5 5 5 5 5 5 5 5 5 5 5 5 5 5 5 5 5 5 5 5 5 5 5 5 5 5 5 5 5 5 5 5 5 5 5 5 5 5 5 5 5 5 5 5 5 5 5 5 5 5 5 5 5 5 5 5 5 5 5 5 5 5 5 5 5 5 5 5 5 5 5 5 5 5 5 5 5 5 5 5 5 5 5 5 5 5 5 5 5 5 5 5 5 5 5 5 5 5 5 5 5 5 5 5 5 5 5 5 5 5 5 5 5 5 5 5 5 5 5 5 5 5 5 5 5 5 5 5 5 5 5 5 5 5 5 5 5 5 5 5 5 5 5 5 5 5 5 5 5 5 5 5 5 5 5 5 5 5 5 5 5 5 5 5 5 5 5 5 5 5 5 5 5 5 5 5 5 5 5 5 5 5 5 5 5 5 5 5 5 5 5 5 5 5 5 5 5 5 5 5 5 5 5 5 5 5 5 5 5 5 5 5 5 5 5 5 5 5 5 5 5 5 5 5 5 5 5 5 5 5 5 5 5 5 5 5 5 5 5 5 5 5 5 5 5 5 5 5 5 5 5 5 5 5 5 5 5 5 5 5 5 5 5 5 5 5 5 5 5 5 5 5 5 5 5 5 5 5 5 5 5 5 5 5 5 5 5 5 5 5 5 5 5 5 5 5 5 5 5 5 5 5 5 5 5 5 5 5 5 5 5 5 5 5 5 5 5 5 5 5 5 5 5 5 5 5 5 5 5 5 5 5 5 5 5 5 5 5 5 5 5 5 5 5 5 5 5 5 5 5 5 5 5 5 5 5 5 5 5 5 5 5 5 5 5 5 5 5 5 5 5 5 5 5 5 5 5 5 5 5 5 5 5 5 5 5 5 5 5 5 5 5 5 5 5 5 5 5 5 5 5 5 5 5 5 5 5 5 5 5 5 5 5 5 5 5 5 5 5 5 5 5 5 5 5 5 5 5 5 5 5 5 5 5 5 5 5 5 5 5 5 5 5 5 5 5 5 5 5 5 5 5 5 5 5 5 5 5 5 5 5 5 5 5 5 5 5 5 5 5 5 5 5 5 5 5 5 5 5 5 5 5 5 5 5 5 5 5 5 5 5 5 5 5 5 5 5 5 5 5 5 5 5 5 5 5 5 5 5 5 5 5 5 5 5 5 5 5 5 5 5 5 5 5 5 5 5 5 5 5 5 5 5 5 5 5 5 5 5 5 5 5 5 5 5 5 5 5 5 5 5 5 5 5 5 5 5 5 5 5 5 5 5 5 5 5 5 5 5 5 5 5 5 5 5 5 5 5 5 5 5 5 5 5 5 5 5 5 5 5 5 5 5 5 5 5 5 5 5 5 5 5 5 5 5 5 5 5 5 5 5 5 5 5 5 5 5 5 5 5 5 5 5 5 5 5 5 5 5 5 5 5 5 5 5 5 5 5 5 5 5 5 5 5 5 5 5 5 5 5 5 5 5 5 5 5 5 5 5 5 5 5 5 5 5 5 5 5 5 5 5 5 5 5 5 5 5 5 5 5 5 5 5 5 5 5 5 5 5 5 5 5 5 5 5 5 5 5 5 5 5 5 5 5 5 5 5 5 5 5 5 5 5 5 5 5 5 5 5 5 5 5 5 5 5 5 5 5 5 5 5 5 5 5 5 5 5 5 5 5 5 5 5 5 5 5 5 5 5 5 5 5 5 5 5 5 5 5 5 5 5 5 5 5 5 5 5 5 5 5 5 5 5 5 5 5 5 5 5 5 5 5 5 5 5 5 5 5 5 5 5 5 5 5 5 5 5 5 5 5 5 5 5 5 5 5 5 5 5 5 5 5 5 5 5 5 5 5 5 5 5 5 5 5 5 5 5 5 5 5 5 5 5 5 5 5 5 5 5 5 5 5 5 5 5 5 5 5 5 5 5 5 5 5 5 5 5 5 5 5 5 5 5 5 5 5 5 5 5 5 5 5 5 5 5 5 5 5 5 5 5 5 5 5 5 5 5 5 5 5 5 5 5 5 5 5 5 5 5 5 5 5 5 5 5 5 5 5 5 5 5 5 5 5 5 5 5 5 5 5 5 5 5 5 5 5 5 5 5 5 5 5 5 5 5 5 5 5 5 5 5 5 5 5 5 5 5 5 5 5 5 5 5 5 5 5 5 5 5 5 5 5 5 5 5 5 5 5 5 5 5 5 5 5 5 5 5 5 5 5 5 5 5 5 5 5 5 5 5 5 5 5 5 5 5 5 5 5 5 5 5 5 5 5 5 5 5 5 5 5 5 5 5 5 5 5 5 5 5 5 5 5 5 5 5 5 5 5 5 5 5 5 5 5 5 5 5 5 5 5 5 5 5 5 5 5 5 5 5 5 5 5 5 5 5 5 5 5 5 5 5 5 5 5 5 5 5 5 5 5 5 5 5 5 5 5 5 5 5 5 5 5 5 5 5 5 5 5 5 5 5 5 5 5 5 5 5 5 5 5 5 5 5 5 5 5 5 5 5 5 5 5 5 5 5 5 5 5 5 5 5 5 5 5 5 5 5 5 5 5 5 5 5 5 5 5 5 5 5 5 5 5 5 5 5 5 5 5 5 5 5 5 5 5 5 5 5 5 5 5 5 5 5 5 5 5 5 5 5 5 5 5 5 5 5 5 5 5 5 5 5 5 5 5 5 5 5 5 5 5 5 5 5 5 5 5 5 5 5 5 5 5 5 5 5 5 5 5 5 5 5 5 5 5 5 5 5 5 5 5 5 5 5 5 5 5 5 5 5 5 5 5 5 5 5 5 5 5 5 5 5 5 5 5 5 5 5 5 5 5 5 5 5 5 5 5 5 5 5 5 5 5 5 5 5 5 5 5 5 5 5 5 5 5 5 5 5 5 5 5 5 5 5 5 5 5 5 5 5 5 5 5 5 5 5 5 5 5 5 5 5 5 5 5 5 5 5 5 5 5 5 5 5 5 5 5 5 5 5 5 5 5 5 5 5 5 5 5 5 5 5 5 5 5 5 5 5 5 5 5 5 5 5 5 5 5 5 5 5 5 5 5 5 5 5 5 5 5 5 5 5 5 5 5 5 5 5 5 5 5 5 5 5 5 5 5 5 5 5 </DataArray>
</Cells>
<PointData  Scalars="von Mises Stress [Pa]"> 
<DataArray  type="Float64"  Name="von Mises Stress [Pa]"  format="ascii">1.4981587553760080e+10  1.4927833323088430e+10  1.4919767374152822e+10  1.4922151686653582e+10  1.4930379663002308e+10  1.4969364542841572e+10  1.4984742596329798e+10  1.4958642411579424e+10  1.4954102108529167e+10  1.4994794759300928e+10  1.5013293575820679e+10  1.4999899749309166e+10  1.4895454041434937e+10  1.4905728649256632e+10  1.4979425368829462e+10  1.4951349128184608e+10  1.4895097886382765e+10  1.4926458891895130e+10  1.4985446135701063e+10  1.4899007804025282e+10  1.4932029744189510e+10  1.4972120305152172e+10  1.4974258556398211e+10  1.5021338464698507e+10  1.4941699704461636e+10  1.4981249642913609e+10  1.4939353586141735e+10  1.5017548233064142e+10  1.5000145117633558e+10  1.4942024467398794e+10  1.4936277620962955e+10  1.4987367546015894e+10  1.4944757732180161e+10  1.4959862443634398e+10  1.4981101986646322e+10  1.4914353321065449e+10  1.4938099110434004e+10  1.4991381971678881e+10  1.4901837988341948e+10  1.4959041277199099e+10  1.4932297710837639e+10  1.4902358214584684e+10  1.4977848053252213e+10  1.5026194219280756e+10  1.4897199022793709e+10  1.4985734283991011e+10  1.4910064332228348e+10  1.4952976384338467e+10  1.4950415424343367e+10  1.4967810502816381e+10  1.4949942967968229e+10  1.4988351338117525e+10  1.4916390014467896e+10  1.4984731053133976e+10  1.4906667076635761e+10  1.5016385278758430e+10  1.4932774624226891e+10  1.4929939881153032e+10  1.4919494291062593e+10  1.5016513306698816e+10  1.4922837698213444e+10  1.4901706386671196e+10  1.5038487247956335e+10  1.4904068260535387e+10  1.4955893276594936e+10  1.4911690285261541e+10  1.5057922460700796e+10  1.4924719564606253e+10  1.4935839855254429e+10  1.4997807157806801e+10  1.4954603690282688e+10  1.4970199119593840e+10  1.4975241473305428e+10  1.4918489202922932e+10  1.4957232438471657e+10  1.4966814798843475e+10  1.4925747692410589e+10  1.4989553812357370e+10  1.4918816664383610e+10  1.4943630989141644e+10  1.5016478136596870e+10  1.4869100559096823e+10  1.4970457837459793e+10  1.5030242412711689e+10  1.4923669538677177e+10  1.5021248076969864e+10  1.4954243473920923e+10  1.4955663080776451e+10  1.5001345586438742e+10  1.4961684611404451e+10  1.4903011044208055e+10  1.4988527758405861e+10  1.4958107806892902e+10  1.5013621815694750e+10  1.4971615177076073e+10  1.4965322899713335e+10  1.4989031305805683e+10  1.4913753706485453e+10  1.4935098439045658e+10  1.5014773456617243e+10  1.4991500984595686e+10  1.4956319207212561e+10  1.4982636249912682e+10  1.4930123848380648e+10  1.4980080691396690e+10  1.4959444689276316e+10  1.4910470580176207e+10  1.4997088583447786e+10  1.4925946971238974e+10  1.4950227303663452e+10  1.4963129318221371e+10  1.4992780413127533e+10  1.4943420214879524e+10  1.5050918682022087e+10  1.5009512566564497e+10  1.4901761039601519e+10  1.4955315756033165e+10  1.5012422217239487e+10  1.5026672725972727e+10  1.4973390940016388e+10  1.4952280010765471e+10  1.4983558323711395e+10  1.4954236920925171e+10  1.4919336042323084e+10  1.5005916956378935e+10  1.4995849409381746e+10  1.4955651182069443e+10  1.4994888780874063e+10  1.4899928923987144e+10  1.4958156317972776e+10  1.4931425535133575e+10  1.5006629944513029e+10  1.5006127644631212e+10  1.4979553585048605e+10  1.4896322728442282e+10  1.4988249043247458e+10  1.4953726065003527e+10  1.4914127721912508e+10  1.4943503490079779e+10  1.4935605894881632e+10  1.5002401009747068e+10  1.4941636177002722e+10  1.4960466994375843e+10  1.4966995769591932e+10  1.4893446945784897e+10  1.5003144349929127e+10  1.5019369876651371e+10  1.4968622347755789e+10  1.4963584840416260e+10  1.4964270535177114e+10  1.4939069585198286e+10  1.4912285083868637e+10  1.4952386624981234e+10  1.5045052364493980e+10  1.5011548541022873e+10  1.4987034679176064e+10  1.4982359568989063e+10  1.4864720975684896e+10  1.5004619394499756e+10  1.4895294147143581e+10  1.4990223936443371e+10  1.4951617061878113e+10  1.4987461720556540e+10  1.4930979506087887e+10  1.4943390853447117e+10  1.5039585910416769e+10  1.4945190087868742e+10  1.4926477749472376e+10  1.5070237657857414e+10  1.4903329524352409e+10  1.5000239051588020e+10  1.4982496579636745e+10  1.4984530165432926e+10  1.4879527104314587e+10  1.4943607717726936e+10  1.4924425154971008e+10  1.5001823181346281e+10  1.4943948372690100e+10  1.4982888620781084e+10  1.4984939265120836e+10  1.4919057529878868e+10  1.4950534990836218e+10  1.4988996359377224e+10  1.4987264020455627e+10  1.4950742076630621e+10  1.5033366645412104e+10  1.4941839452203857e+10  1.5027475306156477e+10  1.4974231529784960e+10  1.4970185059944370e+10  1.4961058782154394e+10  1.4951516552037243e+10  1.4995187785755039e+10  1.4937274193867884e+10  1.4977620132433428e+10  1.4941680167202595e+10  1.4940014543278122e+10  1.4967357123532703e+10  1.5005983543496908e+10  1.4918286226716888e+10  1.4922072590102489e+10  1.5011651332636787e+10  1.4997265969373293e+10  1.4910316558811779e+10  1.5008949287646208e+10  1.4961863786954660e+10  1.5002469584340338e+10  1.4971473314719788e+10  1.5029758668314350e+10  1.4894393807732365e+10  1.5005627636721161e+10  1.4895752207253254e+10  1.4913837534234997e+10  1.4959111317861353e+10  1.4925618956057234e+10  1.4945474299059746e+10  1.4969904977354139e+10  1.4974371585630529e+10  1.4998271284916109e+10  1.4928044924500437e+10  1.4942977235921005e+10  1.5030767942832878e+10  1.4918868601750038e+10  1.5041162297281036e+10  1.4969185697600039e+10  1.4940413832621044e+10  1.5010876397808922e+10  1.4920630257212229e+10  1.4970188183462168e+10  1.4959250052001701e+10  1.4958773424228491e+10  1.4940904560426569e+10  1.4885176047102800e+10  1.4925051669277981e+10  1.5000539536530491e+10  1.4912177135747204e+10  1.4922331855149763e+10  1.4955644274439493e+10  1.4914892868995903e+10  1.4937470634587643e+10  1.4936508194947750e+10  1.5024124605854288e+10  1.4956855122442123e+10  1.4976251372066544e+10  1.4986870308045322e+10  1.4960926427011402e+10  1.4957272729939676e+10  1.4908260743502058e+10  1.4972509658062401e+10  1.4939196749120890e+10  1.5025354013113033e+10  9.7519382075888962e+10  9.8404330802299179e+10  9.8719491772093384e+10  9.7988139802963303e+10  9.7528322902661346e+10  9.8236863878498993e+10  9.8100262052818176e+10  9.8973983395052826e+10  9.7360604633100327e+10  9.8204433636537735e+10  9.9979670604476456e+10  9.8102139155510101e+10  9.8163523159705688e+10  9.8251082624730865e+10  9.8488454201924896e+10  9.7326493711636093e+10  9.9478832799942551e+10  9.8315525191058563e+10  9.7933529617032379e+10  9.8607283568417191e+10  9.9707030671495331e+10  9.7731293910084442e+10  9.7197516560924515e+10  9.9183981112458252e+10  9.7051524848131592e+10  9.9462922104516068e+10  9.8214478360573181e+10  9.7282140108545273e+10  9.8924313608776733e+10  9.8505600358407684e+10  9.7032606170106140e+10  9.9069834453411621e+10  9.7149419697594269e+10  9.8558938368280609e+10  9.7868024954888824e+10  9.7817512970620605e+10  9.7107172111669373e+10  9.9148917320687195e+10  9.8211225939381165e+10  9.9394502444260452e+10  9.7768820435872589e+10  9.8817896741337494e+10  9.8829741274042221e+10  9.7755551178832703e+10  9.7285508019885818e+10  9.7828013657463028e+10  9.9042997270804306e+10  9.7874913616322571e+10  9.9052551914836807e+10  9.8200410792436798e+10  9.7778554033074310e+10  9.9887084181299438e+10  9.8529424524895325e+10  9.8868181219436539e+10  9.8997703208221466e+10  9.8215054669766769e+10  9.8292009309803116e+10  9.8311628834807846e+10  9.7529158532777420e+10  9.8370348239408554e+10  9.7453309123742126e+10  9.8762131461166977e+10  9.8377680034091690e+10  9.7913791374369019e+10  9.8298519464343033e+10  9.7872632055568771e+10  9.7977868405075272e+10  9.9274691566083893e+10  9.7918037850151657e+10  9.8101956203053848e+10  9.8142239747538300e+10  9.8133742336069672e+10  9.7709747200758438e+10  9.9123286620418732e+10  9.8455463533351669e+10  9.8712666775456650e+10  9.9090146433157700e+10  1.0053694261756203e+11  9.8116555491493561e+10  9.7928759573617538e+10  9.8655831120364639e+10  9.7915644241160950e+10  9.8663119052054794e+10  9.9352976243164459e+10  9.9025660052997421e+10  9.7305335789143234e+10  9.8897056112640472e+10  9.7299186055106842e+10  9.9285148801142288e+10  9.7794495629991547e+10  9.7926207942979813e+10  9.7802250191570740e+10  9.9005440799859116e+10  9.8215684605498550e+10  9.8931319669298447e+10  9.7984436983744995e+10  9.9093102233517532e+10  9.8423588478585144e+10  9.8302512075285950e+10  9.7867942263015396e+10  9.8536397013781036e+10  2.8149791961252903e+10  2.8315438602567562e+10  2.8232452838760223e+10  2.8189352136374569e+10  2.8146853779792374e+10  2.8373223527401981e+10  2.8048858991257915e+10  2.8143340695819061e+10  2.8007671257555927e+10  2.8265301354551743e+10  2.8266508607947052e+10  2.8353936317703743e+10  3.4703437679306877e+10  3.8515086124440575e+10  2.1620704859785343e+10  2.2807328640473110e+10  4.0436650787103294e+10  2.1355921609670078e+10  2.2199821363141953e+10  2.2078887050738197e+10  2.2175630808044422e+10  2.2126216221540577e+10  2.2228553631459942e+10  2.2086976212882427e+10  2.2060142445420910e+10  2.2077347099171913e+10  2.1989313365027832e+10  2.1534611706090401e+10  4.0310300328760399e+10  4.0293524014248314e+10  3.8611683869275085e+10  4.0522441539198654e+10  3.9869335940888329e+10  3.8166177498586586e+10  4.0046139497741455e+10  3.8278741856146675e+10  3.7694249699896034e+10  2.0199590073011559e+10  1.9852769997903542e+10  1.9839679924041111e+10  1.9600287352340221e+10  1.9753082734322899e+10  1.9629232506510624e+10  1.9676141282849167e+10  1.9690072742887665e+10  1.9750773130433937e+10  1.9620179853317104e+10  1.9689612292036648e+10  1.9801078703493095e+10  1.9578072488480663e+10  4.6333688290067863e+10  4.6427344610134415e+10  4.7633889004585854e+10  4.7626112222735229e+10  4.8129377288200851e+10  4.7873135535753761e+10  4.6583632907502373e+10  4.7572279861651131e+10  4.7505365004058578e+10  4.7444651658125671e+10  4.8039240134689880e+10  4.7111565329112099e+10  2.0311772542616657e+10  1.9384073073519012e+10  2.0932431884496513e+10  2.1024021924888912e+10  1.9188904318010796e+10  1.9270897903066879e+10  2.6650213532040962e+10  1.8940262297370514e+10  1.8994096270602360e+10  1.8864226876393158e+10  1.8648819897592308e+10  5.4727961800860275e+10  2.8816360670101280e+10  2.9567921523625301e+10  1.8701950947883064e+10  1.8371789302999641e+10  1.8161107192447582e+10  2.9595004096113853e+10  1.8142582914848164e+10  5.4933343251944542e+10  1.8073414691173576e+10  1.8085512685466217e+10  2.8555565736183750e+10  1.7937118581100357e+10  1.7950111923192436e+10  1.7915008993098049e+10  1.7944653587754185e+10  1.8028208110028053e+10  1.8025298791120861e+10  1.7998219498924030e+10  5.6878625710184280e+10  1.8012960533872047e+10  1.8033767651476162e+10  5.7123594183150124e+10  2.4172560728519379e+10  2.4721432871036362e+10  1.7829050078695900e+10  5.8468588182119354e+10  5.4327294163116112e+10  2.7742092831936451e+10  2.8617353440850700e+10  2.8788653838401104e+10  2.7969588740576241e+10  2.3950336856846600e+10  2.4595735208870968e+10  2.8636233788813698e+10  2.4615351405439198e+10  2.4697427125606339e+10  2.4527063818475964e+10  2.5402254194297821e+10  2.4587134116360161e+10  2.4384884747546722e+10  2.8128544676892658e+10  5.7544602468247177e+10  2.4104887567784325e+10  2.4011060715800781e+10  1.7938349629756275e+10  3.5289335300533615e+10  3.4433535112077484e+10  5.8021831393884689e+10  1.8390885343338432e+10  1.8432297285873989e+10  2.3552964265713085e+10  3.8361932820150772e+10  2.8705769672048450e+10  2.8969828689391029e+10  5.9013825091392258e+10  5.8817382595250122e+10  5.8258295217096329e+10  5.8662770796969193e+10  5.8968328396582756e+10  1.7677747973479702e+10  5.8774299641798843e+10  5.8632263190494171e+10  1.7606739588714275e+10  1.7662520667440502e+10  1.7537352545876102e+10  1.8398424031032810e+10  3.2501379483560047e+10  3.5297600043562714e+10  3.5330221442267982e+10  3.5348396632342667e+10  3.2528284325119938e+10  3.5144258857401405e+10  3.5595420474852203e+10  2.4920414446379250e+10  2.3540521862471107e+10  2.3120555285791790e+10  3.5385192489419212e+10  1.7520589273273926e+10  3.1946962432483677e+10  3.5665216253935692e+10  3.6465589448662598e+10  2.7936967656931683e+10  3.1915194435782902e+10  1.7748057959666206e+10  2.2198860492358906e+10  3.5644655491282784e+10  1.8622478278790459e+10  3.5958824996781960e+10  5.4390742335272667e+10  5.4615781694860222e+10  5.4277104180270699e+10  2.7694220686085667e+10  1.7450525801639950e+10  5.1766760110275597e+10  3.6487852357199974e+10  2.2188301589090862e+10  4.0399253382556160e+10  3.5878095019893600e+10  2.8913487010844398e+10  3.5841260871251434e+10  3.5562038879658318e+10  1.7561801560271664e+10  2.8656816412794060e+10  2.3595632220360321e+10  1.7447185103574947e+10  1.7350999863259117e+10  6.1734428758279343e+10  6.1636587585898293e+10  1.7210875019303661e+10  1.7472463400156330e+10  2.3350349107230915e+10  2.9207992619945869e+10  4.0075024294108124e+10  1.7008453559424236e+10  2.2167125309350578e+10  2.3141629126083275e+10  6.1598627411320084e+10  2.1201360981358833e+10  6.3731554185863983e+10  6.3251652960669052e+10  2.1475568854820549e+10  1.7254726169318192e+10  1.7356370238718330e+10  2.2704137322560505e+10  2.2779868766239105e+10  1.7147071628280893e+10  3.4353182634912205e+10  1.7063858224381243e+10  1.7314232134110619e+10  1.7334440973546364e+10  1.7101566302718746e+10  6.5204161890015884e+10  1.7135521714290371e+10  2.7082944042496822e+10  2.2426015556112576e+10  1.7007447372778204e+10  1.7080209182932127e+10  1.6980879930746614e+10  1.7051170185442907e+10  1.7151651326587523e+10  1.7003602444047039e+10  2.7333050428430836e+10  1.7097528448796576e+10  2.1014767596453957e+10  2.4174711995735344e+10  2.2580478061640488e+10  2.3972489645132847e+10  4.2166530069678322e+10  3.7295669335670181e+10  3.7461087509504364e+10  3.4518947643780853e+10  1.7031413338858372e+10  1.7973102713474480e+10  1.7001046240272247e+10  1.7063278139616688e+10  1.7052841493400341e+10  2.3174130405749222e+10  2.3103128601728390e+10  2.3071790910599262e+10  2.0681207498448242e+10  2.1676086537907932e+10  2.0726806324934929e+10  6.5163446958653442e+10  2.3137638517584881e+10  6.7013015619891525e+10  1.6865473754888884e+10  6.2011865823282349e+10  6.5755334878489334e+10  6.6201288323613953e+10  6.5899223092244743e+10  6.6815181391048004e+10  6.6269063282743469e+10  4.2295853536033989e+10  6.5722586495586830e+10  3.5905592802680679e+10  3.5922224940479050e+10  4.0975745807617950e+10  2.3942796728930962e+10  2.0860688197308876e+10  6.6322925713204346e+10  2.0898096763763195e+10  1.6816741746543430e+10  1.6814762932335018e+10  6.4747773346072800e+10  2.1450847206785011e+10  2.7661882811858597e+10  1.6729998113278206e+10  2.9181907759241123e+10  2.1311263089768700e+10  4.5825052908031586e+10  4.5838760920194641e+10  2.0857220610125645e+10  4.4567144997167992e+10  3.5606143875631264e+10  1.6797935382902836e+10  1.6855541840919844e+10  2.0783350060059643e+10  2.1156551868018051e+10  2.0785127743893509e+10  2.6523251986964104e+10  1.6662022301677923e+10  4.4677935111667900e+10  3.6649969290197067e+10  1.9827092054135162e+10  1.9496080851030598e+10  2.0976751135286736e+10  1.9976379035667358e+10  2.1162549531332020e+10  2.5447138129154816e+10  2.3618457393453861e+10  2.4846302099262070e+10  1.8753614267329094e+10  1.6675923644744329e+10  2.1361456253714767e+10  6.8088148578775932e+10  2.0458473481980637e+10  4.4843531630357834e+10  2.8949555862491398e+10  3.6838236345572884e+10  1.6729789711278891e+10  2.0916073097479725e+10  2.0904953418060383e+10  1.6897675712533524e+10  2.0096803101789787e+10  1.9993838045228497e+10  2.3097001564054581e+10  2.5038802775818996e+10  3.4767306381616959e+10  1.6695930518406075e+10  4.4974031091564438e+10  2.0167299642980076e+10  4.4182770234886429e+10  2.5755298145280972e+10  4.0954238065069160e+10  4.5196709834390121e+10  3.3111197017846760e+10  4.8947267325123489e+10  5.0389468327874710e+10  2.5263585947814461e+10  1.6658921443266169e+10  6.7754261806923584e+10  2.8744783707528015e+10  1.6542528173201315e+10  2.0636612920406147e+10  1.6645875448929106e+10  2.7982390722691288e+10  1.6669224288771944e+10  1.6585099857941811e+10  2.8817071614286316e+10  2.5555992273796051e+10  4.4814443658159393e+10  6.9253542420363998e+10  1.9164146098021305e+10  1.6707625091125515e+10  2.0721905966484543e+10  4.8059619766300056e+10  1.9027351818121284e+10  5.0593233941109169e+10  1.6708078257780907e+10  2.4030052658718727e+10  2.0668516804415218e+10  1.6737574856534918e+10  2.0336308506443951e+10  3.1083068374612076e+10  2.4419059161062092e+10  4.5039966643515312e+10  1.9755891629941200e+10  2.7251880343520828e+10  1.7182420051305744e+10  4.3731145346492455e+10  2.0027746039587849e+10  3.0263647837425240e+10  2.8906852504822006e+10  2.2183204703076748e+10  2.2548402528490841e+10  1.9542770643892998e+10  2.8770658492989037e+10  3.1395026016950462e+10  1.9065133626135921e+10  3.2822300325156021e+10  4.2266991636765457e+10  2.2600872417460938e+10  2.9001367312304020e+10  5.0073633987143883e+10  3.5254209494720268e+10  2.9341887970899593e+10  3.0370543735889694e+10  1.9303492760920227e+10  2.9782558949766376e+10  2.7000967256360191e+10  1.8744031445436211e+10  2.3544230308881565e+10  7.1865156102588287e+10  6.9350021312573898e+10  7.0432762249071289e+10  1.9494192467092735e+10  7.1719331114658615e+10  3.3719370706166264e+10  1.9056535509469669e+10  6.8651065958469795e+10  2.7822472613804882e+10  1.8875479835481213e+10  1.6519488101175709e+10  1.8900375438122940e+10  2.5557208873082081e+10  1.6543626479485664e+10  2.3847687754222076e+10  7.1615241519779434e+10  4.1106199297683113e+10  2.4449638403981773e+10  3.0206966079146595e+10  4.3805144002795860e+10  1.6406066226063540e+10  4.2868447755586014e+10  5.2271731604876312e+10  7.1764809715882751e+10  2.9418082918575481e+10  1.6511104075153389e+10  1.7287799949202610e+10  1.6436125841444994e+10  1.6479993675531118e+10  3.2786431876945377e+10  1.6627365111794596e+10  1.6512276653557634e+10  2.4465989963611092e+10  2.5603318487062416e+10  2.2601087639379894e+10  1.9799899445037361e+10  3.3953362111417503e+10  7.1520507746475586e+10  1.6760798718995941e+10  7.0803128839984924e+10  2.9614189228332653e+10  1.7434879590865997e+10  1.6462286803908621e+10  5.2085346252593727e+10  3.4938796994226082e+10  3.2731246078066841e+10  5.0925747409502022e+10  1.9085238182729328e+10  2.9061410650725452e+10  3.4868819911319588e+10  1.8953770175486378e+10  1.6546689140359812e+10  1.7736054756878998e+10  1.6974129587287186e+10  7.1173298157524719e+10  2.7833359960766663e+10  7.2428109725424255e+10  1.7731969937344082e+10  3.3882640944015190e+10  1.8214272396695225e+10  1.6331406981057360e+10  1.6575496663088560e+10  1.6402051115021517e+10  2.0183837410275284e+10  2.0254417841479683e+10  4.3882166717609558e+10  4.4366726140547211e+10  3.4342111354287399e+10  2.5018374923258205e+10  1.6340307526484152e+10  1.6377890659371523e+10  1.6359816962407953e+10  1.6297250979577991e+10  7.0515397164856781e+10  2.5733647247590248e+10  3.3556379235213417e+10  1.6266487846585985e+10  1.6450011416247961e+10  1.6436878764536976e+10  1.6400460754165588e+10  3.4531359668470398e+10  2.0531067450827530e+10  3.7480301359772194e+10  1.6433086917884428e+10  1.6418286787864773e+10  3.1628668224515560e+10  2.5667566354582474e+10  2.4635960919671024e+10  2.9593047415878769e+10  7.2902907542696548e+10  7.2715395630838211e+10  3.8152338871490204e+10  5.1136615205103271e+10  1.9148748485685284e+10  4.9291457832605370e+10  5.8155086807965858e+10  2.8200066692983944e+10  7.2749055141903961e+10  3.3404175427459068e+10  1.9871716659798931e+10  1.8621628572059341e+10  3.3616345843787472e+10  1.9767401914049877e+10  4.6128426777032265e+10  1.8953610961224361e+10  1.8626319557785503e+10  2.4845867953681976e+10  3.2146317710021267e+10  4.5529993657887833e+10  1.9890122441771091e+10  3.7572521686420563e+10  2.1095212238131325e+10  1.8689480990389538e+10  2.4484129999006439e+10  1.6249020280733355e+10  2.2266665060110161e+10  1.6503649766909676e+10  3.2166371443688190e+10  4.7738659315753510e+10  3.3555151416223679e+10  1.9737155870726593e+10  1.9352485316867157e+10  1.6275097243387978e+10  1.9881086053914234e+10  2.4217228464655476e+10  2.3792911538647919e+10  1.9936193189837036e+10  2.5050533536514992e+10  1.6309962706666197e+10  1.8749729416374275e+10  4.8437893845836174e+10  1.6308183191444826e+10  1.6442757951320652e+10  7.4933167203844620e+10  1.9433696883157799e+10  7.4795759564127182e+10  1.7626666359135078e+10  7.2686474247150223e+10  2.5887056640909122e+10  1.9186921375617622e+10  7.2521624973104797e+10  2.3488217024198494e+10  2.1305429073558609e+10  1.6367442727154930e+10  2.4371253570506783e+10  3.8025210743301552e+10  1.6483465845576246e+10  3.3369266489341988e+10  1.9922757417337769e+10  1.8938278945719376e+10  1.6364549380206202e+10  7.4709075588801376e+10  5.5267722756049973e+10  2.4769577675352497e+10  1.8598858456492603e+10  3.0753701405773422e+10  2.4983072641081985e+10  2.1811490792774681e+10  2.7638859172089958e+10  2.5974036129985359e+10  1.6220084304272970e+10  2.3596979127676502e+10  2.1807294229614170e+10  2.5837379471280224e+10  1.8840805339620762e+10  2.5165975609142532e+10  2.1627829130115963e+10  2.3492382380376652e+10  2.1719129665206242e+10  5.6317802327617447e+10  2.6136829554892929e+10  2.3791690402364281e+10  2.1715309716446892e+10  2.7498661804608524e+10  2.4887939653183220e+10  2.5901310606043201e+10  1.8817942210671478e+10  3.1186562711186592e+10  1.8628299382914608e+10  5.0004221369141899e+10  2.1985731616097301e+10  1.6384593865241161e+10  2.3963491852590855e+10  7.5215997031813431e+10  5.3163423107306648e+10  7.4070321505286240e+10  3.9211756953949791e+10  1.8146290014520023e+10  2.4949821707474358e+10  1.9304581501335960e+10  1.9899991857717499e+10  1.8787120032307232e+10  2.9947152295952358e+10  3.6981367562751732e+10  1.6236186248976889e+10  1.6323894709481579e+10  7.4451320525835663e+10  1.6284284629592400e+10  2.4836193742096088e+10  3.9820462113213608e+10  3.0258742334935570e+10  2.5493375733176926e+10  2.8127316539599262e+10  3.3801275119043663e+10  1.9629055410541965e+10  2.0843888800951923e+10  1.7935792055803600e+10  5.5353558098218460e+10  4.8667255166327774e+10  5.2072456909711250e+10  4.7195028749689026e+10  7.4680019922299637e+10  4.8091807421357079e+10  1.8554899323541313e+10  2.3275573507850212e+10  2.1841098472553116e+10  1.6360700384776545e+10  1.8224333321041321e+10  2.4804412317239220e+10  2.5513388796074219e+10  2.2476015260558578e+10  1.6210085346104580e+10  5.5342414408258873e+10  5.0447561894029816e+10  2.2306364301656162e+10  1.6231766649560593e+10  5.5409586538282463e+10  4.1033005263570061e+10  3.3137876924922810e+10  3.3664431816927410e+10  4.0193294370087288e+10  7.4441850945129913e+10  1.6129625631965742e+10  1.9090501434267677e+10  1.8238885627455280e+10  1.9511857811150337e+10  7.6345932100472412e+10  1.6256498588133692e+10  1.6582231169935440e+10  3.1747469045174339e+10  4.2639704054915916e+10  1.7858804118219131e+10  2.1716238865738659e+10  1.6569411456429327e+10  1.7828516831057735e+10  1.8308705132165016e+10  4.1886759932578346e+10  3.2603678899906555e+10  5.3212392926826218e+10  3.9657752519112511e+10  3.6291506573480019e+10  1.6147189912366526e+10  3.2079981714723442e+10  3.0680184258961094e+10  3.8857464969358276e+10  4.0730831289736847e+10  3.1214741676919426e+10  2.7952910567507011e+10  1.9331739676195961e+10  1.8775828184383121e+10  1.6163746162538643e+10  1.9280403702276093e+10  1.7867546504594757e+10  1.6129802064121220e+10  4.0241139638307045e+10  3.1577380573003975e+10  3.7339672138382729e+10  1.6290678956156843e+10  1.8211268331443790e+10  3.2200548411635201e+10  3.8187586965673325e+10  2.9732721667460953e+10  1.6195197216904104e+10  1.6230850935339916e+10  1.6138175973016304e+10  2.7745752317560024e+10  2.8381766971017765e+10  2.3077648794075199e+10  1.6180737654403852e+10  3.1656725879380482e+10  2.7399053088941544e+10  3.3628565726710320e+10  3.3969447488961323e+10  2.2380923644295746e+10  3.6780946703949997e+10  5.3660837021179504e+10  3.1611982823094666e+10  4.2441467216329552e+10  1.6102065371470091e+10  2.5400747235055759e+10  2.0952324818946678e+10  7.6185763381288483e+10  3.9698343146398926e+10  1.8100002588346569e+10  2.0845018376645374e+10  4.0071347897583687e+10  1.6100898946559280e+10  2.4772915246783375e+10  1.8791959729413712e+10  1.7941321689718784e+10  1.8425196705990711e+10  1.6811415697609461e+10  3.1207770781482601e+10  1.6584204015650175e+10  1.8290279821655033e+10  1.6184368087036854e+10  3.2777097225227043e+10  2.6378472324917469e+10  1.6094969197466635e+10  2.1069984606497562e+10  2.0468602237202187e+10  2.1077384289403931e+10  4.7291397807218834e+10  7.6383210481172714e+10  7.5351603153270874e+10  2.1403845273792641e+10  7.5639848532408707e+10  4.8768615745101830e+10  2.2991998382639030e+10  4.1159749364745445e+10  2.1594750316843182e+10  3.0043612969897194e+10  2.4967628794492058e+10  2.0267611080155895e+10  1.6034385699859514e+10  2.6987712498153351e+10  1.8022802441643070e+10  7.8376617464021927e+10  2.1951542836963993e+10  6.7079477112165726e+10  7.5567054857714767e+10  2.5194126437111740e+10  1.6054986978983046e+10  5.7516072495760124e+10  1.7558747743371838e+10  5.1514457987182594e+10  2.0175022625579163e+10  4.5883393061946617e+10  3.2509893529989109e+10  1.8618271912773693e+10  4.4795272460248146e+10  5.5321693128444649e+10  3.2359673376997471e+10  4.0334836878844757e+10  2.0308497624113636e+10  1.9107093733970604e+10  1.7862418299331131e+10  1.5959519593948351e+10  1.6015625382477093e+10  5.7349195049252350e+10  5.2988875490963455e+10  2.0792596581657032e+10  1.6062610395421850e+10  4.5797379880762383e+10  1.6078576545125208e+10  5.2593193594227272e+10  5.8494074672290703e+10  5.3231881380326782e+10  4.7177978512613457e+10  5.6305328667064980e+10  1.6441413952104376e+10  5.9924465061249702e+10  5.2408985633358665e+10  4.7252113643012627e+10  1.6601323206015736e+10  3.8681549581760201e+10  2.4939338525676937e+10  4.1057063501378426e+10  4.6931834844454582e+10  1.6059828746669422e+10  1.6095149727974195e+10  3.1129296322371902e+10  3.2628394282895855e+10  2.4743861784794632e+10  5.8515601110988533e+10  7.6987555523084961e+10  1.8753488072496258e+10  1.8514512045233303e+10  5.3843587841405205e+10  5.9789799122383469e+10  4.1511438113438377e+10  2.5546291715525291e+10  2.2860321443760098e+10  3.1860988488624882e+10  3.1831965888327381e+10  2.1869555778920109e+10  1.8011565450914436e+10  1.7856269347460938e+10  1.5930796702588057e+10  1.5987068331565578e+10  1.5953959565782030e+10  4.3983501179698143e+10  3.6471802186077759e+10  3.3016346333579170e+10  2.9332040875494743e+10  2.6962264659061951e+10  1.6067480116279545e+10  1.8399364757978470e+10  6.4658053477743408e+10  4.2461015598376678e+10  2.4492917903005154e+10  2.7214256539160042e+10  6.4458517367065834e+10  2.4249222667456448e+10  2.1474754050740269e+10  2.1494570833497917e+10  2.0482395674544636e+10  1.8127522941343689e+10  2.3770938998546509e+10  2.4779752215204010e+10  2.7763814502930744e+10  3.2978406228350319e+10  1.9881493273653419e+10  7.6975064860217133e+10  2.9672928883550491e+10  1.6188927633586470e+10  1.5931061261779779e+10  5.5380656718459846e+10  2.7884876990738178e+10  5.1683614516912788e+10  6.0353151226629211e+10  2.4948397471321896e+10  2.0982769025975090e+10  1.6025745530144745e+10  1.6077596272159712e+10  2.7441389248855694e+10  2.6552190430029427e+10  1.7518920699633564e+10  4.9203494244364822e+10  2.5658804714653164e+10  1.7421311839872433e+10  1.7645943045919151e+10  4.1118476114690475e+10  1.5864096903374134e+10  2.1392527211816795e+10  7.9065308158628555e+10  2.5874415836332783e+10  1.5993492760703726e+10  1.5978918161932657e+10  3.9789907178763252e+10  2.0964457948466515e+10  2.9224216643943974e+10  2.2157185904795273e+10  2.1983945367469284e+10  4.2024110064045517e+10  4.5475458886392570e+10  3.6775801130695656e+10  4.3244586205237129e+10  3.8058670034150192e+10  3.3224698852122700e+10  1.6099791986906410e+10  1.7475726502826763e+10  7.0815454596265564e+10  7.9643099757074127e+10  2.6581398450687214e+10  2.0865847322006439e+10  3.7147621647732735e+10  2.5169881878853275e+10  3.2557996621454865e+10  1.9267334174552219e+10  2.2428113992781551e+10  1.7549035821132595e+10  1.8418785328868355e+10  2.9755699154483185e+10  1.5822975344685690e+10  2.6416290904779327e+10  2.5791640143310677e+10  1.9457508404600250e+10  7.6619341826028503e+10  4.2191793686060532e+10  3.0429005995703259e+10  1.7410790241298893e+10  2.3256862154525356e+10  2.4990720934655190e+10  2.0662972287246025e+10  2.1952120025450420e+10  3.0393806171565861e+10  3.0386388813943504e+10  6.8967663533813812e+10  1.5976844919475409e+10  4.3877785044080429e+10  1.7872308610800411e+10  2.2686528238664036e+10  5.6917047507341255e+10  2.0934482888716965e+10  3.4446431113615807e+10  1.8491714845885845e+10  2.3152622550962845e+10  2.3334610555601471e+10  2.5629380449711937e+10  2.4126237986864693e+10  2.6632017287480339e+10  2.6438830494060139e+10  7.8859897092460938e+10  1.7690381161640087e+10  1.5872385136873018e+10  3.2109034290207882e+10  4.2376820968073105e+10  3.0228953024927006e+10  2.1371368378838078e+10  1.5983390449274172e+10  3.2345327830712933e+10  3.3827866797928005e+10  2.1049864626335964e+10  2.2086368134158539e+10  7.6171525858483719e+10  2.0557850625433861e+10  1.9233677401082047e+10  1.6016404510092043e+10  1.5989644634700487e+10  1.7206549352592510e+10  7.8292072804768600e+10  3.6564455568824554e+10  2.3428689580030697e+10  4.5844898404457741e+10  2.0751298208452774e+10  1.7698034140274586e+10  3.0990484782979610e+10  1.6001301050970804e+10  1.8339394198267979e+10  2.7515128740801521e+10  2.5353029754895885e+10  1.7681459238882839e+10  1.8331874204917347e+10  1.7459147997086864e+10  1.8131844211190472e+10  1.9709877885182655e+10  3.1820383959389858e+10  3.8459978550769653e+10  1.7606034224181370e+10  1.6163724765860926e+10  4.9100880781102127e+10  2.2937915429694916e+10  2.7928511137193535e+10  1.7948135389750683e+10  7.8399383812883423e+10  1.7167409377948254e+10  4.2373316066154991e+10  2.4751535134278076e+10  4.5916172715634384e+10  1.9656971352545750e+10  3.0758135562211601e+10  8.0575345901279907e+10  1.5944472047290857e+10  1.7154882576887264e+10  7.8329905381313187e+10  1.5840343967919121e+10  1.7781643253622482e+10  2.5327053219129803e+10  2.0374363000341019e+10  2.4912519463092480e+10  1.7519489870338520e+10  1.7275076180569221e+10  1.5844131505363916e+10  4.4051129586524918e+10  1.9423587910761570e+10  5.9091262998844879e+10  5.6747974141662056e+10  5.9585812255936600e+10  1.5851685797868189e+10  1.7245720589304157e+10  1.5948769964022720e+10  1.8242875262394394e+10  1.5853412796275282e+10  1.8259582085644138e+10  1.5902622109017694e+10  6.1866425432375618e+10  4.1386793403207848e+10  1.5958052298319933e+10  2.4987106260469887e+10  1.9283497727094734e+10  2.0401819986833309e+10  2.1418733156527649e+10  1.5977277387199068e+10  1.7571244351806911e+10  7.9829291769223709e+10  3.0306124488357697e+10  2.2919878031203548e+10  1.5911742734163229e+10  1.6398292308916496e+10  4.9542733263171104e+10  4.5353609143458847e+10  3.1663077283582966e+10  1.5850549698706596e+10  1.5965112214039263e+10  3.1253847145703617e+10  7.9211891971528091e+10  1.8136902277242748e+10  3.4855243201478882e+10  4.0826805227701149e+10  7.4197246403531921e+10  1.9297238141833637e+10  1.7710187025841316e+10  1.5842851137400387e+10  1.9696445317224579e+10  8.0011707955714325e+10  7.8038676754040222e+10  4.0454093971485435e+10  1.9855963183670631e+10  6.0373601742005455e+10  3.3490711229354149e+10  2.1421676219188362e+10  2.5766857549389080e+10  2.3816342340808395e+10  1.5876290465654287e+10  2.1433269752139984e+10  2.3655775245694065e+10  2.3054146991907814e+10  2.1262662776609810e+10  2.4064059972981503e+10  1.5822942857039894e+10  4.0246423578521523e+10  8.0470159624993301e+10  2.1563311127892754e+10  1.9112694328683426e+10  2.3151036202656376e+10  5.4728840766053787e+10  2.7132288517481422e+10  1.5903804489089670e+10  4.7749745123454247e+10  5.3766713306045609e+10  2.2735489121966003e+10  2.9179293064874031e+10  2.0682456388127987e+10  1.5876411482474314e+10  1.9229397458513699e+10  6.3128542874741272e+10  3.0488553431724663e+10  2.6786577864130592e+10  1.8233680980842228e+10  2.5928667729380058e+10  2.0260827345391777e+10  3.7335423775059898e+10  1.7897936973233898e+10  1.9127052466417702e+10  1.7750621719464737e+10  1.8478087539632931e+10  8.0795996678673203e+10  1.5841909543411665e+10  2.8472269749817959e+10  7.8879881480729736e+10  8.1814177910138657e+10  8.0589176391372879e+10  2.1159017275881676e+10  1.7533397214553288e+10  6.0195530840480667e+10  3.5676266765752266e+10  4.0015561833885277e+10  3.1573252648429710e+10  4.5241273245974716e+10  5.8838579467224518e+10  1.5902757245924273e+10  4.6189316245657722e+10  1.5805028561839647e+10  3.6992955899530411e+10  4.4554056265683289e+10  7.9519807251976135e+10  5.6776044476628456e+10  5.6599974562690353e+10  2.7462150229642941e+10  5.2743324835746727e+10  1.5821855285085577e+10  1.7714075819258942e+10  6.2094668019282501e+10  4.3841017359764244e+10  4.0024253723231209e+10  5.6288383344076019e+10  7.9862471744804321e+10  4.1042520273870819e+10  2.9648835533993282e+10  5.5743848113168991e+10  3.0986733687770817e+10  1.9443117302168423e+10  8.0655007984513458e+10  1.7482396485996243e+10  1.5771195540095346e+10  4.5536655410449707e+10  2.0600382088600536e+10  2.5993236312054188e+10  7.9440579109099457e+10  5.5993780029479034e+10  1.8052118115865131e+10  1.7338681481677837e+10  2.1931658894715237e+10  6.9489124659625870e+10  2.2735044138224659e+10  5.6464111543697617e+10  8.0909255845095322e+10  1.8135113662593781e+10  3.3010220331411442e+10  1.8909045073920990e+10  3.8066288843670410e+10  2.9066708387414974e+10  2.4973456431771526e+10  1.8695745056890469e+10  2.5456575692535316e+10  1.9429883647322380e+10  2.2151202566441303e+10  2.5842793921234516e+10  2.1542681584298023e+10  1.5709562735056038e+10  2.0015815238979046e+10  1.7322569971393589e+10  1.7247338226839115e+10  1.5883572522090279e+10  1.5842785252945742e+10  1.5767544656515371e+10  1.8426509851973099e+10  3.5492290361052345e+10  1.8076211784587208e+10  1.5848654470806528e+10  5.5288444632878654e+10  2.8278047313535507e+10  2.0224460766833900e+10  1.5831377040279306e+10  1.9394115859449745e+10  2.1738125797253571e+10  2.2839745787527779e+10  2.6905273842800579e+10  1.8245156747225018e+10  1.5902256765219902e+10  7.4034081010132446e+10  2.1704430128032753e+10  2.1924919158600033e+10  1.5748621578900646e+10  1.7929346254863007e+10  6.2843311724829086e+10  5.5951218428882652e+10  5.2177324533870583e+10  2.2433233190413036e+10  1.8438778449655479e+10  2.0534961511420879e+10  6.2815638656529457e+10  1.7084803742597553e+10  3.8125390385544014e+10  5.8312903434383720e+10  2.9435485898443413e+10  2.6652989046410999e+10  1.8210581215643063e+10  2.6118685711209686e+10  2.8104814406945595e+10  3.9605648015222305e+10  4.1335605331058876e+10  1.7449884576989170e+10  1.8918638511431065e+10  2.2677271669348770e+10  5.4987995854979904e+10  2.1866436771758358e+10  1.7619738778906986e+10  1.5787943856230049e+10  1.5758711123616043e+10  1.8601765020353928e+10  2.0298325164972008e+10  3.5455757731583725e+10  4.1370575505751961e+10  4.0831314726404579e+10  3.9806684517305305e+10  1.5810287648478468e+10  4.6232885742515244e+10  2.0894920273622925e+10  2.3139658719439644e+10  2.1414539901281689e+10  2.2871790776503262e+10  2.4538661414810749e+10  2.6042683281436527e+10  7.9235893295050690e+10  6.6014092771980171e+10  2.3304362067377213e+10  2.1927992078955891e+10  3.4736085712969566e+10  2.3603620369515133e+10  1.8449479353471745e+10  2.2964931038674217e+10  2.3384966979160961e+10  2.5273302469913357e+10  1.5801483062623075e+10  1.5863278672943119e+10  1.9187083885819683e+10  4.8404819718304863e+10  3.2334992701809887e+10  1.8397002768785950e+10  2.6425428861168362e+10  2.7872828388308937e+10  2.2819261058554443e+10  1.9034336261141613e+10  8.1804567562403854e+10  2.0892053823304455e+10  6.3253481697699608e+10  2.6406164231097908e+10  2.9106530924213161e+10  3.2374320274346466e+10  4.3254859432601616e+10  1.6926444163160900e+10  1.6420518579024000e+10  5.2501916186667358e+10  3.9679061637994301e+10  3.7280600486799850e+10  2.3637416647167408e+10  2.2776805790592369e+10  2.4119860615483143e+10  1.9714805501785088e+10  2.7025587311850048e+10  8.2856142381215271e+10  1.5706088836855873e+10  2.0228149659671173e+10  6.2497992270532867e+10  1.5704023093665545e+10  1.5816699364811214e+10  2.3053851246780968e+10  1.7073122400128559e+10  1.5719247898609528e+10  5.1630999447931122e+10  2.1480329237087959e+10  6.0958321915621071e+10  1.7206778565034016e+10  1.6987961746145233e+10  1.5746817247237141e+10  1.6102637434377836e+10  2.6306565147983269e+10  1.5763736996149111e+10  1.6704966589606615e+10  1.7528003334060577e+10  3.1318353099298985e+10  1.5820499467906837e+10  1.8559696574169907e+10  1.9875679947951824e+10  3.0118524507815010e+10  3.8191520687793533e+10  1.5752335054630714e+10  2.2713068193156620e+10  3.7555762829915588e+10  2.5623785247203999e+10  1.9220676888078709e+10  5.2081824102919174e+10  2.8710646532289604e+10  8.1577908091301163e+10  2.5742353576848274e+10  1.9102164827626896e+10  2.0783397286411831e+10  3.1984303991958904e+10  6.8125344539937988e+10  3.7086668973818710e+10  1.7522873844833267e+10  1.7516810239148613e+10  5.4736239714147049e+10  4.2175955167925056e+10  2.1797958028465553e+10  1.7137859040126856e+10  1.5767851374819069e+10  2.6878588934364834e+10  6.3117888630602615e+10  3.0976642196278481e+10  2.7141261128857944e+10  2.4597291464048981e+10  3.8378921634628075e+10  6.9300361753408569e+10  1.7131389339528605e+10  1.9763471254622902e+10  1.5849958968183022e+10  2.6926125944289757e+10  1.5743512662726952e+10  3.1427425285767857e+10  2.4631480678403160e+10  2.1668185398940338e+10  1.9009785204008354e+10  2.2136959086364296e+10  2.0362014065249115e+10  1.5725175301327103e+10  1.6721801696657431e+10  1.7744199054230564e+10  2.1291326536266102e+10  2.2656013705810780e+10  2.0569504456502876e+10  1.9539175252820301e+10  2.2513039815334103e+10  1.5835608530049488e+10  2.0518459928967766e+10  1.5831772353867371e+10  2.6342386720241501e+10  2.5933185891248322e+10  2.3779551512385941e+10  4.0962436983239594e+10  1.7312590229346714e+10  2.2488347699909683e+10  2.1689555620267895e+10  1.9349590465131550e+10  2.0242999443091068e+10  2.1828055806902145e+10  1.7101297647612257e+10  1.7054694385592728e+10  8.3623471618506744e+10  3.0781103021986237e+10  3.3391519091063004e+10  1.9492230316383984e+10  2.5840756013916759e+10  1.7103641570654224e+10  1.7757891136583988e+10  1.5795447968098230e+10  2.5908099833312183e+10  6.5219412025992569e+10  7.6691855900277176e+10  1.8476760324523422e+10  5.0519858215912926e+10  3.4200349471551426e+10  4.0051319280155991e+10  8.2420417886885559e+10  1.7496070705482162e+10  1.7354143804550205e+10  1.6675058554043673e+10  2.2589661543654285e+10  1.9937849447091106e+10  1.6109908132613317e+10  1.6190187821817451e+10  3.1664513871121044e+10  3.7528940405800728e+10  1.5787994326848225e+10  1.9753895478297485e+10  2.1074690460760971e+10  8.1514169008901657e+10  5.9765714983302406e+10  5.8135899766009552e+10  2.1139672420293221e+10  2.5302175798888294e+10  2.6888576568225880e+10  2.7722884790220249e+10  4.3471623353545570e+10  6.4202503549074387e+10  2.2817061735143932e+10  2.8044946895550320e+10  5.1182494133445641e+10  3.9506048871234116e+10  1.8084371008353779e+10  3.2377164795945454e+10  2.4111255571779259e+10  1.8935508060061943e+10  1.5716367155166338e+10  3.6117113217968933e+10  2.3123406091906837e+10  1.8817267834852753e+10  2.1451259910560131e+10  5.4968929729472397e+10  4.5309345009807495e+10  5.0925034131399208e+10  6.4782297580256729e+10  1.6264832577846106e+10  3.0949938599844337e+10  1.6930887703007881e+10  1.7703994702312759e+10  2.5664223966290977e+10  2.0494737213937893e+10  3.5141546496185471e+10  8.2332117052806000e+10  2.9053470496102612e+10  3.2004895951819485e+10  5.2309979446647079e+10  1.9589097359865513e+10  2.1481039501436428e+10  2.0374135051166279e+10  2.0167615077880707e+10  2.0041275364518764e+10  4.8197995815681732e+10  3.4951965434902382e+10  3.1476235394732212e+10  1.6947801687938147e+10  8.2941564825231934e+10  2.0111765272180954e+10  2.2543500893978443e+10  4.2180029599347313e+10  1.5775759809012543e+10  5.1131928309595284e+10  1.9066013385459637e+10  1.9388529886544468e+10  5.1895615888775154e+10  4.5961401226463219e+10  3.9665564956389313e+10  4.8070875260172546e+10  3.7520741012549759e+10  2.8529337353968063e+10  4.6570851101844696e+10  4.5572950317911522e+10  2.5660281595983246e+10  2.5616364085959225e+10  5.0197949074778725e+10  4.2963172771670715e+10  5.1506970977496552e+10  3.9679466262471863e+10  4.8230781064224739e+10  1.5774353239484388e+10  2.6199016438168617e+10  1.5684328623236179e+10  6.4426887303124146e+10  4.6747763464472916e+10  3.7144436861840889e+10  3.4670297885551529e+10  1.9859582991475731e+10  2.0933421354870338e+10  4.4830871865734993e+10  1.6814975015121475e+10  2.0930503838043682e+10  2.6137579702187603e+10  2.8903447534619740e+10  3.1806349622192364e+10  2.7079856236350712e+10  2.5214571248417198e+10  3.0693245231126053e+10  8.2153781756889847e+10  2.0022935237048000e+10  1.8039393189913780e+10  1.5757128553942814e+10  6.5304116081739296e+10  8.2044396212200882e+10  3.6288906675019440e+10  2.1628595981178703e+10  1.6718986262344738e+10  1.7402884512853313e+10  1.5693819515037689e+10  1.9698595038982357e+10  3.9989241321542488e+10  1.5680708267967909e+10  1.8392293344310791e+10  1.7139894791585789e+10  1.7556716256265743e+10  1.6876631596828175e+10  1.9241105947339077e+10  2.1667866840881847e+10  3.2291100923186218e+10  3.5794412771797234e+10  3.6468631781449623e+10  2.5937267685646511e+10  3.1628294354929642e+10  2.3129917454288307e+10  1.9602057578163494e+10  2.0926759665643452e+10  4.3295106953033554e+10  5.4371499690160713e+10  8.3853455612099075e+10  1.5754908210742582e+10  1.7564949171298378e+10  3.6929605349367485e+10  2.0666914134640869e+10  3.8074333965320084e+10  4.7973222516398643e+10  2.5950127937696800e+10  5.7352440101215569e+10  2.3511125601342342e+10  6.7140978257034790e+10  1.5623078931094486e+10  2.9580393984389988e+10  3.3598676705539684e+10  2.7808693072466309e+10  4.8125281736285507e+10  2.4178794277093708e+10  1.5748610045937763e+10  2.6459026692247036e+10  2.2518442518903290e+10  1.8445912535072319e+10  1.7924488530985306e+10  2.8507798565737499e+10  1.6938012968854069e+10  4.7948577092427620e+10  3.2598750972858742e+10  2.8682856147362366e+10  1.9265662402009552e+10  2.0616374428226616e+10  3.4239623785750546e+10  2.9611814721947659e+10  4.1319463242530312e+10  4.0360241197793793e+10  4.8314752008510178e+10  2.1377002272629078e+10  4.4391399138806870e+10  2.1911750894705189e+10  1.5687114104654499e+10  1.9376744778144829e+10  1.8671672511313293e+10  5.9239853678176468e+10  3.0453458902385036e+10  2.8852097140993813e+10  1.7731398757130383e+10  5.0070803845700829e+10  3.9371549540175301e+10  3.3037183689472111e+10  2.8484515494911045e+10  3.5203202494031700e+10  2.3810766039767391e+10  2.2785383011243462e+10  2.3759890908147491e+10  1.6857464945737301e+10  2.6965761686848946e+10  2.5168364661189396e+10  2.9818601767345066e+10  1.8959539146158016e+10  2.7784463091007538e+10  1.8555538384674839e+10  4.2385843250645973e+10  1.5636936526857510e+10  2.2693854481702347e+10  4.6294241384071342e+10  5.4551013710022484e+10  1.7281731800653435e+10  2.6925120762343575e+10  1.9941541984713905e+10  1.5692326192736877e+10  1.5598834547186430e+10  2.4930387612518311e+10  1.5650368011623827e+10  2.0057596883952278e+10  3.6388988058073151e+10  1.8619936016310890e+10  5.6535188192620972e+10  3.4243372242341782e+10  1.5755957754118057e+10  2.3766331469733017e+10  2.1010027156422749e+10  1.5733108132296143e+10  3.0478734332625813e+10  2.7076535985905685e+10  2.3989022568859375e+10  3.5859325007019341e+10  6.0013367236266479e+10  2.3219837268868114e+10  2.1776766580781109e+10  4.0470806224635307e+10  2.7152738026212940e+10  2.6004594581848568e+10  2.7781180463880657e+10  3.1873502616475956e+10  3.2018537903186260e+10  3.5968354983908394e+10  3.4489910842094864e+10  6.6481971943759056e+10  2.1256991639282227e+10  3.5924893999779236e+10  3.5760927045940765e+10  1.7806997139829971e+10  1.6816190189949734e+10  1.5773180960925865e+10  1.5725183417767300e+10  1.8830695453322311e+10  1.6580655496348639e+10  6.1142626739937698e+10  2.0547560156786701e+10  2.6685853103146248e+10  2.9354159068741493e+10  3.1704658004368645e+10  2.5830086856256481e+10  1.9079844854296871e+10  2.0719314353805511e+10  1.7105167439376295e+10  1.8558133781024284e+10  1.5712740381849325e+10  1.8270540337908417e+10  5.3225509899287758e+10  1.5680729776157734e+10  2.7268473072776966e+10  2.2716039620016056e+10  1.5679130606400570e+10  6.3625731125460831e+10  2.7053524370109917e+10  6.6896087867639641e+10  4.1336383383685165e+10  1.7663495550378361e+10  6.5147918020780319e+10  2.7894475097750172e+10  2.3554186579822521e+10  6.7688057710119820e+10  3.9530770120023155e+10  1.9770825615870033e+10  1.8923980285004013e+10  1.5762407413607285e+10  1.5848548093961742e+10  1.6902880670398533e+10  3.8489134827986130e+10  1.7753645960005329e+10  2.2526539373230240e+10  2.3935700037679924e+10  1.5657274610796413e+10  4.4372760262248047e+10  3.1555767039282509e+10  5.1698946612245628e+10  1.8721488554080708e+10  1.9384763896452080e+10  1.5746839750089699e+10  1.5753197967510859e+10  1.5865276505516338e+10  1.7395711921265820e+10  8.3114270342556976e+10  1.5681264096334530e+10  1.8102813836548996e+10  1.7165933041982561e+10  1.9375259669252296e+10  2.1889197269376011e+10  2.7779884655688759e+10  1.7937561602400314e+10  1.7471721640248898e+10  2.6176967996934597e+10  2.2682049008262081e+10  2.8722437343558319e+10  2.0574545945445301e+10  3.1070296470124649e+10  2.9730239585131168e+10  2.3627898468245136e+10  2.2295656247955288e+10  2.1074080339149708e+10  1.7403629854280365e+10  3.6250769934300957e+10  2.9501482485509106e+10  2.1631225509327988e+10  1.9652940754222507e+10  2.0924758620917187e+10  1.8073941668835850e+10  1.9926272784657784e+10  4.1875074919259354e+10  4.1102272001455956e+10  2.7954955859892643e+10  2.2989429979962975e+10  2.3761387824856167e+10  1.9907898011457882e+10  2.0615288093966141e+10  8.3775530435860428e+10  8.4230505865327789e+10  1.6357108331383436e+10  8.0089478967121582e+10  1.9739706995613102e+10  3.2067913026080643e+10  8.4191565505349655e+10  3.8960080626182236e+10  2.4352923359801697e+10  1.5695934582378574e+10  6.7426995172970291e+10  8.4170159077890930e+10  2.1776042811879829e+10  2.8322939472037556e+10  2.3235047439819042e+10  3.0470867242738567e+10  8.3909055497140015e+10  4.8425869331355888e+10  2.3013079383630157e+10  1.8281662657692318e+10  1.9187579716525761e+10  4.6139135159661179e+10  3.1447526502357262e+10  3.7518485024642601e+10  3.6252280000161163e+10  2.0046542916009758e+10  3.5474639529359207e+10  5.1163419642856361e+10  2.6367832452062431e+10  2.3985591320283783e+10  2.2735343317450840e+10  1.5738704836030373e+10  1.9636222800334057e+10  1.7833075964203068e+10  3.3206947961626228e+10  3.0673238868568691e+10  2.1498293340729885e+10  1.6679109595268555e+10  3.0072501983471699e+10  1.9441851249036766e+10  1.8042081699907265e+10  2.6352436832874489e+10  2.7667959146397129e+10  2.1784484591175976e+10  1.8367755548019184e+10  4.6060001259394714e+10  6.3032097520524574e+10  8.2420983363848724e+10  1.8398777245952385e+10  1.6169434130003004e+10  1.6755890931170912e+10  1.8906194467858364e+10  3.7786302442407036e+10  1.5739147189465008e+10  3.2567749887271538e+10  5.3302214148760651e+10  4.0753286126474709e+10  4.7936599627522850e+10  2.0277930576826046e+10  1.9071140671862736e+10  2.0792748475656948e+10  1.5562960833660318e+10  4.2168717707282509e+10  2.1104168340595127e+10  2.3184340655014561e+10  6.1811494696367874e+10  8.2507709249530975e+10  2.3918283227656204e+10  1.8288631177557533e+10  1.7982354143392166e+10  6.6508712179832458e+10  1.7490669637119278e+10  2.5402421114122005e+10  4.5796481185596809e+10  1.5573956352020412e+10  1.5606222599291304e+10  5.0892832574965210e+10  1.7261518970206783e+10  2.7013746497027996e+10  6.4799817496987793e+10  8.6175142878346878e+10  5.9765315349358147e+10  1.9457887094261292e+10  5.8437966873313202e+10  3.4515435229231293e+10  2.0080141541551262e+10  2.8176602092377773e+10  2.9774322432299999e+10  1.5675539895089218e+10  3.6092437555712364e+10  2.6179670055370693e+10  3.1535923248314095e+10  1.6850332134303717e+10  1.5759177948730497e+10  1.6466887896101849e+10  2.0036102568270794e+10  1.9626677350190746e+10  3.7602619857822845e+10  3.9895036759999489e+10  3.3614489726798210e+10  6.9693269531813065e+10  3.7818332632556252e+10  1.5611300638509306e+10  2.7587673470324234e+10  1.8687978165852474e+10  6.2767844763457497e+10  8.3295497265460251e+10  1.9782668118394077e+10  4.1559878149243797e+10  1.5705084880024147e+10  1.6815554369274662e+10  1.6975400335285847e+10  2.0249162281622200e+10  2.1745398321891266e+10  6.1705065610131851e+10  6.8492216982193642e+10  6.5506225564022110e+10  1.9775575321473934e+10  1.8702237424829880e+10  1.5808063379604799e+10  2.7879718996535175e+10  2.9284470351254196e+10  2.3341306978649395e+10  1.6840764852498816e+10  1.5685064404846098e+10  3.6805169875061775e+10  3.2235329828693996e+10  3.1140502797909691e+10  2.1834347734959175e+10  1.5657492948308033e+10  1.7000807274379587e+10  1.6841515946560123e+10  5.3719433587130135e+10  8.2877989142201004e+10  6.3068736776640434e+10  2.7357030986137859e+10  2.1105596190858364e+10  2.0001829366116211e+10  1.8630680495772942e+10  3.3571276088253422e+10  4.5306692557630104e+10  2.6417500222265247e+10  6.8375121592805321e+10  2.3298497050959076e+10  3.1832354179953197e+10  2.9289433917158302e+10  2.0428548147127068e+10  3.3051182862989391e+10  4.4925959812235809e+10  8.3417095420657837e+10  1.5584207681242985e+10  4.6288398985935921e+10  1.6920495871477909e+10  2.0092829628730774e+10  1.6722720764445049e+10  1.6778475172180498e+10  2.3549054924526573e+10  3.2486368704101414e+10  2.9364173583552055e+10  1.7233783253523998e+10  1.5703059956054802e+10  1.5684018642897633e+10  6.6861082808554283e+10  1.6556910550060770e+10  2.7008659062298870e+10  2.4939505738339561e+10  2.7675632024839382e+10  2.5064485408570332e+10  1.6675766655895576e+10  1.7447375211932644e+10  1.9195837171788750e+10  1.8339559760730919e+10  2.6731593975927368e+10  4.8625522307444420e+10  5.5238687530537308e+10  8.3570685973681244e+10  8.4739070117251770e+10  4.6615015566541267e+10  4.9244201994601410e+10  3.9502574430847717e+10  3.9159916241978172e+10  4.6560510590005508e+10  4.8953097182207199e+10  3.5901564519021172e+10  1.7428451516910179e+10  1.7317900900883591e+10  1.8812329685627575e+10  2.0337818364593697e+10  1.5621600932922462e+10  3.8035513539490143e+10  3.6724018432442024e+10  1.7289814464308823e+10  1.7356088931561108e+10  3.2007264653936550e+10  3.3049493643399590e+10  2.2639914713489891e+10  1.7992570909401516e+10  1.5627477363199621e+10  2.3702061496463493e+10  2.6454164550564873e+10  2.5542143285137333e+10  2.8390626965398033e+10  2.8375290693296528e+10  2.8697793484139927e+10  5.0901843296590393e+10  4.3772348227111099e+10  3.0902335072653839e+10  3.6152586967532913e+10  2.3961104856678005e+10  1.8549046187006504e+10  3.0665960990259418e+10  3.2397502412787811e+10  1.8146534340282158e+10  1.7643687091148140e+10  8.3612818648825760e+10  2.2591755551480213e+10  2.2792605311463676e+10  2.1905563088170624e+10  1.6926304200461987e+10  1.5703056031301485e+10  1.7657016102882137e+10  2.0789927630043354e+10  2.6834095043669022e+10  1.6995559527006123e+10  3.4073997887515606e+10  6.3231278280001602e+10  2.6123891014490158e+10  7.2354172351766815e+10  1.6614178540089727e+10  1.7190073657351334e+10  3.4778761025596832e+10  3.5091824519889305e+10  3.1319299933019333e+10  2.6819888636303158e+10  2.3818142591542187e+10  1.6891818422739418e+10  2.2241220211468525e+10  3.7559144990422882e+10  3.7879390608844604e+10  4.2485438345903534e+10  4.2174776254571381e+10  8.2958836713170334e+10  1.8381700590826046e+10  1.7855797018070465e+10  5.8453789675107628e+10  1.7445069403325111e+10  3.8723106951397087e+10  8.4556861387886948e+10  2.4301206501202759e+10  1.9593646725890247e+10  5.3395405148483482e+10  1.7076106631372644e+10  1.6740461127570414e+10  2.1152980740038448e+10  2.0661251984635681e+10  1.6455099561484573e+10  1.6761293285890440e+10  8.3358208889747452e+10  1.5616476186292725e+10  3.4175888860379501e+10  3.0929315393139572e+10  6.0556578207150787e+10  2.3923863635619690e+10  2.0808285228766220e+10  3.4871312445625000e+10  3.3559905001651390e+10  1.7074809492844278e+10  5.7340534132959702e+10  2.5697376870980461e+10  6.5893670644554108e+10  2.9089442128925175e+10  1.8662979022153931e+10  1.5696162844385153e+10  2.3027862740004776e+10  2.7193870438261475e+10  1.6933809279066660e+10  4.3761791337869904e+10  5.1050678101098770e+10  2.9605208620682613e+10  2.9227738627390816e+10  3.2227977786003296e+10  4.5886384540250595e+10  1.8797491377822609e+10  1.8868210630595688e+10  2.0724553212540218e+10  4.7333470186366150e+10  4.0255781409233788e+10  4.6366327455968735e+10  3.4520326202593384e+10  3.0235792340799000e+10  1.6693974238960730e+10  1.7194985555413273e+10  3.5516672560232193e+10  3.0582284835644436e+10  2.3946967154211834e+10  1.8771956665219044e+10  1.7374124890936405e+10  1.6598757427295292e+10  2.2328035123786949e+10  2.0519889924123585e+10  8.3948565977274139e+10  1.8125018692356903e+10  3.1381555488756828e+10  1.5675745691751377e+10  1.5675487529456764e+10  1.6804145289640192e+10  1.8228551685331863e+10  1.7046107984854912e+10  6.5208442693823006e+10  6.2068019728474823e+10  1.6921523547351011e+10  3.4235231188830429e+10  2.8072107641091316e+10  1.5684664183184288e+10  1.6797679333153248e+10  1.7162752345921606e+10  4.2556791863905739e+10  4.6855902071027466e+10  1.7643818184983356e+10  2.9583305694117840e+10  4.0803926350645721e+10  1.5544270000918646e+10  8.6690716727704514e+10  1.5725096897235329e+10  1.5640817230377205e+10  1.7212679897349056e+10  1.6830323486645159e+10  1.5615767378508217e+10  1.5583157224459032e+10  2.5935332553306870e+10  2.5823768807988724e+10  2.3955297696141029e+10  2.3079713815414524e+10  1.6634889772315748e+10  1.7232485395301445e+10  1.6719571801013338e+10  8.6417815888925964e+10  2.4592483334861183e+10  5.2552045515533363e+10  3.1792025706005352e+10  6.5388500818623764e+10  1.5592621083709723e+10  1.7214621937350422e+10  1.5640890710281891e+10  1.8133417876409760e+10  1.8907067698822308e+10  2.1138617114336220e+10  2.0241716761167404e+10  6.7129181528094971e+10  1.6500233101443693e+10  2.2926808412076321e+10  4.2942573275088379e+10  2.4454529949592266e+10  2.5245716859480877e+10  2.6396168630004677e+10  1.7980977809778748e+10  1.5702915247495695e+10  2.3040404054586132e+10  3.2255353705545731e+10  1.9511297975169647e+10  3.9867851892071587e+10  1.5615813409865143e+10  2.4811156014749588e+10  3.8132301107254776e+10  2.4530751704790714e+10  1.5610884048737244e+10  4.4437219860784210e+10  1.5630687739308502e+10  1.7051219319786406e+10  1.6584306153129829e+10  2.0345049006470539e+10  1.7560770013459412e+10  1.5561424825902166e+10  3.3220315828940750e+10  3.6229680083673149e+10  2.1445551793323261e+10  1.5687578355014236e+10  1.5643331707698008e+10  1.7092439000168613e+10  1.7269720605161831e+10  1.9803589529364506e+10  2.1685565765630424e+10  2.8203554256059124e+10  3.2164632853230873e+10  2.4985110886912373e+10  1.5632559510979300e+10  5.1079998740776779e+10  5.1359579859012436e+10  1.8484090224032146e+10  2.2207149346948997e+10  2.0788757846431328e+10  3.8196266972054878e+10  2.9506916119939945e+10  3.2953719278412800e+10  3.5229799341617882e+10  2.2776572409669781e+10  1.5663462364903540e+10  2.4345563674090382e+10  3.4579826443632492e+10  5.5657629673304123e+10  4.7366623217040039e+10  4.5001377065594093e+10  2.5908381053925316e+10  4.0093573815253067e+10  3.4450250010205353e+10  2.9113597141010159e+10  2.9536756201891869e+10  1.8859982322530350e+10  2.3300882539980515e+10  1.5659818738647881e+10  3.4077163750058369e+10  1.5582255809760637e+10  1.8550248571896393e+10  2.2948411639550678e+10  3.3278067136857574e+10  2.8750394705071213e+10  2.0527621666513809e+10  6.4513141569589905e+10  1.8630546256463615e+10  1.9943842187546043e+10  1.8770241108385422e+10  2.5591824879920856e+10  3.1319041815943733e+10  3.0917543798268940e+10  2.9300284434170372e+10  1.8541846644018246e+10  8.2750674632464737e+10  4.1522582664652168e+10  1.8238129547864277e+10  3.0276934496745258e+10  1.7580483616288853e+10  1.9404587368293694e+10  1.5798684593208065e+10  5.2149934054639374e+10  8.5167001876054993e+10  1.9328496735387897e+10  1.8379829579845829e+10  1.9915721415057388e+10  2.7365463840190857e+10  2.2205806321596302e+10  1.7115878972301657e+10  1.6803488959462379e+10  2.0370658908321243e+10  1.8969288861830574e+10  4.9035263086055534e+10  8.4337687199741013e+10  2.3868967282949802e+10  2.6414494937585052e+10  2.4164993286776886e+10  2.4221208991115612e+10  1.6631073578458361e+10  1.8158027350160244e+10  1.8230177616216984e+10  3.3924284373257156e+10  2.1529984540921177e+10  3.2988004373504608e+10  1.9734494239071224e+10  1.8530753939695301e+10  1.7135916612487263e+10  1.7412623677957127e+10  8.3571080484312805e+10  1.5611499031598902e+10  3.3330021456690315e+10  2.0461328483543972e+10  4.1265435807210648e+10  1.5624561569731039e+10  2.5698415592518852e+10  1.8262202492683819e+10  2.0912124440401440e+10  8.5514922245916855e+10  1.5516530951470991e+10  3.5201905015344742e+10  5.4252918216134308e+10  1.8163769639617691e+10  3.3205033527922436e+10  8.4601309819608475e+10  5.7906701070286316e+10  2.4498430631119698e+10  2.3158137016248074e+10  2.3680620280879459e+10  1.7715242155825882e+10  1.7154101507840626e+10  2.1951796199082348e+10  7.8572839791803497e+10  2.0359712921191509e+10  1.9533113285003738e+10  1.8058745478391808e+10  4.5056213929120041e+10  8.4658496227092270e+10  8.3911888464127014e+10  1.5553459363159922e+10  1.5630192774174206e+10  1.6644340527820082e+10  1.5556476386279465e+10  1.6565702831385677e+10  1.5614100702871458e+10  2.7505894217978878e+10  3.0889908820572018e+10  3.3530859704274349e+10  1.6606618682363132e+10  1.8505122154367603e+10  3.1458227022542709e+10  2.6327629123781979e+10  2.0310083817429932e+10  2.4374692510043350e+10  7.0075122062949326e+10  1.5557726574295767e+10  1.7166905059915997e+10  1.5572892926453316e+10  1.5640238274968525e+10  3.2420012677380260e+10  1.8743058262565369e+10  1.6615896714746443e+10  2.4665440999161274e+10  2.2802153586126461e+10  2.0783160351334717e+10  2.1077667070103298e+10  3.7720938291117226e+10  1.9331117488633121e+10  1.5597555133387865e+10  1.7380095474379395e+10  2.2106096021008793e+10  2.0812266606002472e+10  2.4602064029046856e+10  1.8193879162891186e+10  6.9509708153978790e+10  6.3770568428332413e+10  7.2110531445713669e+10  2.0943140724923756e+10  4.1887131319052986e+10  1.8145132255066013e+10  1.7747438724331360e+10  2.4573548920819332e+10  4.2110821929033684e+10  1.8861946723288303e+10  1.8428559389313034e+10  1.8244624097303688e+10  1.5635485448993828e+10  1.5676675576827963e+10  1.9817822902321796e+10  1.5586206246069210e+10  3.6304131403754219e+10  1.9527227281105885e+10  8.4577707024936646e+10  3.2892731917785320e+10  2.5974702514934444e+10  4.9679475737542007e+10  1.9761424979840427e+10  2.6741923993403893e+10  2.5019992636756027e+10  2.6736508666172760e+10  1.6467654970387177e+10  6.5125129791903206e+10  2.0235917813794044e+10  2.0871505935947090e+10  2.0089490920850677e+10  2.7237989170884171e+10  2.4854989251881268e+10  1.9279149986447037e+10  6.2608543032038414e+10  2.4619635272683186e+10  1.6446573970643167e+10  1.7853811733679317e+10  1.5515731576188465e+10  2.2829618771565067e+10  3.6752623534338020e+10  2.0904343635907711e+10  1.8757008779565075e+10  1.7148960764439537e+10  5.3760763511859283e+10  1.7187693701376190e+10  8.4320127722738983e+10  6.6693770064391907e+10  1.9766338624068428e+10  3.1716129037506939e+10  1.7410212047200119e+10  6.7229250762366508e+10  2.2924794655490696e+10  5.1820161280642746e+10  1.6510098456411396e+10  1.5627767121806637e+10  3.0931196355879951e+10  2.1155202625948078e+10  8.5159170276580475e+10  1.6727897361794243e+10  2.0499703681015255e+10  1.5511498881116564e+10  7.0843129353575546e+10  7.0334327666236465e+10  2.5866395498647755e+10  3.4387608419137321e+10  3.3027756069630733e+10  5.0893789308476433e+10  1.7802224761021034e+10  3.7129628071249176e+10  1.7693813515501568e+10  1.9198514301454723e+10  3.0698586604222984e+10  1.9381331081419685e+10  3.9883008977107040e+10  1.9099981336519230e+10  1.5500981301600258e+10  1.5592914320063148e+10  3.1136247842131912e+10  3.3381053997041233e+10  2.2274540974190601e+10  1.7902183763651100e+10  2.8836151954644485e+10  8.5036205208703415e+10  3.1018721656498558e+10  3.6107086624631958e+10  2.3834121718743946e+10  2.2064830442500084e+10  3.6621814425448273e+10  7.2916536487686935e+10  1.9663343473724796e+10  2.4446602366518230e+10  2.2881761542758167e+10  2.2407947913678631e+10  3.0172332117023430e+10  1.7722134982457973e+10  1.6624764148679935e+10  1.9494115238397907e+10  1.8689539536234562e+10  1.7831827104609791e+10  2.3145798545475025e+10  4.2232736577167099e+10  1.9638101956315842e+10  7.4922131043907715e+10  8.6412272612141953e+10  1.6809960620314642e+10  2.1677235610911556e+10  5.8408052366736023e+10  2.8513637818021866e+10  2.9639267910568508e+10  3.2610907713755550e+10  2.9046513707074829e+10  3.3812181124477409e+10  2.4131461225574905e+10  2.5756838222881454e+10  1.8311770947819244e+10  1.7973020279384083e+10  1.9580176091200985e+10  2.0891743159105694e+10  2.1221486361463882e+10  4.3849413212643326e+10  2.6063924835326160e+10  1.5515964112639908e+10  2.1418973222357513e+10  2.0152479710263756e+10  1.6751880871680826e+10  4.1198253963170341e+10  1.8765168265013634e+10  2.3177847880687546e+10  1.5675410402249916e+10  1.7202097374786827e+10  6.1218885784246696e+10  1.6500052577588837e+10  2.7661713932839077e+10  1.5772026587131205e+10  2.2721495338685955e+10  2.6445522470337116e+10  2.4751198107025806e+10  2.7331092755540215e+10  1.7736901134893967e+10  2.4130072423111740e+10  2.2434787387281082e+10  1.7924305918196049e+10  2.6291089585123310e+10  5.8520476446734734e+10  2.2193498799763191e+10  1.6474438312164293e+10  1.5569338968062595e+10  1.6994063874318913e+10  1.9115516652106483e+10  4.5296584522841545e+10  1.7385500818161106e+10  1.8088370319831802e+10  1.8939408630516842e+10  2.0900934579240688e+10  2.1983480286170170e+10  2.4856472268210972e+10  2.7424970806531116e+10  2.5230409420379379e+10  2.4395874270017632e+10  2.1360972361958939e+10  3.4672265360669632e+10  1.6909415846115938e+10  1.6266806788858807e+10  1.6556730939073187e+10  1.6574775286099014e+10  2.3179596647064293e+10  2.5395647529556511e+10  6.1258913623197807e+10  2.1116856924145901e+10  3.1883351401125313e+10  2.8637885763733215e+10  2.0450723073286583e+10  4.2558185310203911e+10  4.9347246935181450e+10  1.9385867523834404e+10  1.5497660848544588e+10  6.5079151984809685e+10  3.0126030384138668e+10  3.1237111407729950e+10  6.2311061942424118e+10  2.9609690234371063e+10  4.2020402869199318e+10  5.7602679581810898e+10  2.0733610111537155e+10  2.1812466125120564e+10  8.6542266788112030e+10  7.0097254123504105e+10  1.7379201936752026e+10  1.7000531378612963e+10  1.9620838227761959e+10  1.5902612428371977e+10  8.4906203245733673e+10  1.8497934897993431e+10  3.6949993798034821e+10  7.4263770746603104e+10  2.1743715204932552e+10  3.6935402822249252e+10  3.2773748128328396e+10  2.9039458454967037e+10  2.3321079938178150e+10  2.4904576597929535e+10  5.6139310220757263e+10  5.9121192584630623e+10  5.0819274912319748e+10  1.9831708353822437e+10  2.2829258914967014e+10  1.9240744437165791e+10  1.8522879635235214e+10  2.3425748078238972e+10  5.6535191888625053e+10  5.0821786309708565e+10  8.6672629452638199e+10  2.0145206827441803e+10  1.8810084896141380e+10  7.0013525794380035e+10  5.2432933761269661e+10  1.5555947273266306e+10  4.2641984416268967e+10  4.1916988519161804e+10  3.0091424688630299e+10  2.8657597927531616e+10  2.6475722038710796e+10  1.5493053472269850e+10  4.0890811307681435e+10  3.6205798161308220e+10  3.7058398543502899e+10  2.0983464573270432e+10  2.7383132380984230e+10  1.9507766808164112e+10  8.6971610274983276e+10  2.5317905832671570e+10  1.6964447590047817e+10  1.9197210665457176e+10  3.5186603527003662e+10  4.0969535026491051e+10  1.8558043775782761e+10  2.4210291286941910e+10  2.6279219735162186e+10  2.4110176772894218e+10  2.3368540624456463e+10  1.9023252932964798e+10  1.9573202766498947e+10  1.7099287850908464e+10  4.2989505777802795e+10  3.2890741299496929e+10  2.4321243267387276e+10  3.4450416631017532e+10  8.6539847369096436e+10  3.0558283705285858e+10  2.9117238628291119e+10  2.7571304691863804e+10  5.4287146498099670e+10  6.4688240280550644e+10  4.3779933349877594e+10  3.7243687471005859e+10  3.7710258308939377e+10  2.7577628718461941e+10  8.4826368180103333e+10  6.0436397792834328e+10  2.0214609887885548e+10  6.9529558158460068e+10  2.2975671708086182e+10  2.4176964898907818e+10  2.2597512582890663e+10  1.7743085260337105e+10  5.0155678745108345e+10  5.3936755137023323e+10  4.3193945813904602e+10  1.6805409084225912e+10  1.5627842722577295e+10  1.8539548764643589e+10  1.6479142883438128e+10  1.5586515194666084e+10  2.4199831000088039e+10  2.7369986024044533e+10  2.6899097320573944e+10  1.7434888173512821e+10  6.8573822540946938e+10  7.2165063859308441e+10  1.8608576913759407e+10  3.3972019582231743e+10  5.3056440475594109e+10  2.5205890081796616e+10  3.9813379334507378e+10  8.5188900251409439e+10  2.4586057696359192e+10  4.1575516720708435e+10  8.7444184926221863e+10  1.6940851834779400e+10  1.6537620109019381e+10  1.5530646286363033e+10  5.1758689647613152e+10  6.3945855706569786e+10  1.5552979917758139e+10  2.2298067291925060e+10  4.3892147731689529e+10  4.3208303464378769e+10  5.0423307870011894e+10  1.5590646214036488e+10  1.6626675811305836e+10  8.8114312184591446e+10  3.5686427295369957e+10  6.5391703432513992e+10  2.6385189721051559e+10  3.0422577281794941e+10  5.2674394095122765e+10  4.3237562297422470e+10  1.8431088820930103e+10  2.0662943643420135e+10  1.6945427971879736e+10  1.8630098518536697e+10  3.4449400548669205e+10  5.7433630569829247e+10  7.1310866376894608e+10  1.6390882550429279e+10  1.6883992808783201e+10  1.7873688816238598e+10  1.6386551794661072e+10  2.0502877744003582e+10  2.5586865169524151e+10  1.6344091151312325e+10  1.5430121520019070e+10  7.1457484864601151e+10  8.6448569531578873e+10  2.9887435867711712e+10  3.1716703485362854e+10  4.0527742034099503e+10  2.3793496476200092e+10  1.5851836533649990e+10  8.6693783375597260e+10  1.5530699650276331e+10  1.7931973523257687e+10  1.9010142140903557e+10  3.8115601285332481e+10  2.8240257309497532e+10  2.6071153933720451e+10  2.1044031696527161e+10  2.1817702656398041e+10  6.8113725933539909e+10  7.0486786881925461e+10  3.2900564938745384e+10  1.6939329995752630e+10  2.1817885834842113e+10  2.0920710258729652e+10  2.0065934668925163e+10  2.2225809601824780e+10  2.4283329478764301e+10  3.0085278100865612e+10  8.9004494457651505e+10  8.7130563174300034e+10  1.6415040427709845e+10  1.6518040349712921e+10  2.6223065158555538e+10  5.7563097819903053e+10  2.1913513970380360e+10  6.8374823473591324e+10  2.0865392063901623e+10  1.9854344700341972e+10  1.9048233151873337e+10  1.8523770592363369e+10  1.6893807150295809e+10  7.3580572095189377e+10  1.9089247131974819e+10  1.9826680813027027e+10  2.7396681585034225e+10  1.7801078523769737e+10  2.2042582602697823e+10  4.4401599002849152e+10  3.5537608382398415e+10  2.1655517792658489e+10  2.2544350347974678e+10  3.6882975919500473e+10  3.7821011178684158e+10  4.4099070431845161e+10  2.2868991430192558e+10  1.9033792412036263e+10  2.5657896973814007e+10  2.2115751746140388e+10  2.8470414039445271e+10  5.2037006421548233e+10  1.6599814720100241e+10  1.6353522360024582e+10  1.5484041383991451e+10  2.7530507706752842e+10  2.1656508829812317e+10  1.5563729774570414e+10  2.2694367469490089e+10  2.0597684797300510e+10  1.5598960900278521e+10  1.8940390998407639e+10  1.6632162903781208e+10  4.8695778487475410e+10  1.7750310166012722e+10  1.7579043001598915e+10  1.5490254971963799e+10  1.7292956254798229e+10  3.0675837515232830e+10  1.5519471026163221e+10  2.5968699632503868e+10  1.5788666612072359e+10  1.5543558347175697e+10  2.2992728787091423e+10  1.9930867670570751e+10  1.8300876928070480e+10  1.8873126422478138e+10  6.7713646444966850e+10  1.5466310652291712e+10  7.1805829584312866e+10  2.6331220570543045e+10  3.5067566058508514e+10  3.3272667072857174e+10  3.0381111237747955e+10  3.5169982623139175e+10  1.7424468866434296e+10  3.9069795735451126e+10  1.6568118945703724e+10  2.3157132514260338e+10  1.7225253583259335e+10  2.9862865344590435e+10  3.4283096722824539e+10  1.8732531365302799e+10  1.7683318139258327e+10  2.0946578379303776e+10  1.7095551161639565e+10  4.3750937819318611e+10  1.7346392120184090e+10  1.9494565834767021e+10  1.7999051595027679e+10  3.8320613343336716e+10  4.3488208263322464e+10  2.5537940923862530e+10  4.4021083183516182e+10  1.8734222480280724e+10  1.5620824817454044e+10  1.6556142625059469e+10  7.1381050271477570e+10  7.4404424565561829e+10  7.2355471797542679e+10  1.7624603483474655e+10  1.6634915952875254e+10  1.6350606451033661e+10  1.9268881929385273e+10  2.0467866427163536e+10  4.3180031493227547e+10  3.7415144526608871e+10  3.6253429269744644e+10  1.6259300067697271e+10  2.3263256133506924e+10  4.1590079910472534e+10  2.9988966137451744e+10  2.6092669642378216e+10  4.6675927752082603e+10  1.9528186589818268e+10  1.7869540457921394e+10  1.9190487510904968e+10  1.6383700709295076e+10  2.0327178275299103e+10  1.9276698687476536e+10  1.8901706894117435e+10  3.4277472409957047e+10  3.6815631880494316e+10  2.5225191048549217e+10  5.4933540964324341e+10  3.7574369727979683e+10  2.7239253655827042e+10  1.5550814155866320e+10  1.6931487300613052e+10  1.8396661771726913e+10  1.7605541883491829e+10  2.0247366183515305e+10  1.5459644392320065e+10  2.8074502869798122e+10  2.2275723608773376e+10  1.8721686591592373e+10  2.2491579502340935e+10  5.4257197378786995e+10  2.7491630264124992e+10  1.9858253472624622e+10  5.9790067343892990e+10  4.9268633529428391e+10  5.1126663448285088e+10  3.8110767453177917e+10  1.6284942643011074e+10  1.7575553370224533e+10  1.6333686538801870e+10  1.6209253743546997e+10  1.9994991196214085e+10  1.8595964115582825e+10  6.1491839184140564e+10  1.5903509737260801e+10  2.6701494781402393e+10  2.5429419094426743e+10  4.3322896590209053e+10  2.4890393850457138e+10  8.2252071580848022e+10  2.9963715465332760e+10  3.3345509017688538e+10  1.8454094514705563e+10  4.2491475509760429e+10  3.8293679237169304e+10  5.1912459602536407e+10  8.9536800732620499e+10  2.0643289885068554e+10  3.5387342684114479e+10  3.9356725127102257e+10  4.1928152750661499e+10  3.1042509852390266e+10  1.5578723663376118e+10  2.4031393760343636e+10  1.6161793224885044e+10  1.6744146101069845e+10  4.5608485134442421e+10  3.7644181940465729e+10  8.7035741650382156e+10  1.6471029631013216e+10  1.5478348131979435e+10  3.3571552697275208e+10  3.0408675576473557e+10  2.9477500261482307e+10  3.7431517788665047e+10  6.0768081421116562e+10  2.3799509340753704e+10  2.9862382323566006e+10  2.9352493712452526e+10  1.6407456764967751e+10  1.7743721045374393e+10  4.9668165119017418e+10  1.5801288980815872e+10  6.7573569844075844e+10  3.1023998986272129e+10  2.7422758171871140e+10  1.7498267515549126e+10  3.2373858567596111e+10  1.7641760702479153e+10  7.3149027758695938e+10  8.6587287594540619e+10  1.6355764880417641e+10  4.1377613394038406e+10  1.5471570452774111e+10  2.6228647474395615e+10  8.9849978793448685e+10  3.9523840646099380e+10  2.0367479452555962e+10  3.1212466361837223e+10  1.5593449980135750e+10  3.4896598149570297e+10  3.4314973497647118e+10  6.0884335029351089e+10  4.5468182856201508e+10  5.0357015807003586e+10  4.9899631423410568e+10  5.9205467176822754e+10  2.4595569318705360e+10  1.8623176617344677e+10  1.5572157013101311e+10  2.9639886482159389e+10  2.0776401841235683e+10  2.7982412359365780e+10  2.0660468252279613e+10  2.0768651466841885e+10  8.7277328521985718e+10  6.7102334551668732e+10  1.6397989487467110e+10  1.5483333303982677e+10  1.7115106950079718e+10  5.6989943920154716e+10  4.9237928035479286e+10  5.4617260516022507e+10  2.9916286979782856e+10  4.9441886807277832e+10  4.5595132822893768e+10  3.4493768451253426e+10  2.0670824103928028e+10  4.8817663472193092e+10  2.2233837548189938e+10  3.6520259413746727e+10  3.8433712861630836e+10  2.1173608988823593e+10  2.7160076547003063e+10  2.5638015645922028e+10  2.3977145371226414e+10  1.8821682293745407e+10  2.6994311672067696e+10  1.5627798703296127e+10  4.2274595472512047e+10  1.6581299249330126e+10  2.5096825071757603e+10  2.3402597655060810e+10  7.9014850842380402e+10  1.6457943924372816e+10  1.6639781810299198e+10  1.6360289793133226e+10  1.6394025776376127e+10  1.5535127211991581e+10  1.7085090420349482e+10  1.8829589872690495e+10  1.6760856106847795e+10  3.8635284973821091e+10  3.5050225296391296e+10  1.5461069379414221e+10  1.6412195194665150e+10  1.8067787955152134e+10  2.8944264420043652e+10  5.8479277599980835e+10  1.6320693673992428e+10  1.9845895629800735e+10  1.6415596081656569e+10  1.6787551857202570e+10  1.5548678609718788e+10  2.1872733990933796e+10  3.6225485375106827e+10  5.0065875412196320e+10  1.8206493603480980e+10  3.1286285764658897e+10  3.0747617332726753e+10  4.9818304104970634e+10  1.8117047460754475e+10  3.0538520309202526e+10  2.0895064245890816e+10  2.2420348082923698e+10  2.4286901678141644e+10  1.5443928835317747e+10  4.3774479960117310e+10  1.8480676716939899e+10  1.6064494594607573e+10  4.6769001973118034e+10  4.9119420849549301e+10  5.2975309148083488e+10  2.6659744980481663e+10  2.4293989136336967e+10  1.5429056456993368e+10  1.5488448431474360e+10  1.6389299485489944e+10  1.5560922423605036e+10  1.9476940409887386e+10  2.1866856051651592e+10  2.2655519799332275e+10  1.9421170006178734e+10  3.8705410657420486e+10  4.3022934475485123e+10  4.1921939001657654e+10  8.9320366814078201e+10  1.5432196210248405e+10  2.7574423229108112e+10  2.7787237677984585e+10  1.7196689030105179e+10  2.6071355033340721e+10  1.5822136493721064e+10  2.5722283686089489e+10  1.8792230951314053e+10  2.6224608002942535e+10  1.6599441949536497e+10  2.6240222879850704e+10  1.5411717880434765e+10  3.1494054446236755e+10  2.8029819481030449e+10  2.9332626490399727e+10  2.6395753763385811e+10  2.0937611416821144e+10  3.6877627393587654e+10  2.0693922255662453e+10  2.4266160015843975e+10  5.2063236243005379e+10  2.1657018870482346e+10  3.9129206310465096e+10  3.6668659283862038e+10  1.6391265208844421e+10  1.7416809760291885e+10  1.6620302418447916e+10  2.2406945341495327e+10  8.2248801550254883e+10  5.6774412348552200e+10  6.4761695559451881e+10  8.8185579350801910e+10  1.5430670055754951e+10  3.3339322702552788e+10  3.1181350413535774e+10  5.2967213968077477e+10  1.6221653582831228e+10  2.9648806002200977e+10  4.0057725704285316e+10  8.8066700642693085e+10  2.1868275950420063e+10  1.9014542932003357e+10  1.6347078743883146e+10  3.0536779985877407e+10  1.6241415088654650e+10  2.0305168180598938e+10  2.4445799009730236e+10  2.2445904533944489e+10  6.1254626715468399e+10  3.2210496908232121e+10  2.6813246079345448e+10  2.4632043982133327e+10  1.9694387041658287e+10  1.6782538248691957e+10  1.5450968684383150e+10  2.9960594810042789e+10  1.5403328708437584e+10  6.7300067328830025e+10  6.8904738599733902e+10  6.0129814174860710e+10  2.2291558081678043e+10  2.3034320377334354e+10  3.0464250309024593e+10  8.9682645309135635e+10  2.1565268239976074e+10  1.6499120075851353e+10  2.4299704282415581e+10  2.1836259883740089e+10  1.6405185562431324e+10  1.5582772592505062e+10  7.7033034214029663e+10  5.2693482500899055e+10  6.1165231612009880e+10  9.0124958782675705e+10  4.8763254645536041e+10  1.5574858961185217e+10  1.9001897909651405e+10  1.5554638092412012e+10  1.6302814401991518e+10  1.6451635893488167e+10  1.5334394632900911e+10  1.6433349313198454e+10  1.5495035610730692e+10  4.2362060035103287e+10  4.1842672033108704e+10  5.2883049630364204e+10  2.5066200514985863e+10  1.6292436977275902e+10  1.7818744713628956e+10  7.1230992537148575e+10  1.5422662712904364e+10  2.0419292602098164e+10  1.9984115928849506e+10  3.0816586677314579e+10  6.7969973342176224e+10  1.5419061087771027e+10  1.7552108905703896e+10  6.3596613121025055e+10  4.9277691478569481e+10  2.0066477177524689e+10  2.0581256410355057e+10  2.3075590467439461e+10  2.1653226697185558e+10  2.0703413075165703e+10  1.6386454681363058e+10  1.6243948586554476e+10  3.4776781968764442e+10  3.4717836241145943e+10  1.9452286304644905e+10  2.0826246039014305e+10  2.4149406236164394e+10  1.9523310934071728e+10  8.9549376640181931e+10  4.5514468468649513e+10  5.0938748917358345e+10  5.3723969218852867e+10  1.8984016964811047e+10  2.0037250516486786e+10  1.9017048874759529e+10  1.6587256508222433e+10  4.5916730055186195e+10  2.4216301076800529e+10  2.0796348685478874e+10  4.6908194284871040e+10  5.3345109896835213e+10  5.5011451118964447e+10  5.6486645716674698e+10  4.7317045537889130e+10  2.1211824335924030e+10  2.4884990137181023e+10  3.8969183262506767e+10  3.7606406576163261e+10  6.9687653665578430e+10  6.8717988835162781e+10  2.2972284672900303e+10  6.0159071110182632e+10  2.2823241272416405e+10  5.9281403354653984e+10  1.9813642372144409e+10  2.9116163001609741e+10  1.7983077951428879e+10  1.5508066568405704e+10  4.9226244383291588e+10  5.7817593195068802e+10  3.8156187975099434e+10  6.8769874663571671e+10  1.6941665466998989e+10  3.0453303372689018e+10  2.0492462106966007e+10  1.6621306620691002e+10  8.9254446905420746e+10  5.5918320223130737e+10  4.3712922135783806e+10  2.3651762691693939e+10  5.1790572194701614e+10  1.5379529503220984e+10  1.6180955950562382e+10  4.6301963088679451e+10  2.3215909789115452e+10  2.2153795185886135e+10  2.1813502981816063e+10  1.5395526347366169e+10  3.0193907324858002e+10  2.5602453149722031e+10  2.7161378226965508e+10  6.5711437286548172e+10  2.4555349611992039e+10  8.7908532589118317e+10  2.3490725391353127e+10  2.5305887733203098e+10  3.6019161378066307e+10  2.0047832477669575e+10  2.1697342148504875e+10  6.8816986172458572e+10  9.0095985237768082e+10  2.2148467264423080e+10  8.8733796068727509e+10  2.2861267123817169e+10  8.9447444517549316e+10  1.7191595629871803e+10  5.0164423474227646e+10  7.7475162360004456e+10  6.2713517385038055e+10  2.2223403871649300e+10  2.1335628067402901e+10  2.2327714717353931e+10  4.4724869756564369e+10  3.1510043357602703e+10  8.9960074884969315e+10  9.0122849576141541e+10  5.0894765016192398e+10  3.1005164348693420e+10  5.0767547501149078e+10  2.4267425957825336e+10  7.1562401803479736e+10  1.5385883158433798e+10  2.4644448996155540e+10  3.6908799913939911e+10  2.7351744335019329e+10  2.4281090408864761e+10  3.6898135358657272e+10  3.0292759870812695e+10  1.6307730892320147e+10  3.0241334776858097e+10  3.0636648534967579e+10  1.9527924379390648e+10  3.1918377269223507e+10  5.7249453838192871e+10  6.0548820121714592e+10  3.7145434113737083e+10  1.6799778963007811e+10  2.2122116217019611e+10  2.3191772685726963e+10  1.5442208983594877e+10  1.5474701398343988e+10  1.6601498393780928e+10  1.6375933646242598e+10  1.5430924539896261e+10  1.9158397556270435e+10  1.9226982185047832e+10  1.7990714234058727e+10  1.8829342288888241e+10  2.0011287627996830e+10  1.5432480229954885e+10  1.8074886991709873e+10  2.5601206594534813e+10  5.9829890283309586e+10  4.2648131134706642e+10  4.4192152652509903e+10  4.9447310347366753e+10  1.6779592507679800e+10  2.1260716115048763e+10  2.8399971834037064e+10  4.9950694782206398e+10  2.3323919607843033e+10  2.6882514009397888e+10  1.5380259872378099e+10  1.5457890977983305e+10  7.4722586548588593e+10  1.6457843430799475e+10  5.0307769229973114e+10  1.9130825254444729e+10  1.6967437614134363e+10  4.2341536774689796e+10  2.4396094767205070e+10  2.3529567653118698e+10  2.5913608699718868e+10  1.6580305078851927e+10  3.2285913604735619e+10  2.6409708039704510e+10  2.4012391100267670e+10  1.8833843532301285e+10  2.0950865360986950e+10  2.1948222816833351e+10  2.1887373352141979e+10  5.0195246365114639e+10  4.1369499474949890e+10  3.6315615620073921e+10  3.4693196373581787e+10  3.6239428161772964e+10  2.1869689574512577e+10  4.4691002303943031e+10  1.5383420083575035e+10  3.5256970163999504e+10  8.4766284772765106e+10  2.6572646382993671e+10  2.4540247958280258e+10  2.3766716159299843e+10  2.8986487147729000e+10  2.5415121932044636e+10  2.0444267412876743e+10  2.1878743836816914e+10  5.1023033976733032e+10  1.5444958923055780e+10  5.0542759610025681e+10  1.7349794471085503e+10  1.8520514411378906e+10  1.5391688246809326e+10  2.6466010848891438e+10  4.0882265929480186e+10  1.6570840942529839e+10  1.6122249125015184e+10  1.6944058142796051e+10  4.3642818983941696e+10  3.0562687355419746e+10  2.3628151703829193e+10  7.1560943239307755e+10  1.8118279510061680e+10  2.6414441117035522e+10  1.6235827842915487e+10  7.1517736235129532e+10  7.1369356978400620e+10  1.8459477543233387e+10  2.8897282101811729e+10  1.8718003610948921e+10  1.9451612909519581e+10  2.0883242132091770e+10  2.2401359264053185e+10  2.3703592965781456e+10  1.8189714750616093e+10  1.7265019662121204e+10  1.6846037300356300e+10  1.6453391418978531e+10  1.6192452069395004e+10  2.5456221133030186e+10  2.5051224439839138e+10  2.5767460762554050e+10  1.7384286595026443e+10  2.6757410316858704e+10  2.4588881093972111e+10  2.4855554994297699e+10  1.5438191139443626e+10  3.1330781742850761e+10  2.9542018967397106e+10  2.8104896374201778e+10  2.0910861937820744e+10  1.6990962029144642e+10  1.8797868358008472e+10  2.2931878321235142e+10  7.7881914584789917e+10  3.0557143176737362e+10  4.4088374060647163e+10  5.0970368611012001e+10  4.7169195728476509e+10  2.8535915056890110e+10  1.6251972862297224e+10  3.1434455930011387e+10  2.6850036641662479e+10  4.3482255298344254e+10  2.0301202661063835e+10  4.9220433708262939e+10  1.5544123009309692e+10  1.6144174386548027e+10  2.6807086562880421e+10  4.5818917524895416e+10  3.6820917625732758e+10  1.6372510446011734e+10  1.9056090418989552e+10  1.8361488616525089e+10  1.7177443593703754e+10  1.9820974629876144e+10  1.5869777083940466e+10  1.5395194154022001e+10  5.0339551396669228e+10  5.3248621756332703e+10  1.7554530157396996e+10  6.8093299637320084e+10  2.0570535662739422e+10  1.9059202279197865e+10  2.2625243201017796e+10  1.7787225968540039e+10  2.6280320286644463e+10  3.9438093816716866e+10  2.1231198939082932e+10  1.5463836316285334e+10  2.5720004079191204e+10  5.0019105738939095e+10  5.1118027444962189e+10  5.8288903469225128e+10  2.2722560031335827e+10  2.3115850042646793e+10  3.5435454644125198e+10  7.4594392063750412e+10  3.8537683339256790e+10  2.9126226138545155e+10  2.3409628247650982e+10  1.6723104000778746e+10  1.6264643440454075e+10  1.5443874026529160e+10  1.5402764580701698e+10  5.6038236753460045e+10  2.0317168978740219e+10  6.0785135338155869e+10  2.7687459497922623e+10  1.5371530186154499e+10  4.1069551196375725e+10  2.1343285403764946e+10  3.1966905562709175e+10  1.6296065507303711e+10  1.6176982665532362e+10  7.3968309548457504e+10  1.7446037505041920e+10  2.7149205763108280e+10  6.1185413527858742e+10  4.6896956917121826e+10  4.0580656692386703e+10  3.0946734247959301e+10  2.7252351314518841e+10  1.8626635843250046e+10  2.5371718753629631e+10  2.6202570970002895e+10  2.8565247242462471e+10  1.8369953421213856e+10  3.3499722414379654e+10  3.8544976165916603e+10  4.0130211208033852e+10  1.5497286755058935e+10  1.6697301968317141e+10  2.1609299264064262e+10  1.7588881882839409e+10  1.7649144268584900e+10  1.7883812914139004e+10  1.6844602425051325e+10  4.5267472199526550e+10  2.1713083284254086e+10  4.4517618828042374e+10  9.0536725706910278e+10  6.9800135579297775e+10  2.9278610199677959e+10  1.5380766667767569e+10  4.6827994120946297e+10  5.9523361885635704e+10  1.7171514623371523e+10  1.6457902317084860e+10  1.6315082787925020e+10  7.1768610471406082e+10  3.0084693433055038e+10  1.6357784797588228e+10  2.6733495324257996e+10  7.4006994963621613e+10  2.8739956400208981e+10  3.3546425796227665e+10  1.7963013188209209e+10  1.6291659054676352e+10  2.6400865806110420e+10  1.9502454399188236e+10  2.0966946392310036e+10  5.0456445487259750e+10  2.0539439806191578e+10  2.0683306579449554e+10  1.9940450981191383e+10  1.5381334873702116e+10  1.5577234852143139e+10  4.9215050087712990e+10  3.7080555035993576e+10  3.2881040036344349e+10  6.1007474833538429e+10  1.7530304513618385e+10  3.3962513114625015e+10  1.6980015623482225e+10  4.9466935111719795e+10  4.4579333235680832e+10  2.3561614966134422e+10  2.5751918761169487e+10  1.7253860644658909e+10  1.8155930295285625e+10  4.4131624685111137e+10  3.9970449424204216e+10  4.6975889550167870e+10  1.8125286495869972e+10  1.6032987359762720e+10  2.9559408362015800e+10  2.2750257782214237e+10  5.1221387492690872e+10  4.3420363727990044e+10  3.0304112201647663e+10  1.9765298723446701e+10  1.5431334484755280e+10  1.6147529684895872e+10  1.8491625942727646e+10  4.4359570408329956e+10  1.9389809247089508e+10  2.0808266774610699e+10  1.9754340732631485e+10  1.9201496711559555e+10  1.8033116985114876e+10  1.8464660707652111e+10  1.6997443735174547e+10  3.8813329120455162e+10  7.5448719687406174e+10  6.0714265368831093e+10  1.5472749931109613e+10  1.5360165253754972e+10  7.0786369307216827e+10  1.5419383343612633e+10  4.6560803798629379e+10  1.9923119419554623e+10  2.5385190578524517e+10  2.2388014248971344e+10  1.6270125444960978e+10  2.2399834207532585e+10  2.2515102250759136e+10  1.5360981031794872e+10  5.6898841364423660e+10  3.2124533040641693e+10  2.2811161941477222e+10  2.0422986708237976e+10  2.2920670517122536e+10  5.3504494011544991e+10  2.3438956771622448e+10  2.4494774536514099e+10  2.3793417518457630e+10  2.0230556063407837e+10  9.0703771689700226e+10  2.7303464529309589e+10  5.5066052292815598e+10  9.0703640862804535e+10  1.6340899598679024e+10  1.7318325296380280e+10  2.3059435783599266e+10  2.1567446331207829e+10  9.1077304296506683e+10  1.5350405901540651e+10  3.8536298070726395e+10  1.5386533738318062e+10  1.5409793537520365e+10  1.7213282035844288e+10  3.0616132879684074e+10  1.6625542182364216e+10  1.6170702132858353e+10  2.1988656524101345e+10  1.9766842566139202e+10  2.3545408735662289e+10  2.1758712266221535e+10  2.1258141427948025e+10  1.7356240380590607e+10  1.6682797489299854e+10  2.6766002471259438e+10  5.7813508900027786e+10  6.2569278546220757e+10  1.9996089446831280e+10  1.6903760121088007e+10  3.5448238446740868e+10  3.7203081068672676e+10  3.9050769748831734e+10  3.3233632384736530e+10  1.6469719439256590e+10  7.3846451793483459e+10  1.7962424649049446e+10  2.2700027440663296e+10  1.8905349556605358e+10  2.1962889199480003e+10  1.5421529721875202e+10  5.4421833372556412e+10  2.1963574793318783e+10  2.1939098886058281e+10  2.1003770474047852e+10  1.5439157767891129e+10  2.6793222941027287e+10  2.3141841265823219e+10  2.5099433007369095e+10  5.9894653581362419e+10  8.6521915727978424e+10  2.3341235797276321e+10  3.0569842333457943e+10  6.3558606743531273e+10  3.4329098381177776e+10  2.4247917361661236e+10  2.4824401255199585e+10  2.7170833697575394e+10  3.1003099770675144e+10  1.7412069216553997e+10  1.8757142624501965e+10  1.5342707135087772e+10  4.4737071799310371e+10  1.5359572900222429e+10  2.7106348973314831e+10  1.7262176060291451e+10  4.7247710959152061e+10  1.5330492275807983e+10  2.9209375054246124e+10  3.7255300085860374e+10  1.5742606346011009e+10  1.5334897503848063e+10  2.0862749060713078e+10  2.1185766976837978e+10  2.2530658671799057e+10  1.7660012224915169e+10  4.3033501841096741e+10  2.1144302279385475e+10  1.8216459888665283e+10  2.1638323990459805e+10  2.3727659922055122e+10  2.5903696024402649e+10  2.6764777732465744e+10  1.5397829799373348e+10  2.5795643982854401e+10  2.6752056409478348e+10  4.4937173588949463e+10  3.0216439579703415e+10  2.3627853647468311e+10  1.8340912311070442e+10  2.7755105778684639e+10  1.5340912235972204e+10  2.1716727119295444e+10  2.7690224450794022e+10  2.5558435030034161e+10  2.8038497713763432e+10  3.8580460577509598e+10  3.4276091567095554e+10  1.5340546134118868e+10  3.6140894453701637e+10  5.4884821957512054e+10  1.6949800613381437e+10  1.8058876809254307e+10  1.8059414230300335e+10  7.9727789668748108e+10  1.6188624127178638e+10  1.5369341691656412e+10  2.1080717639050541e+10  4.5158749406800140e+10  4.3784908826184853e+10  3.2685825480424370e+10  4.7078409163179680e+10  2.0978994057110947e+10  2.2715819929845184e+10  2.2249075220334370e+10  6.3603164172043114e+10  2.2631541610306194e+10  1.9363190095928879e+10  1.8305400893961449e+10  1.6890420358745733e+10  2.4242489672365097e+10  2.7190397943673740e+10  1.5430177247892220e+10  2.6040199674107189e+10  2.4755311319763855e+10  1.5386272847381893e+10  3.5398019206491005e+10  3.2041044331265076e+10  3.5014231864770241e+10  3.4202531346393082e+10  7.3830174485807434e+10  1.7370279841579201e+10  2.7789007832175343e+10  2.6870827434404324e+10  1.7145515229635464e+10  1.8457217965223099e+10  1.9512539563574146e+10  2.4694925127031219e+10  2.5966787177369808e+10  2.0215324788462124e+10  1.6069620146587847e+10  1.6914144019113647e+10  1.7013541153511301e+10  7.5743174921191589e+10  1.5391418582683569e+10  1.7881899687470749e+10  4.8720618391118126e+10  4.5231924523019493e+10  1.5371444244266407e+10  2.3677522874321629e+10  1.6537909239230991e+10  1.5374462265813234e+10  5.6748312340408646e+10  2.2395867254819736e+10  2.2135691201118011e+10  1.8352590222824139e+10  3.8468732666304596e+10  3.9944886530558136e+10  3.8620824960453171e+10  1.9347761105381508e+10  3.4247431493125252e+10  2.3362344789610165e+10  1.5373345331865978e+10  1.6524158453688667e+10  3.7338870815316177e+10  1.5398693458221031e+10  2.8284003932752327e+10  2.2548193858836224e+10  4.4854257154127800e+10  8.0400107633951324e+10  1.7209422140465382e+10  1.8583635673412689e+10  8.9626403313269394e+10  2.5960926270322742e+10  2.4349644659612259e+10  1.6343844746389742e+10  7.7944339214419983e+10  5.5810028103046043e+10  1.9186205434053223e+10  1.6325579236300404e+10  5.9099895889957718e+10  2.2080963792611477e+10  1.7803263343152664e+10  2.3024647877711037e+10  2.3895575641865673e+10  1.5427204393027050e+10  1.6996307052848385e+10  1.5963273568922604e+10  6.6143293487449898e+10  1.9585058016631172e+10  3.4797614653491943e+10  1.6035193524759945e+10  1.9040550650037338e+10  2.7463542661734776e+10  2.8444182632113880e+10  2.1433019776109825e+10  2.0138642286592587e+10  1.6273153918684427e+10  2.0539628802756451e+10  3.9943894636024658e+10  2.1367654351056469e+10  5.1137838705432007e+10  1.5431720147410276e+10  2.0973821544143494e+10  7.5402725448839783e+10  2.3689385762810684e+10  2.3207993978851219e+10  2.2180897555474407e+10  2.1309903425030533e+10  1.7848331848570499e+10  2.5255610594097363e+10  3.0389006008460617e+10  2.8324541462663738e+10  2.9815068993170830e+10  2.2105249503357418e+10  8.8047906053887299e+10  7.2958718643319092e+10  1.8770695964301636e+10  3.8244149192005814e+10  2.0860273895134132e+10  7.4182159503884445e+10  2.3997639971321941e+10  2.3963992946954865e+10  2.1982544637151566e+10  2.3460613479980999e+10  1.5388806478700233e+10  3.8717076085384346e+10  2.1628123756862125e+10  1.5395695184147573e+10  3.5058112082508850e+10  2.8576345343456612e+10  2.7761056154924545e+10  2.0471380544388210e+10  1.9998369718171753e+10  4.5101738966361855e+10  4.5076098230769997e+10  4.2715242147220947e+10  2.9773287755395233e+10  3.8952567365207855e+10  1.5402055474282854e+10  3.3685490347814770e+10  7.7752242128338547e+10  2.7003648790732124e+10  3.3907139671813412e+10  1.9694735277007095e+10  1.5397820084078815e+10  1.6193046623386177e+10  8.0406318373076462e+10  7.3634504027173889e+10  2.5854928226049774e+10  7.6531882128135010e+10  3.3385593880501503e+10  9.1517876402277222e+10  1.6503597753203594e+10  1.6650609550835545e+10  2.3704506176225204e+10  1.8658918175285236e+10  1.8107923892923531e+10  1.7247522192830879e+10  4.2424368459568542e+10  3.8488002147221092e+10  1.5346084408208662e+10  1.7461555143595825e+10  1.8785374334712864e+10  9.1089867064535126e+10  7.0362412691741135e+10  3.2270618360399498e+10  3.5727142604986771e+10  6.6363486824421158e+10  3.8778839637587029e+10  2.3159373501778618e+10  3.7349115868396637e+10  4.3198973973877228e+10  1.5400382786001266e+10  1.7057122855586397e+10  1.6110009911238552e+10  1.5436879436947945e+10  1.9910800898788982e+10  7.5128915784241211e+10  7.0929557170672256e+10  1.6338521837588625e+10  1.6000452565713530e+10  4.4494475405579674e+10  1.6212677419650789e+10  1.6507108251891821e+10  2.1640468477922745e+10  2.0612282956441658e+10  5.9744943122455536e+10  6.2991956441629120e+10  5.6200655480877281e+10  5.2522110931796669e+10  2.4278616390781563e+10  2.4138229902243408e+10  2.5000526548791553e+10  3.9959468017191330e+10  6.0847927474519615e+10  6.4134761739000008e+10  4.0314093134499146e+10  7.9284953099048737e+10  7.5850785754975357e+10  1.6078187312844364e+10  3.5318947043473389e+10  7.8433814230540176e+10  2.5219478124269436e+10  2.7404535914415977e+10  2.3730919370955746e+10  1.8542459717852402e+10  7.3099551038457733e+10  4.2501016986001595e+10  2.4398505826683384e+10  1.6532241654848700e+10  2.2412496220070732e+10  1.7091402425191265e+10  3.1302286392204594e+10  1.7023867015143560e+10  9.0829254446059464e+10  1.5350959189665592e+10  4.1834291973868668e+10  1.5498012386322840e+10  7.1401044844337952e+10  6.7067589728057983e+10  1.5360702887407860e+10  1.6408699100481005e+10  3.6156764668916260e+10  4.0920289473801445e+10  2.4285494855753971e+10  1.8443965948015175e+10  1.8916087780000488e+10  4.4498897991650879e+10  3.3891267451376232e+10  1.7710883469804096e+10  7.4721933126891449e+10  3.6881875236479103e+10  1.5412858734058414e+10  2.0604826374593857e+10  3.0563957191420475e+10  2.3971345029711220e+10  4.5848652764208801e+10  6.1583477415917633e+10  2.7426559253024197e+10  1.5622948538710552e+10  2.5567233421038342e+10  2.3063019808562084e+10  2.3427655767295498e+10  3.0483806013106392e+10  1.5388244278977760e+10  2.8942454427857620e+10  2.9328105553222298e+10  2.6263218376835510e+10  3.1216078254405567e+10  3.1107048568662052e+10  7.0755093148540558e+10  2.7026341555810364e+10  1.6387623684301735e+10  1.6420624682415056e+10  1.9369019751326694e+10  3.1155906563960472e+10  3.0302357638308483e+10  4.5394745198043976e+10  3.1102322455314579e+10  3.4482067657111298e+10  9.0838789492118942e+10  2.4581468620106152e+10  4.5018768261518028e+10  2.5820289978597885e+10  2.5331980293730728e+10  2.1388686383756741e+10  2.3799286717875172e+10  9.1208917907658661e+10  1.5411222501216719e+10  2.5033409974587978e+10  4.0264105015734619e+10  2.8065964423337814e+10  2.4083388650025257e+10  7.4763358761522079e+10  7.6690805163266068e+10  2.2128886488289139e+10  2.7982124612403584e+10  3.2554677450202141e+10  1.6230177783396360e+10  1.6338389240937918e+10  2.1365233280111992e+10  4.9854238022804016e+10  3.3305190120163338e+10  4.1035982945925064e+10  1.5345043783696907e+10  1.8785009762811398e+10  2.0757040329873001e+10  1.8753664013451515e+10  2.0074719324289795e+10  1.9936853042833797e+10  1.5478243220180214e+10  5.6188162077574333e+10  2.1614923976218449e+10  2.1470871612858097e+10  2.0411608712609325e+10  1.7906646660224869e+10  2.1869216202275711e+10  5.3407514418166306e+10  2.8306469483338379e+10  1.6888514346758610e+10  2.2267931725302853e+10  1.5394121642643312e+10  1.9362971082927837e+10  9.0260051044343002e+10  3.0511320897658493e+10  1.9014169722388397e+10  1.8016171621282272e+10  1.7404238331393276e+10  3.4992823541625816e+10  3.0675730326044411e+10  1.6048161247831524e+10  3.4241085600745110e+10  2.1131377523424686e+10  2.3706086480550148e+10  7.4851033666378403e+10  2.7976659913982525e+10  9.0287289241351669e+10  3.1533248915456299e+10  2.1343943483728500e+10  5.6957898067264252e+10  3.5303597481040131e+10  1.5355614537893223e+10  2.9833991463763592e+10  2.0203443367290127e+10  2.3293539495883106e+10  1.5343858663500904e+10  2.6116514666022507e+10  2.6884760037677807e+10  4.0173056747676277e+10  4.4589565229371147e+10  4.4817125719645226e+10  2.1612003292216743e+10  1.6951256121616121e+10  1.6649123319152008e+10  1.8272053807549809e+10  4.7846155607069901e+10  9.1283357143092972e+10  7.7267044457782700e+10  1.6783317969205238e+10  4.9858295833771431e+10  1.6733119303435192e+10  1.7667992952765099e+10  1.7708157740659798e+10  5.5356454366762444e+10  3.3250125562475124e+10  3.0693538054490520e+10  2.9337167916237259e+10  1.7974458603759338e+10  1.9005301395894932e+10  4.0094633375779900e+10  3.0280887456456570e+10  1.7031933656285522e+10  1.5309438138187717e+10  1.6312352527299423e+10  1.5308593457722929e+10  3.2473330891169197e+10  2.0982012524363789e+10  2.1773219728001125e+10  5.0178393732308029e+10  1.6308073362643003e+10  1.7924150891614101e+10  1.5435985442425920e+10  1.8193610375544552e+10  5.4497287457566444e+10  6.4963039656600151e+10  5.8094641300786484e+10  2.1152812455124634e+10  1.8321180232373646e+10  1.9000909420830830e+10  1.7754928878985474e+10  9.1874752094908936e+10  8.9837154395750702e+10  1.7669189165471432e+10  1.8123815176276066e+10  1.9146637748323879e+10  2.0096077244174438e+10  1.6316528493231770e+10  1.8876063114529243e+10  4.1610549807254204e+10  2.1278966602601891e+10  3.0200594695589928e+10  3.3149921244112938e+10  3.3527260921352013e+10  9.0432944712719803e+10  1.7987935071482384e+10  1.7586722045468822e+10  4.7764524245855080e+10  3.4496397878029037e+10  1.7975851443887390e+10  5.3070326702953285e+10  6.3462126626421371e+10  1.5352529567212595e+10  1.6162291628536583e+10  6.7544473813188904e+10  4.7179422684239845e+10  1.7587990538875336e+10  2.7347688870034031e+10  2.2825446187371792e+10  9.1328684128067642e+10  2.2489004521279636e+10  3.9833272060209259e+10  4.4252849410461502e+10  4.3218382009034958e+10  1.5328629939890249e+10  4.7599525454500732e+10  1.6468250615466610e+10  4.5485133282917107e+10  4.7053598259196838e+10  4.1967215260349327e+10  1.8970277367945358e+10  3.3014135028149174e+10  1.5393560464983900e+10  2.0531785518136017e+10  1.7648097397568531e+10  1.8637234624364105e+10  2.9727540320469364e+10  2.0359612637471878e+10  1.6972891020293871e+10  4.1973982529839142e+10  1.9846843714508480e+10  1.8419385538548130e+10  2.9625234303562382e+10  3.5693909693574043e+10  2.0844751344538372e+10  2.0019598082537956e+10  1.9094075964588062e+10  1.7175359162183367e+10  1.5478374706470772e+10  2.0866778105600037e+10  1.8087798590396816e+10  2.1182699107517899e+10  3.2495922132424812e+10  9.0412735772160660e+10  2.8364024727027275e+10  2.3611792149876919e+10  2.0718264460034351e+10  2.9967570597388920e+10  2.1402691219349251e+10  1.6785553265086151e+10  3.8177309173161934e+10  6.5081704873763428e+10  6.2233614591458870e+10  5.5053943316472115e+10  4.7393965354350052e+10  2.4935779330141418e+10  8.6684771269408829e+10  1.8384178653529045e+10  3.2958994818564377e+10  9.0823994547218811e+10  2.0554584750246220e+10  4.0974372497441750e+10  4.4791266942341141e+10  2.3509133101751019e+10  4.2525139019743195e+10  2.2666596394702770e+10  3.4064385208266537e+10  8.9733898040378937e+10  7.3114643362521103e+10  1.7224584113185940e+10  1.5334496661789835e+10  3.2309207867792366e+10  2.6720794579654369e+10  2.5782816339424660e+10  2.4882205498020287e+10  3.9095516809651482e+10  2.6138020668718620e+10  1.6133037381387285e+10  7.7270273029879333e+10  3.2944002824348778e+10  1.5365491242144314e+10  1.7561086554754375e+10  1.7952082206337837e+10  4.2383446753537971e+10  1.7096936719783154e+10  3.3011039772444290e+10  6.3111611803473106e+10  6.2518216222886276e+10  1.7382669898240345e+10  9.0841011909279938e+10  1.8661752927785145e+10  2.7362808533703720e+10  2.5408963741053345e+10  1.7223966915011562e+10  3.3034628427361000e+10  2.2124384461642117e+10  2.5035015161531330e+10  6.1581636178059410e+10  2.4945726692660454e+10  2.6471748342439548e+10  2.9340178270432472e+10  1.7802903602461090e+10  1.7404751433992245e+10  2.9162107009854900e+10  2.7405750435685013e+10  4.3582938555409203e+10  2.3978516244942692e+10  1.6676972801819420e+10  3.8317578002003281e+10  1.7581415827830654e+10  1.8372502483938496e+10  1.8666217379909317e+10  2.0011777350778419e+10  1.6176111837495230e+10  1.5524226126128115e+10  1.9396573081158855e+10  1.7592443805750488e+10  6.1452257836633102e+10  1.7372128817507839e+10  2.9074810440893669e+10  6.7404033648244057e+10  2.7349914834004459e+10  1.6261964850563330e+10  5.5302826273449821e+10  1.9237556144496292e+10  2.2905675335572895e+10  2.9566373160547436e+10  5.9512216440407684e+10  1.6036959243169567e+10  1.6336816605919876e+10  2.3724165726929241e+10  1.9179347833055599e+10  1.8667751400838657e+10  1.5295824607886889e+10  2.0916110271970135e+10  2.1352046225466316e+10  3.9102483600271698e+10  5.7020477528585594e+10  6.0566768848024780e+10  1.5368852257822390e+10  1.7702066121019554e+10  1.6040331159125994e+10  1.5308015537290974e+10  2.0104490960747799e+10  2.2202680477950954e+10  4.0125558346314590e+10  6.9324150201806442e+10  2.1120895217341209e+10  3.1542172018678558e+10  1.5374682610498158e+10  1.5997392238479626e+10  4.2352227779367516e+10  3.7228972792740318e+10  2.3436579281689110e+10  2.9765944710093437e+10  1.9955964164345222e+10  3.4227161792533890e+10  1.7973570059776054e+10  3.3668560994145004e+10  3.4307387937732025e+10  1.5906071377903296e+10  1.8667813396201172e+10  2.0590872952064651e+10  2.0348431513315796e+10  4.9931107024891609e+10  1.9845730694561619e+10  2.4121518168431664e+10  1.9737005850656433e+10  2.1196119940702061e+10  4.8881664326494965e+10  1.5907742748067533e+10  3.6500783636195305e+10  1.5410816719534990e+10  5.9440851577260300e+10  3.8757405739125694e+10  1.5831639969396412e+10  1.5411831638228201e+10  1.6095037949454987e+10  3.8493160015082420e+10  1.7589917257967041e+10  6.5137037489169701e+10  2.1709248691282951e+10  1.5740637610195171e+10  1.6203605854825464e+10  2.1364572874230816e+10  1.9976466526807716e+10  6.6789991423485840e+10  2.4437825655759323e+10  1.7003737107164478e+10  1.8857459957228783e+10  4.3931943296003166e+10  5.1862043541046997e+10  2.7531044494208279e+10  1.6057572800440554e+10  3.5169997370281662e+10  2.1161583625227402e+10  2.2270696228332695e+10  1.7705926795629093e+10  2.3849274170893211e+10  2.4600281339593826e+10  2.4292840366262535e+10  1.8898398900471855e+10  2.0120030149030804e+10  4.0204401974470573e+10  1.5496097183195538e+10  3.0466096227037529e+10  3.5485614007201973e+10  1.7032988276721378e+10  1.6112403645136677e+10  8.1610511730816849e+10  2.6840861607289177e+10  2.4073451433551037e+10  3.0018565332065952e+10  3.4781696822757179e+10  1.5303792041324518e+10  1.6341989189041105e+10  1.6046763831143856e+10  1.9340091983086906e+10  3.4617662090254845e+10  2.8220436236936920e+10  3.6318217560945023e+10  3.6664197627604950e+10  3.2807489628004913e+10  1.8074183329756905e+10  1.8596498662301884e+10  4.6667749715449707e+10  1.9028728922627312e+10  2.5567640648645691e+10  1.6530605585711449e+10  4.5449307391245056e+10  3.2316882858049473e+10  5.7754820119572121e+10  3.3947498074306744e+10  3.2437884709421467e+10  1.8539965574604969e+10  1.9816424614157291e+10  1.8961993196343189e+10  1.9283545644925716e+10  3.2137906021529949e+10  2.0179077169847107e+10  1.8866231617595291e+10  3.0854030065117573e+10  2.9315150588872845e+10  9.0054333783707214e+10  7.2556229268608688e+10  2.3806801456726604e+10  1.7957556180619625e+10  1.8031834887147064e+10  2.1116117199600868e+10  2.0093932498680527e+10  1.8985335007007004e+10  4.6161120003861488e+10  5.4112117400888863e+10  4.3184594328632057e+10  4.6779043720428146e+10  1.9123423103756130e+10  4.1929791967343430e+10  1.8235218751692497e+10  2.5421708364716206e+10  1.8011221011166447e+10  2.1054042085152561e+10  2.1870394482409996e+10  2.2820585564176365e+10  4.8579106970909966e+10  5.6883620958841110e+10  3.9847218257714790e+10  4.9645425443345375e+10  6.4376935496928871e+10  2.3745808796598320e+10  3.9509893058985558e+10  1.6527339265639677e+10  6.1833689604585556e+10  4.2459410296882156e+10  3.7099115161903748e+10  2.7222389932449177e+10  3.8835670687901520e+10  5.4046771900340096e+10  2.2396317780343071e+10  3.5853191540540985e+10  3.2653721826556854e+10  5.9366008990124420e+10  3.9464570220485191e+10  1.7628212250626732e+10  3.2998644414149624e+10  4.0723891420728676e+10  2.7221186518972416e+10  2.1750703726873455e+10  7.1547334170108719e+10  2.6335765587561810e+10  1.6287147543691458e+10  1.6135475502790974e+10  2.1653008575583076e+10  2.1046050895071774e+10  2.3081493664380791e+10  7.2503322410095566e+10  1.6188995011747349e+10  2.9207711737474808e+10  1.6177878495456951e+10  1.5387224842400690e+10  1.7682821395047989e+10  1.7540153207960484e+10  2.0185247711241760e+10  7.6388515655055023e+10  7.5970439675671326e+10  1.9986405781268082e+10  1.7669798007309628e+10  2.3207863056141342e+10  2.4489024312304974e+10  5.5160631086892433e+10  2.6015667223419502e+10  2.2866114183409073e+10  2.3346481687725010e+10  2.1732764736602131e+10  2.1366528602242775e+10  9.0140436065081879e+10  3.1903121418878323e+10  2.3046382719521442e+10  3.6104755333107414e+10  1.6070918988303535e+10  7.6313078161626907e+10  7.5874269819072281e+10  6.7642026807809471e+10  2.9380575775324539e+10  1.5320259208347233e+10  6.5740416112615982e+10  1.7588685762172611e+10  1.7252153545510487e+10  1.8436730063903111e+10  1.8477737485546310e+10  3.7961432591484787e+10  3.9394458614728218e+10  1.9205905990942394e+10  1.9773282590703506e+10  1.8344570631285427e+10  1.7402717862112720e+10  1.8249726802098267e+10  1.8850670341925095e+10  2.0626387452950615e+10  2.8832764624725082e+10  3.8451742119972214e+10  2.0459537232721439e+10  2.2081182083679203e+10  2.3833009625455750e+10  1.9658585550044632e+10  2.2158116859403938e+10  3.9327820476869354e+10  2.1793402939495239e+10  2.1844805018252827e+10  2.2767826363477379e+10  1.5377345621137077e+10  2.5866388921751873e+10  3.8642471380858612e+10  1.5996809728057304e+10  3.0370701793914890e+10  1.5925985337744057e+10  8.9570788752523193e+10  1.5391049273331377e+10  3.0049824118320496e+10  6.6071583074268333e+10  5.8454674778552238e+10  1.5796680659900629e+10  5.0530457859604263e+10  2.3491741615674702e+10  2.0696661286488155e+10  2.3690353200521580e+10  6.4448641281380341e+10  1.7407053001734646e+10  2.1826082550564014e+10  2.0140067843626698e+10  3.1243592031643044e+10  9.0086667025227875e+10  3.8300383907944084e+10  3.2113248501305920e+10  9.1094554475045868e+10  1.5271842875484896e+10  4.8878587571893974e+10  6.7929784898674301e+10  2.0098621885171490e+10  1.9421887321211174e+10  3.7985690192535278e+10  1.9559027789828434e+10  2.4525680969132523e+10  3.1401093748945854e+10  1.8228885894236969e+10  4.5606690979532753e+10  7.5336983954352676e+10  5.7306787322928246e+10  6.4617768643093338e+10  1.9108153411985184e+10  2.1024873159692951e+10  1.8113009067719105e+10  5.5465097192363441e+10  2.3864968968883087e+10  2.9739064535152054e+10  3.5614918122618484e+10  6.9003323211126541e+10  2.2623752401204132e+10  2.3270961206888859e+10  3.3626276262013069e+10  8.6816472072191238e+10  9.0586257583694824e+10  7.5372433125581451e+10  2.1231391779318268e+10  5.4389342574501244e+10  3.4372468550968445e+10  1.9191507242098194e+10  2.0643885967369625e+10  2.0939129026206451e+10  1.9560628357987514e+10  2.0115888602734016e+10  1.9772577816441132e+10  1.7574929077473721e+10  1.5911051539077543e+10  1.8813822489623085e+10  1.8990344957670677e+10  1.9493118437539463e+10  2.6767262064034325e+10  5.4722081833741470e+10  1.7651909521652836e+10  1.8590205840361370e+10  1.8251105146794594e+10  6.3790673504413002e+10  2.0591573773719852e+10  4.7332074331780899e+10  4.4094229899897644e+10  2.1746241664557068e+10  1.8429848263713989e+10  1.5951503555773363e+10  1.5966306047154160e+10  1.5295548450288124e+10  2.3832144852179550e+10  1.9671922679468266e+10  1.5350472647176863e+10  1.6160447855634663e+10  2.1224058653462669e+10  7.8235925903014984e+10  6.0309427602545525e+10  2.8195859165471508e+10  2.0951135447951912e+10  1.7435964146372761e+10  1.7058509763855026e+10  3.1018156989349808e+10  2.8691295742560211e+10  2.8802764933513130e+10  4.1354641719780731e+10  4.6540291945052567e+10  4.6743401400036606e+10  3.2864712386821102e+10  4.5406264433245979e+10  1.9620801096895912e+10  1.6758106743063631e+10  3.0243484520402397e+10  4.9762042772998917e+10  1.7709424176946930e+10  1.5401403620280182e+10  1.8182502726909836e+10  1.7091045042463657e+10  1.7208492602678890e+10  2.1131751306592133e+10  6.2162381955297440e+10  6.5728772545811134e+10  1.5814708058077858e+10  1.7118746442855007e+10  1.6180695795446436e+10  2.8005087961294231e+10  1.8551258888506138e+10  1.9858307849910492e+10  4.9435501927735527e+10  9.1866946234715622e+10  1.8197469593965637e+10  1.8910092769015526e+10  1.8947950675520462e+10  2.4454358303491329e+10  3.5676658882721931e+10  3.9927178096864418e+10  1.7429135698644691e+10  1.5801947012178007e+10  6.0576434968847549e+10  2.4673617670354626e+10  5.5910152665281403e+10  1.7210348527538666e+10  1.5408402201369392e+10  1.9308079201808441e+10  2.5845102757056541e+10  3.3152133428782608e+10  1.6310399209525909e+10  4.3628707727373947e+10  1.8174139185642536e+10  1.9437615464906921e+10  3.6330428563858459e+10  2.5538132321647903e+10  2.7743338864347603e+10  4.1519456229318848e+10  2.1005274814308212e+10  1.5940248231132967e+10  4.0771135008020821e+10  4.2427738734030525e+10  1.7675796521070663e+10  1.6895948952276903e+10  2.5629762089854534e+10  2.5150652122483891e+10  1.5408198494000551e+10  3.1152283275439770e+10  3.8852310210489067e+10  4.0929613466256996e+10  2.5944369308463898e+10  2.6792419965653896e+10  2.3677958182712090e+10  9.0662046670483353e+10  1.6500385579841286e+10  1.7081833401861393e+10  2.2998157871504852e+10  2.2670126722221516e+10  2.1048929979880337e+10  1.9635656767500977e+10  1.8274106566766106e+10  1.8521036795542553e+10  1.7278700213673275e+10  4.3287047019499191e+10  1.5288956876735216e+10  2.8947076079160389e+10  1.5283744001775204e+10  6.2723008078795593e+10  6.5040142341740524e+10  6.0350855105109177e+10  2.9780237834448727e+10  1.6942649333729679e+10  1.5402985040736294e+10  2.2841658115981995e+10  2.6489151429623356e+10  2.2830668181287079e+10  1.5386278093901915e+10  7.7949671603526245e+10  1.6663625505724768e+10  1.9708532424701637e+10  7.7003753039555222e+10  7.3294649477121033e+10  3.8132444687164368e+10  4.3782495638753525e+10  2.7249887631101616e+10  1.6330179458237907e+10  1.6236587138707170e+10  7.3954799209407898e+10  4.0118319935015251e+10  2.2719590788029369e+10  1.9677675429447163e+10  5.6528442492004265e+10  5.6714796028211205e+10  7.3234625331645172e+10  3.8473470844438591e+10  1.9314823691520073e+10  2.8090658376910149e+10  3.4186262961523396e+10  4.8157688676718491e+10  4.5877437495913460e+10  4.3402190340257477e+10  7.4279268209328445e+10  3.2003709931789028e+10  3.1253338679181450e+10  2.9810167131500740e+10  1.8733529561428555e+10  2.5216600554762756e+10  1.5756455205930817e+10  1.9015760065299080e+10  2.4951545746980179e+10  3.6829249989542931e+10  2.3801146274800800e+10  1.8384479574809536e+10  2.2016603261620457e+10  2.2794425955506561e+10  1.8040230209913822e+10  2.1743812766953732e+10  1.7489439819474468e+10  4.8634276331354286e+10  2.2950186956193275e+10  2.4063567530132385e+10  2.1495540560524094e+10  3.9439250408346687e+10  2.2152190170678116e+10  2.1481360643087578e+10  2.0433224671280266e+10  1.8053503418116779e+10  1.6810016532166420e+10  1.5375868751946922e+10  2.2146125873725498e+10  1.9043726948838531e+10  2.6211562347421391e+10  1.5381139528878681e+10  5.5721615045331963e+10  3.1697907095969368e+10  2.3021679033182613e+10  1.7017415888464329e+10  1.7954109413990273e+10  2.5908778564405811e+10  4.8029147832619156e+10  5.7417674647586647e+10  6.0835440773378098e+10  1.9122191317549118e+10  2.7485532504944099e+10  2.5751736095856148e+10  2.1647613090706684e+10  1.5975577931389572e+10  4.6710219734692986e+10  1.8157919088784447e+10  4.6373258414663963e+10  4.8093592328796021e+10  2.3415891100472584e+10  7.5764621354800385e+10  2.0111576273629745e+10  6.0522921879724869e+10  5.4255533895096100e+10  5.1639577396807182e+10  4.0989817210638115e+10  2.5905921370454857e+10  2.5144458195048054e+10  4.9972823211582443e+10  3.7882268773904564e+10  3.6213643709043808e+10  3.4436646975570717e+10  1.8358214385198627e+10  1.7859330932593052e+10  2.9974905337007126e+10  1.5326360659258383e+10  6.8891700613328110e+10  1.8201188718294289e+10  3.4633640875144714e+10  2.1971917558732578e+10  1.5525466504071245e+10  3.5630353875704544e+10  2.7877125330531166e+10  2.7780190170914787e+10  2.0959177925670109e+10  9.0289580971680145e+10  5.2950170877309746e+10  2.2454591686834965e+10  2.2414942010881977e+10  1.8339675898268463e+10  4.7114361507434181e+10  4.7147395522743851e+10  1.9723844073488655e+10  1.7292577130273937e+10  1.8147316230570961e+10  1.7815324595439075e+10  1.6896952617367949e+10  6.2913028596375305e+10  7.7131552514605576e+10  2.6961656177214912e+10  2.7704299048338444e+10  2.9695208256886978e+10  2.4688919903563061e+10  1.9744629294184990e+10  3.5799361593846664e+10  1.8703977226456223e+10  1.7492154581431477e+10  3.2885805005880379e+10  1.6783057696712290e+10  6.0648621935857964e+10  5.0956292119419884e+10  3.0351318772650154e+10  1.5372556241557728e+10  5.4919654213164368e+10  2.7196742307354183e+10  2.4694116638487297e+10  2.1416096324508228e+10  1.6321950625523193e+10  1.6334573644428137e+10  1.5961048734779882e+10  6.0275781600303467e+10  2.7188237586602547e+10  3.9552080835320778e+10  2.9497381660891758e+10  2.5197425371216331e+10  2.6552072491294765e+10  1.8007836994996189e+10  1.7832242888386410e+10  4.2778282690161385e+10  4.1556979624054634e+10  3.8455454090841331e+10  4.1475967140449921e+10  1.5372460581176050e+10  1.7566349499667984e+10  1.8627545840807316e+10  1.8431513516680550e+10  1.7555708609905685e+10  8.9954103323404770e+10  9.0380300430383972e+10  1.7845673392792000e+10  5.6690435560962265e+10  5.1198478743513031e+10  4.2662384520202072e+10  1.5419897919664259e+10  9.0415094804412292e+10  1.6981061477459299e+10  1.5968820497779434e+10  1.5371159277142176e+10  1.5289965619335672e+10  6.2690759022074776e+10  1.5359585980807795e+10  3.0939217131242760e+10  4.3078269462412537e+10  1.7422904745730137e+10  1.6069039036863102e+10  3.3527552747431099e+10  6.8891900190450623e+10  2.2090524378807873e+10  2.0712478261619366e+10  1.6236923014994690e+10  3.0415726904030205e+10  1.5398822763320614e+10  1.7696616873120071e+10  1.5834339444866457e+10  1.5293023192269379e+10  1.6235937184465155e+10  5.3110150887384804e+10  1.5335274785747187e+10  9.1734751848125961e+10  1.5310992716526163e+10  2.7591120061964550e+10  2.7312267558873947e+10  2.0675016540083515e+10  1.7079741263536182e+10  1.6507479663146553e+10  1.9987370184562458e+10  1.6023358106248432e+10  1.5344113876313660e+10  1.5870880809529703e+10  2.1369676139541916e+10  2.6574480848104950e+10  1.6760777227365974e+10  1.6881860698806894e+10  3.4659343681205734e+10  1.9953669926059799e+10  1.9963604407906002e+10  1.8609145642014160e+10  5.0518003375458504e+10  8.1600318666775116e+10  3.1025546457209408e+10  4.8045079444308281e+10  5.5993690494165428e+10  2.1524406281881001e+10  5.1700370625676193e+10  1.5303911732361723e+10  2.9923831277728191e+10  2.4560392896521568e+10  9.3138610099217010e+10  1.5853212246712614e+10  1.8050294635473473e+10  1.8331939566756393e+10  3.6547927622675949e+10  2.6932263816977421e+10  2.4559990145274609e+10  1.5870243722535845e+10  1.6100743746272579e+10  1.7531736116196327e+10  5.3090208863193993e+10  9.2358883732456894e+10  1.8005636308794254e+10  1.7917927860326527e+10  3.3555891184403168e+10  3.3395561862465866e+10  1.7539193900649361e+10  1.7205098416142239e+10  1.8243873420013645e+10  1.8924099931216763e+10  1.5944611577375593e+10  2.1601274324963493e+10  2.0318095566472065e+10  2.0049352619419472e+10  3.7633712009201973e+10  2.2359006861893394e+10  2.1618774299926147e+10  6.0587441697489120e+10  2.5747057702549160e+10  2.4229851477501125e+10  2.4512077519445873e+10  6.4226715760159782e+10  1.5296262229473501e+10  2.8765422406277798e+10  1.5463578013842010e+10  1.9540383397825867e+10  1.6009250013374147e+10  2.2485061275911663e+10  2.0010031616896160e+10  1.9625204657475960e+10  1.8734442998234409e+10  2.1214808236087082e+10  2.2047463042418739e+10  1.5279379858238552e+10  1.6158510501040705e+10  2.7138669385814903e+10  1.5287480497789854e+10  1.6281092050989607e+10  2.4612047504886429e+10  3.3114993277912411e+10  5.3624266525866882e+10  5.1420338539819786e+10  5.3275480372869751e+10  3.3013992349980568e+10  4.1468463442282692e+10  1.8874380242842152e+10  3.3044758154258636e+10  1.7791771348668179e+10  1.6748598689326900e+10  1.7098512669098671e+10  1.8879600020504818e+10  1.7854383078137909e+10  1.7878456875750576e+10  1.7530154938976757e+10  1.9928009878114880e+10  3.2240874027650764e+10  2.0659404094753788e+10  4.4093292545293083e+10  4.4850362885856255e+10  2.6548244472791656e+10  5.1314088306211853e+10  1.7231028723165596e+10  2.3807449547650799e+10  2.8704912280863262e+10  6.0602601160913109e+10  4.3461072063404663e+10  4.2977902278123314e+10  5.2046599809789619e+10  6.3399432578530937e+10  7.7344127416935623e+10  2.7578855304097336e+10  2.6087337409364468e+10  2.5823329569488708e+10  2.4254030039476479e+10  3.1197905083679581e+10  2.2138997457152584e+10  2.1493614698414932e+10  2.2994438293885921e+10  1.5277829410716448e+10  2.7191883329647549e+10  2.9825964674479095e+10  2.9295611550128117e+10  6.5771935888474411e+10  2.8003650483797623e+10  2.8555596082096321e+10  1.8367399992139214e+10  1.9067224377884811e+10  4.2965154563107864e+10  2.9625291970258755e+10  4.1718914155643494e+10  1.9536421727423172e+10  3.1986460963093208e+10  1.6903671268053919e+10  3.3812398278639587e+10  1.7093341456906416e+10  7.3214874567182968e+10  6.8084005930569931e+10  7.5903391344292694e+10  3.9807596893097565e+10  9.2741494686799683e+10  1.8594615594269608e+10  2.0966903178169170e+10  1.6257179926190006e+10  1.6344250733877277e+10  1.6890477597693178e+10  3.0648986801119678e+10  2.4433510569751045e+10  3.3248716783001862e+10  2.5034008231861740e+10  2.4845507637301144e+10  1.6032256492317644e+10  7.4807967329937149e+10  1.8731508330337910e+10  1.6148359517590910e+10  1.6061169588967777e+10  1.8543177880743996e+10  2.0233377054721668e+10  1.5404768958931257e+10  4.9810250529220375e+10  1.6707297913480368e+10  1.7005254547765486e+10  1.9154235544630146e+10  3.3741032763188004e+10  5.4293738224225601e+10  3.8998760043331032e+10  1.6214039702229342e+10  1.5254622459092505e+10  2.1058064230680996e+10  1.9306256139205887e+10  3.6334308623492920e+10  3.9906386667207405e+10  3.5907976570822975e+10  6.7835880390949249e+10  6.5018463253844940e+10  3.0584706334822552e+10  2.0088887432127422e+10  1.5338346686332205e+10  4.0614593121945152e+10  1.5978110996434130e+10  1.6387011514729933e+10  1.6107224415135649e+10  1.8085783341443108e+10  1.9165939004270306e+10  4.3699864832119194e+10  1.5302181052996864e+10  1.9744322582459934e+10  1.9293084091150093e+10  5.4052292810303200e+10  3.0730948091907875e+10  2.0500421378673283e+10  3.7530576909808617e+10  1.9184112136161823e+10  1.9860776075819481e+10  5.1501821757338188e+10  4.7658566862089424e+10  2.9265399128248466e+10  6.5049322825757889e+10  2.1330489662826546e+10  2.4839370957362408e+10  2.4864259345995270e+10  2.6148174815913025e+10  1.5356005618501532e+10  5.8902225706468330e+10  2.8451652309465038e+10  7.5015537568042068e+10  1.5460484567615612e+10  6.1362894270736519e+10  1.5330724753151661e+10  1.7092866377893511e+10  1.5259629282620626e+10  2.1037627631797440e+10  3.2722782121537792e+10  1.7311988319339451e+10  1.7840204020771675e+10  1.5267417436904406e+10  1.6464153451297451e+10  2.0963874528312180e+10  6.7984797547359398e+10  7.9784689062296036e+10  7.3931814115379913e+10  7.4619813398420273e+10  6.7688520537118340e+10  3.1529677148926254e+10  1.7178992368817417e+10  1.5788045989728952e+10  1.7701419797136719e+10  2.4788852820554626e+10  1.6165761001590235e+10  5.7585883631420174e+10  1.6228370715808926e+10  1.6553636578645111e+10  2.8423056888430584e+10  2.7775092137516396e+10  4.9959912364955704e+10  2.6882875023753983e+10  3.0243814085002525e+10  1.6957508176502199e+10  3.0552454534603771e+10  3.2940236166028728e+10  2.7005907366888088e+10  4.1777831548157394e+10  7.7003866266106659e+10  3.4287605534530228e+10  2.5268257393705967e+10  5.8098952790201187e+10  6.8580474672864456e+10  3.5435938818428886e+10  3.9429152610489143e+10  4.0665357567210144e+10  7.4287476990475433e+10  6.7599734687776688e+10  6.3650011294952446e+10  4.2627939161652191e+10  1.7671089622068897e+10  1.8099451884345123e+10  1.9525733915812107e+10  4.3716739550205948e+10  5.9812096108995613e+10  5.6675347063203110e+10  1.9017549033181145e+10  2.1250643634897915e+10  5.6512165164562286e+10  7.4636570239700836e+10  7.8145012135155197e+10  2.6716615533896561e+10  1.6086233461822447e+10  1.7926307796138279e+10  1.8705840202026939e+10  1.5354482709142479e+10  2.7269239915678970e+10  1.7704784258098099e+10  3.4245465866632427e+10  3.2953432305396816e+10  3.3370318283135384e+10  8.0494931150227707e+10  3.2009561705507568e+10  2.9302535211153828e+10  4.2345393814114922e+10  3.7638477645135132e+10  4.3123797445459175e+10  1.8959654784340107e+10  3.1076143227587112e+10  5.8098414330021591e+10  1.5981741776032393e+10  2.0485618409969154e+10  3.1000230176680779e+10  1.5256700604134644e+10  2.4764633286963001e+10  1.6515213455386209e+10  1.9003541955571270e+10  1.6760126180957302e+10  1.6797644944010752e+10  1.7821839505193741e+10  3.6643064653612892e+10  9.1869306992425705e+10  3.7942384440531960e+10  2.8408014523662045e+10  2.4417246857545475e+10  8.2887928688366257e+10  1.6239721175553074e+10  1.6123112134495169e+10  2.2220056878497921e+10  1.7980908991364956e+10  2.3419178605272091e+10  1.5959214292334938e+10  1.7078660059180765e+10  3.4112674028356113e+10  3.6336445613084473e+10  2.1827102919606709e+10  1.5357194690358257e+10  2.8375218840167934e+10  2.6743113452406994e+10  1.6116979815541307e+10  4.8429683062135986e+10  3.2953247117871315e+10  3.7704970630943092e+10  6.4846014332120407e+10  5.6435227926395226e+10  2.0930339346720547e+10  4.9511218658830254e+10  4.9641568207075417e+10  5.3320478162368202e+10  2.5808918832800594e+10  8.9740205703845917e+10  2.2221428166155022e+10  2.0285063415231426e+10  2.7663521651043365e+10  2.7944906520292446e+10  2.5835662849377514e+10  2.0656608828433929e+10  2.2084765754198631e+10  2.7903295589795181e+10  1.5260902526615915e+10  1.6053718314491604e+10  1.8990827180275032e+10  2.7795843490539948e+10  2.6203468304632046e+10  1.5771362155629812e+10  4.6580218044895012e+10  4.3329709707136383e+10  4.6422785839222771e+10  2.5554888441559490e+10  2.4898536231142746e+10  4.4289011708101624e+10  4.0019367882238197e+10  1.6675170027082787e+10  1.9948289114046078e+10  2.3269150185460876e+10  2.2379626775799358e+10  2.6461339402027687e+10  1.8653910135832611e+10  3.3213906085945667e+10  2.1863225873757450e+10  9.2010360711850037e+10  1.5818480348173346e+10  1.6109813122458672e+10  2.9836563207212368e+10  2.0211406460175117e+10  4.4757388334441139e+10  7.7010385041810516e+10  5.6409438755011810e+10  2.9538509302550129e+10  2.9235227662913502e+10  1.8661252581497093e+10  1.7434363366577881e+10  1.6926487901439531e+10  1.6539547007958084e+10  1.7588688087605820e+10  1.8690819032557541e+10  1.6083785330245287e+10  7.0648497528077087e+10  6.6268024669059326e+10  2.0697457933612316e+10  1.5990607246090897e+10  4.9696323772091507e+10  1.6097571788452154e+10  6.5534359854767349e+10  2.0726980758377708e+10  6.9402568922340805e+10  4.8743799422053230e+10  2.9211755442031250e+10  6.5458576373689430e+10  1.9547020002735645e+10  1.9622890737662277e+10  2.2844266600335659e+10  5.7822416369781265e+10  2.9870639896087559e+10  1.7470021998477009e+10  5.2805381096941391e+10  1.5267716153710852e+10  1.5375771429314003e+10  1.8317157191084911e+10  1.7829447805167263e+10  6.1574069566872383e+10  2.4437566916418400e+10  5.4929530826095695e+10  4.1323121803801285e+10  4.8375824809731995e+10  5.2149029044335312e+10  4.3027661748023094e+10  2.1031439038748894e+10  1.7176246271148403e+10  3.5875695874882912e+10  3.5460353036994781e+10  3.9882252887268280e+10  1.5888233375739159e+10  1.6794884523553793e+10  3.6599172287251022e+10  3.4812590170401306e+10  4.9943012964086159e+10  7.9177438574224380e+10  1.5254294306117016e+10  6.4871482474978409e+10  2.8735663305418545e+10  2.4332023820953079e+10  5.5417364946135330e+10  9.0024732824568069e+10  2.4598081945143311e+10  2.2583143246185646e+10  2.3258290310579720e+10  5.2929728757857788e+10  6.7012869910294617e+10  2.1618354068763645e+10  2.4811669878503475e+10  2.4429073069748718e+10  2.0582285623388077e+10  1.9891186677885525e+10  3.1069887950901272e+10  2.0509036407257587e+10  1.6757283078360352e+10  2.4236578012791512e+10  2.2746005125755817e+10  2.1638680536558323e+10  2.3617702690252148e+10  3.4082803337039055e+10  1.9403171608602615e+10  1.5276861712603951e+10  6.0136074265773239e+10  2.5542360617594482e+10  2.4647813296680973e+10  2.3598782267542511e+10  1.5895909641616014e+10  8.0921057939339432e+10  7.9880469576536255e+10  2.3093792760650314e+10  3.3145093709616470e+10  1.5392138737051062e+10  3.2405330061360718e+10  1.8071370638273949e+10  2.7775192206656284e+10  2.9326678703548817e+10  2.7360594974286026e+10  2.8559215854640270e+10  6.0282404151967468e+10  3.0726986904746132e+10  3.4331502325874233e+10  1.5255359796555763e+10  1.9419682043923885e+10  1.9952670522237469e+10  2.1080410870838066e+10  1.5425133679686216e+10  1.5979013701699255e+10  5.1993623789338669e+10  1.9909606520738892e+10  1.9229932042217457e+10  1.8352152544756126e+10  1.8002906691505379e+10  1.8817973641966057e+10  1.6363950804439913e+10  1.6841660970535690e+10  1.7458763927423721e+10  2.1745825730670288e+10  5.1911765197132385e+10  1.7398410707660866e+10  2.5400546379917915e+10  2.5113004552388851e+10  2.9714800631594723e+10  1.6957038363747005e+10  1.7448038617634563e+10  1.5353210508205330e+10  2.5120336759798344e+10  1.8499776829502388e+10  1.7908686887630291e+10  1.8903658979209572e+10  2.2586035753528305e+10  3.1177928103829601e+10  1.7054453052051609e+10  3.7585245170953979e+10  2.0559002051735973e+10  1.6163284941693739e+10  1.5358554727207806e+10  3.1375200824133011e+10  5.4645499458850975e+10  2.5586179429952618e+10  4.1513439535732666e+10  2.1689142851368435e+10  2.5202215909111813e+10  2.0506743036226051e+10  7.9980620419844788e+10  2.0150148595068909e+10  3.1962889075081539e+10  3.1647244468274883e+10  1.9187786445973064e+10  1.5399240912044973e+10  2.9514831007536518e+10  1.5244679208045025e+10  2.8357542445231583e+10  7.6419921953416885e+10  1.6556020830831041e+10  8.9174430077439713e+10  9.1380240460767075e+10  2.2301682334916409e+10  2.7972726891430782e+10  1.5307239991482174e+10  1.7226294006833080e+10  1.5311391285774645e+10  1.9658502550674011e+10  2.7029469699744167e+10  4.7280184837923561e+10  4.8825887160125252e+10  8.2271411144014847e+10  1.8524034687019897e+10  4.0817881835989426e+10  1.6897059681440807e+10  1.5334035307274719e+10  1.6727361128329641e+10  1.7546417136776730e+10  2.8099708759524048e+10  1.9843905058063641e+10  3.8950739392152306e+10  2.1880874441870872e+10  1.5352710086726885e+10  1.6119458739029696e+10  1.8062307361018532e+10  7.9277817718695251e+10  1.8425972770030682e+10  3.4838660358798645e+10  4.7361284084222588e+10  1.6691979037824675e+10  1.7982458779307297e+10  1.5873821311204996e+10  5.0155134562559517e+10  4.8797671086198578e+10  2.8512714173565029e+10  8.0465887039711212e+10  1.7041207092980742e+10  1.5963034683494673e+10  1.5330045999962009e+10  1.5414899089526363e+10  2.9173294074237339e+10  4.1179230860556290e+10  2.8883993406098824e+10  2.8038092074236687e+10  1.5956954175572435e+10  2.1806049211762657e+10  2.1366798433695148e+10  2.0256350399966885e+10  1.8137616386073063e+10  1.7629720197088673e+10  3.1380832320926346e+10  2.9636985811146099e+10  3.2180019945713230e+10  2.9970015817807964e+10  3.1470258189491383e+10  3.2640176364814819e+10  7.8274873434820709e+10  1.9750481637706142e+10  1.8611209792730103e+10  2.7124919922498943e+10  1.7019577020742075e+10  1.7850248728104012e+10  1.6977863183143406e+10  1.8682223934171371e+10  1.5918641419522755e+10  1.6328739760943850e+10  2.7526868286900833e+10  2.0347502342761036e+10  2.8994065835575676e+10  2.1134212999331360e+10  2.1630843739673233e+10  6.1214011553115646e+10  1.6014641521754536e+10  2.9933268641423923e+10  3.0755936690499390e+10  3.4695462294553215e+10  2.7434751664156551e+10  1.9297098543589920e+10  7.0683855423719635e+10  1.7330172722744556e+10  3.6386843281534554e+10  4.6670687540568352e+10  2.8583202306105003e+10  3.5223592144725861e+10  2.0987957560917377e+10  5.0068920850390755e+10  1.7710627075660576e+10  1.5892668421605242e+10  8.1777368232184891e+10  3.6542884422729385e+10  3.9546111658292702e+10  1.8342138119309471e+10  1.8403435701059921e+10  2.5529578812369175e+10  1.7473137289986744e+10  2.7794267848872337e+10  2.5783925283702118e+10  2.0187588081710789e+10  1.5226053577181715e+10  2.1673360758392918e+10  6.6649258961935181e+10  2.6428480901061882e+10  2.6900385156248745e+10  6.2942904772899483e+10  2.6812268301936066e+10  3.3805919348082890e+10  8.3809230217581223e+10  1.6615883370303556e+10  7.8849375162453812e+10  7.4197629574735977e+10  1.6966646572890242e+10  2.4653969851356796e+10  3.0027938095938725e+10  1.8088550887466927e+10  1.5307661448720200e+10  1.6776526083880239e+10  2.9073006845200726e+10  2.5124923475274170e+10  5.5670745704744080e+10  1.5388778379146400e+10  3.5566241186715439e+10  1.7586525043825420e+10  2.0364406465913239e+10  2.4951982293540371e+10  4.2261740877996735e+10  1.7810764310919640e+10  1.7117471766414507e+10  1.8058448612037197e+10  9.2791513154857941e+10  1.5344496598057730e+10  1.8469287059141197e+10  2.2389209466430393e+10  1.7347484635359669e+10  1.8168187297300220e+10  2.2875946378210930e+10  2.4321705518817051e+10  2.3107370229815701e+10  2.0264017002643242e+10  2.1676045895209526e+10  2.0582047983369656e+10  2.1716217930874954e+10  3.7903130412389168e+10  2.3073465992301296e+10  2.5855189012919758e+10  1.9415895945573818e+10  2.0364602198708244e+10  2.3651235098084789e+10  2.6739324387979473e+10  2.7946004904010185e+10  9.3524323558285690e+10  2.3117230620326500e+10  2.4824967355303871e+10  1.6729079293690596e+10  1.5422041566917543e+10  2.0674456080800327e+10  5.1516901507811401e+10  1.5319833016167948e+10  5.8289966586715332e+10  5.9973449762800629e+10  2.0409606314719269e+10  1.9968155343975632e+10  3.2490947121171707e+10  1.5677877182796894e+10  2.7813634599087105e+10  2.7125652371185059e+10  5.8903838936382584e+10  5.7808122521800873e+10  5.3128540097212784e+10  2.1623058456222725e+10  2.6592827984349678e+10  1.5989883837102194e+10  3.4081665068377563e+10  5.3038973751932472e+10  2.6830683462053646e+10  3.2645648977640026e+10  4.8274636759558441e+10  1.6609991604901220e+10  1.6871386322822132e+10  3.5070262659452911e+10  1.5358382485770613e+10  1.9209853667377300e+10  2.8887061423016537e+10  2.1710456310801334e+10  3.1945069434367264e+10  3.1531642150337669e+10  2.2512829174086639e+10  2.1237994133996010e+10  3.2947396525433289e+10  1.7340602022374420e+10  1.7624821522964043e+10  3.4284237608469090e+10  1.5690096392601511e+10  3.7981820367984024e+10  2.7265968095645828e+10  5.2818102569363487e+10  1.8009573347438477e+10  1.9273903888197689e+10  5.3203811676044861e+10  1.6766965524205971e+10  1.8512375821643929e+10  2.8102136887004192e+10  1.8599777569873699e+10  1.6840287524851404e+10  2.1281799701598644e+10  1.9949220274752907e+10  2.3490391208743912e+10  2.2122061845383526e+10  6.8659899051961296e+10  1.8912175050262508e+10  1.9901119294375465e+10  3.6297287349103241e+10  7.4033471654416473e+10  2.7197278500987957e+10  2.5010728062414513e+10  1.8167103390470062e+10  1.7155145891942066e+10  2.3008916230858418e+10  9.3156751750433334e+10  5.9954015313070877e+10  6.7078628327996353e+10  2.1466744608499714e+10  2.6954056354737812e+10  3.1361047230618805e+10  1.5356950075212467e+10  1.5026909813712351e+10  1.5329988398244343e+10  7.1360768966609894e+10  7.0740390481122696e+10  1.9062934646665302e+10  2.2385416507316322e+10  2.0139795319972294e+10  2.1890903569356564e+10  1.9043974651548378e+10  2.3395796239272617e+10  1.8753914728978653e+10  1.7798605139454338e+10  1.7489773294217781e+10  1.7590957150401890e+10  1.9726948780113895e+10  1.9604619159133282e+10  1.8843156382532745e+10  3.6082916579261711e+10  1.7237513351141884e+10  1.9020132813170708e+10  2.2031167286903645e+10  2.2839454710562901e+10  2.2550764147870647e+10  2.1147862133019802e+10  1.5499181419397469e+10  3.6184980980078247e+10  3.4579533926613495e+10  2.2052038799693909e+10  5.1806505221310776e+10  4.5732241493240990e+10  3.0189572198043453e+10  3.3613351209281128e+10  1.8649164134868771e+10  2.4184342507295406e+10  2.7109872165585091e+10  2.4969210738961964e+10  1.7641019768926750e+10  6.1627164808999252e+10  2.1507053467056499e+10  1.6421396390246534e+10  1.5760277446693560e+10  9.1597136088144745e+10  1.5346163676937607e+10  2.6895695788637257e+10  3.2736673277440670e+10  1.6835708149222101e+10  2.1899896801085808e+10  3.5658433686807335e+10  1.8247127350536259e+10  3.5936228930500717e+10  2.5452500942478630e+10  3.8941577205092018e+10  1.7784624594127171e+10  2.8932462987619511e+10  3.6451983492121918e+10  2.3262696840689938e+10  9.2217080996177628e+10  1.7998101934950985e+10  1.7351389718231941e+10  1.6735910314203121e+10  4.6970705168254547e+10  2.8472210676380093e+10  2.0597532711973236e+10  1.6127717301143955e+10  2.2032170856300716e+10  2.9596449746493290e+10  2.9557907519131542e+10  1.6584428415959143e+10  5.3016482462259476e+10  2.3750106729266472e+10  9.0493112864334213e+10  1.5988798688838104e+10  3.9153976364581039e+10  4.0809703067241234e+10  1.7404268326592396e+10  1.6732387713441505e+10  1.6180954259599155e+10  1.5939819495837734e+10  5.6163106928783150e+10  5.1642491010849419e+10  6.4791691427250053e+10  2.0785492251371185e+10  6.1080082484110947e+10  2.6066565890366081e+10  1.6297876096956694e+10  1.5384773487311422e+10  3.3248050438013336e+10  1.6858495094650442e+10  1.7145746363649279e+10  1.6692725951553823e+10  1.9211477770110241e+10  6.1353997328961479e+10  2.5944335911618774e+10  3.4637682995008247e+10  1.6855968040044088e+10  2.0957010546804333e+10  1.5220844219329933e+10  2.2761725654123985e+10  2.3667825148644512e+10  2.3081583022805626e+10  2.7532388362221622e+10  1.8050201004780006e+10  6.7842420671426598e+10  1.8778941188031013e+10  3.6024417136948181e+10  2.7627883112349133e+10  2.9115020748872356e+10  1.5677203508138357e+10  2.5678925284012398e+10  2.4728456066650398e+10  2.2951397054352425e+10  2.4197887710411663e+10  3.2372035239634899e+10  6.2581734402169670e+10  2.1864826464066383e+10  6.8015060147288628e+10  1.6073625177157364e+10  9.1544346091248764e+10  2.0352861618374172e+10  2.3835598607225410e+10  3.2921962847666710e+10  3.6273263367532593e+10  3.9909786089923019e+10  7.9457640066855469e+10  7.5479557262380966e+10  2.2006460569343403e+10  2.0921419526132492e+10  8.4282188071162613e+10  2.5058311304286427e+10  1.9374177986617592e+10  3.1765578602781944e+10  1.9990280197891861e+10  7.5147871009645065e+10  1.5345849718439457e+10  2.4864265505977551e+10  1.5811912938593391e+10  2.7376048383683914e+10  2.8550697601201897e+10  1.7425489140275726e+10  1.8508253685015766e+10  1.5866136906827602e+10  1.8990754827860085e+10  2.0028394294640839e+10  5.8158863245736176e+10  2.2776774038459507e+10  1.7245711789457031e+10  7.8337730481952606e+10  1.9366485231544659e+10  1.6959760860708645e+10  2.9309533607611828e+10  1.6039490305310471e+10  1.5977231755185595e+10  1.5299767751752943e+10  2.6781458366535851e+10  1.8702912985205059e+10  8.0129883254783508e+10  1.7641604857326454e+10  1.7777406548384529e+10  1.8160447483741993e+10  1.8359197382938511e+10  1.7495761681855904e+10  2.7585697534453529e+10  1.9057457546610611e+10  3.7854209796348343e+10  3.8540610410409576e+10  2.8996467714973335e+10  6.6352943324389809e+10  1.5407292393212414e+10  7.6781679790037567e+10  7.0205755677137344e+10  2.3904831032824505e+10  4.1308711852312065e+10  2.9601258375226250e+10  3.4523283889425858e+10  1.5867521543491911e+10  4.6483997911385338e+10  1.6282426902429554e+10  1.6661157531616705e+10  1.5248038029296305e+10  3.1783147737493809e+10  6.8240200098855247e+10  5.5012816484334068e+10  3.5777325610548836e+10  1.6739008481256737e+10  1.6336321954868444e+10  1.6041739294052689e+10  2.0409602916455730e+10  1.8448244717855190e+10  4.3807963178173271e+10  3.6420570617033028e+10  1.6864353639345825e+10  1.7269446847488510e+10  2.4209581517645969e+10  2.3135357149185444e+10  3.7664786589073242e+10  4.0493857190016411e+10  4.1699737476934990e+10  3.5111045505759476e+10  3.3491637455973602e+10  1.9988011935504845e+10  2.3381225292450481e+10  1.8077517851204491e+10  2.0560522027937584e+10  1.7503624293674870e+10  2.9424635066385586e+10  1.6697933203353739e+10  1.6462029093499798e+10  1.4908851113125923e+10  9.2771524162442078e+10  2.0538108776653591e+10  2.4380184451861832e+10  2.0343092091822418e+10  3.0795106589356400e+10  1.8452919807423275e+10  1.5227096546856216e+10  1.5962394989131247e+10  2.3806789213594097e+10  2.0735531827213928e+10  1.8190681094719078e+10  2.3042693547992638e+10  1.7812336460823540e+10  2.2470114403096363e+10  3.4439543496790062e+10  3.8355289756768036e+10  1.6208074102424122e+10  1.6814261292031046e+10  1.5826276941837282e+10  2.3486512732683338e+10  2.3863192857193466e+10  1.7807697154526825e+10  5.6634401926263885e+10  1.6678951891651447e+10  2.1390356563264629e+10  3.4365750806516708e+10  3.4811629078515755e+10  3.4429748636016182e+10  5.8318209515219307e+10  2.5323962929209972e+10  2.5115562134393902e+10  2.2037073599191032e+10  1.9148898756447502e+10  1.9613120086903618e+10  8.4172022807329147e+10  1.6120268349849001e+10  2.2007611391955322e+10  3.7105894564738380e+10  3.1546973511553410e+10  1.6432185838293201e+10  2.6360085016802017e+10  2.7498319512108204e+10  2.1098321028516197e+10  1.5882019534952620e+10  7.0466583769706772e+10  5.9921719182614151e+10  6.1019252100453186e+10  2.2065909074013477e+10  2.6727819340540100e+10  2.0459695160508678e+10  2.0945525990373074e+10  2.0171444273148186e+10  4.6508147896557747e+10  2.3701094956778175e+10  3.2042054437939819e+10  8.0045775303233322e+10  4.6427894047767273e+10  1.6586283187662708e+10  5.7030310625977127e+10  2.2803389386163662e+10  4.0571530847467484e+10  5.8311423221119415e+10  1.7492352251670212e+10  1.7375977420977566e+10  1.8056909871983849e+10  3.2644762257360786e+10  2.7764814735993317e+10  2.7966580153583645e+10  2.5987742038683815e+10  2.0164514991569233e+10  1.9432494429589340e+10  1.9325632034751038e+10  1.7475353029923199e+10  1.6817001986421251e+10  4.8366289395200386e+10  3.9863564600351608e+10  5.3960016706887718e+10  4.3050807551644646e+10  1.9377541144318687e+10  2.3537210365681263e+10  1.6771578036130093e+10  1.8002187680199680e+10  3.0479686662307789e+10  3.3541130344578831e+10  1.5383839429623854e+10  1.5950604290583887e+10  2.4111082154659874e+10  2.2815417495176403e+10  2.8107031283833439e+10  1.6038280030174816e+10  1.6047620747483549e+10  3.2049228177721310e+10  2.3605528190939476e+10  1.5226990153636965e+10  2.8308980950166687e+10  2.4188436245328979e+10  3.7462649940685081e+10  4.1422767226590775e+10  4.2019367576940407e+10  1.8086587689473225e+10  3.4723372404454491e+10  1.6614475714322893e+10  1.6355680888675926e+10  1.6236985464735123e+10  4.9082501972832787e+10  3.3742618494130249e+10  3.7248137964879059e+10  3.5366889618780830e+10  8.1449066164206909e+10  9.0259567062385101e+10  1.7232948052184650e+10  2.0852849082081284e+10  2.0445997558363205e+10  3.6252971866636086e+10  1.5948988089851946e+10  1.8968874095051205e+10  1.8984200704177948e+10  2.3947750970734558e+10  2.3259788509212605e+10  2.4879697955341702e+10  1.7287385897475212e+10  5.3368165156501732e+10  1.6632018195389072e+10  3.5414036254486092e+10  3.2533642747780834e+10  2.3171550775592564e+10  2.5551626918050346e+10  3.7488880668827492e+10  3.9463029042284370e+10  4.2357786217654236e+10  4.8197802078318443e+10  1.5323111028757957e+10  1.5971040526077049e+10  1.6085793943069111e+10  4.4729267123825768e+10  2.4518873579266899e+10  2.4515427819856895e+10  2.3103269373935833e+10  2.2258738886550774e+10  1.8253661413456898e+10  1.8912116901427036e+10  1.9338907045791843e+10  1.8643679125532497e+10  3.6507138393139786e+10  3.6019465586082405e+10  3.1207732716716404e+10  3.3745904371843662e+10  9.0950250082381226e+10  3.0161028524027180e+10  3.4146076327857609e+10  1.7265898490527725e+10  8.0797986190592377e+10  3.7418245225317413e+10  2.4466741760465263e+10  3.0459766830910759e+10  9.1235842488283920e+10  3.0213455382522957e+10  3.7457382892722252e+10  2.2472273719629501e+10  3.3687690102233616e+10  2.0054642683561932e+10  1.6416456368069706e+10  1.6795035842838678e+10  5.7279287360494911e+10  1.8240854733039989e+10  5.1918258947685631e+10  2.2461615181446125e+10  2.2957773693635929e+10  2.3531491808691719e+10  3.5010679034408936e+10  3.8261480414482658e+10  4.9500824357863503e+10  2.2402654320898975e+10  2.1608636039371544e+10  2.0946232970484665e+10  1.9287164394365589e+10  3.1522346201040211e+10  1.9006646993417549e+10  1.5352336146584818e+10  5.2546980293229378e+10  5.5037943594772949e+10  4.8345829707844345e+10  1.9210952715135715e+10  1.6994120319130993e+10  5.4431449166513802e+10  4.3136986492074707e+10  4.8905096805389725e+10  4.5594240053108986e+10  4.7710490492351334e+10  1.8031398917073978e+10  1.7770367702395130e+10  5.3351917780639023e+10  5.3993686319485420e+10  2.8846440708266712e+10  2.5237433748515549e+10  1.5356929012178881e+10  3.3487355863244411e+10  2.2020250101796753e+10  2.0360308645052074e+10  2.0694724971585785e+10  1.9680417117527107e+10  7.1942276937599884e+10  1.9102681820826752e+10  3.7215424201029419e+10  8.1910971244395905e+10  1.6161013948524757e+10  2.9594199140728481e+10  1.8774100885321281e+10  1.7933773515019737e+10  1.8515933406427319e+10  4.8379280728069908e+10  9.7959284016236389e+10  3.3045097866508091e+10  2.9535216739310173e+10  3.1803155753099003e+10  4.0116258820581650e+10  2.8561859272224022e+10  5.8450323912764366e+10  4.2154159682967339e+10  2.9826808670938927e+10  2.4624648293966896e+10  1.6353340728326769e+10  4.0322475667932152e+10  1.6174499837542667e+10  1.5845884545782259e+10  3.0354845896612770e+10  3.3737668999031246e+10  1.5948151633712223e+10  2.6167989958971092e+10  2.5211510619684303e+10  2.0008174272521542e+10  1.8612464481626263e+10  2.6623354653970085e+10  3.7608485422616951e+10  4.3090060450691658e+10  1.9339145747141369e+10  2.7263702024733864e+10  2.3112096062191345e+10  4.7134029660025169e+10  2.3734668196373848e+10  1.8592164157180943e+10  2.2072072358874550e+10  2.8748985457664883e+10  9.6710101730004868e+10  4.2668351058819244e+10  1.6094098500544214e+10  7.4753559713795334e+10  7.8239458426409378e+10  2.3480922468593235e+10  1.5452583057430738e+10  2.3157626610520817e+10  2.4939866364290268e+10  2.6163357429464619e+10  1.6851811607835897e+10  1.7717167236938133e+10  1.7635508025155071e+10  1.5770759860022451e+10  5.6250586073643639e+10  1.7127916113774038e+10  1.6029698746645897e+10  3.2707347608596283e+10  2.5547301816381767e+10  2.3478028007985699e+10  1.7144466338171949e+10  1.9821697109952019e+10  3.7300779798540474e+10  4.2113576326517647e+10  1.5283927661698616e+10  1.5995598723907490e+10  1.6050568829232428e+10  2.9436270768705212e+10  5.5568083769679512e+10  5.3584570706031197e+10  3.1221249572542400e+10  4.7324806343224976e+10  2.1164335164242386e+10  8.0407047168099655e+10  7.5282093341752838e+10  2.0800843819079372e+10  3.0879503161626659e+10  3.4878573182948364e+10  1.8405466034594334e+10  3.5378256244960327e+10  1.6713147366499632e+10  1.7204047367975906e+10  2.2019958938842392e+10  2.8999119737611816e+10  6.6767172184502182e+10  4.5629767140107666e+10  4.2624579137556442e+10  7.6414813181246597e+10  8.0232158972055786e+10  3.6001016610042557e+10  3.9669007360348885e+10  1.7206587510919495e+10  1.7726947403222549e+10  4.5119549891646065e+10  1.7052423864057737e+10  1.8482367701853226e+10  1.9166373437803619e+10  3.8384896721528847e+10  5.7038862368466751e+10  4.4146640182965790e+10  1.9757059864623791e+10  2.8817410876291237e+10  2.7475474599408546e+10  1.9159785040735748e+10  1.8511510066664780e+10  1.9531815914049335e+10  1.6011884404514034e+10  2.8937058430314762e+10  6.8397270936117691e+10  6.3144934357316498e+10  1.8577491318504795e+10  5.9210227006134186e+10  6.5570067471289139e+10  7.0092420502595963e+10  1.6746696263027529e+10  2.1152569735890015e+10  3.4846195792145027e+10  3.4452054431196533e+10  3.2136057028927628e+10  1.7506717352122089e+10  1.7398178861383675e+10  3.9220200262418457e+10  8.1216625997474075e+10  1.5217082669648951e+10  6.8391109858437805e+10  1.7119025475419971e+10  4.6102594432244568e+10  7.1925672698781403e+10  5.2124370137590210e+10  2.8212030843157936e+10  2.8005314570228161e+10  2.6757485876113125e+10  1.6215900938788807e+10  2.0489474636440193e+10  2.2292915749208424e+10  2.7813145335627762e+10  2.9441998444894012e+10  8.2415270453884827e+10  1.8492665516742813e+10  2.4350404824222607e+10  1.9497332425380901e+10  3.4640411442965248e+10  3.7702326251392303e+10  3.8681458658507576e+10  3.2120769110166019e+10  3.2552580301568691e+10  5.6135895938081322e+10  2.6515319155363167e+10  9.1869437508915741e+10  2.8132005111810280e+10  2.5181088350927605e+10  2.5246274107099964e+10  2.1978606103313408e+10  1.9124802069094002e+10  1.8741651630352394e+10  1.8172736622901093e+10  1.8925582396397186e+10  2.1934238895273552e+10  1.7333608007476292e+10  1.8925084808045532e+10  1.6758936450881233e+10  1.7323842313405495e+10  1.7221374947475586e+10  5.7976770268915489e+10  2.0774203986958561e+10  2.2873856591162033e+10  2.6933191243705486e+10  2.0608614116997334e+10  3.0441572715717773e+10  1.8471590438213020e+10  6.7117568175246292e+10  6.1830573385023834e+10  1.6505446422388584e+10  2.8316987855320923e+10  2.8520349304268444e+10  1.5698162588570091e+10  3.6328736877909134e+10  5.4462440213014748e+10  3.7964239437397522e+10  4.3103106320658363e+10  3.9846162760967018e+10  4.8904917853223763e+10  1.9862006283515141e+10  3.1877109227776024e+10  2.1416137240737400e+10  2.0588873961001381e+10  5.1364285122115501e+10  6.3223246115782738e+10  3.2605833407028175e+10  3.2866531765226398e+10  4.3760086161125847e+10  1.5592455823792402e+10  1.6539357530049379e+10  2.5255968278059105e+10  1.5274424927563643e+10  4.8518939206700470e+10  4.9262850518083572e+10  1.5207932697407177e+10  5.7486614397856613e+10  1.8238821615830814e+10  5.3806070348330124e+10  3.2309751870746162e+10  1.9965496164429981e+10  1.9359095879001385e+10  3.6229390930632164e+10  2.1909519338767189e+10  2.2555710822023224e+10  2.3411612628272106e+10  4.8276450389233788e+10  4.1647008491624359e+10  2.0430742943496555e+10  3.7223114774928604e+10  2.5201810549742531e+10  8.0195378109445816e+10  9.0189612746200089e+10  9.1820032127162598e+10  1.9682520262865993e+10  5.8659050720916473e+10  9.6397616641746414e+10  9.0180781348611603e+10  4.6622184693231758e+10  3.3460318765717949e+10  1.5838621313275604e+10  3.7649590201316795e+10  2.1172538065898720e+10  2.0048615986487492e+10  1.9578085563422153e+10  4.1286585889163445e+10  3.8559953251606506e+10  3.8608665425806595e+10  1.7937942076439224e+10  1.5230995866859396e+10  3.1916123526069401e+10  2.4718255339604641e+10  1.9284119850826958e+10  2.0268432051869194e+10  3.3007578289061386e+10  3.5095008983484695e+10  1.9643496921982815e+10  9.6550832510570663e+10  1.5493400429552231e+10  2.8110896542485916e+10  2.9470674296445812e+10  1.6809903718719723e+10  1.5321473298071951e+10  2.7070255126428265e+10  1.8663512856244675e+10  1.9713981827415932e+10  2.0604364212134903e+10  1.7932789587989639e+10  1.4932141306338821e+10  3.4757571818372292e+10  2.1192016187149349e+10  4.6147753952345200e+10  4.1505307439439636e+10  4.3183703149093628e+10  3.5558165502324570e+10  1.5890842962907074e+10  1.6235804184591284e+10  5.9735280368824577e+10  5.7868027878485710e+10  3.2649260529478333e+10  1.5282958594654221e+10  1.6636451222692881e+10  2.0024774005808708e+10  2.0139325804779202e+10  6.5578004098461601e+10  4.5154577664288216e+10  3.2859705651318043e+10  1.7612181885268993e+10  1.8097920422784180e+10  1.7794406383706844e+10  3.1579220704926517e+10  2.0482527917613701e+10  3.2213120342636566e+10  2.1456196547154537e+10  1.9237107071049065e+10  2.2200818308425907e+10  1.6736252748281715e+10  1.5633733684153357e+10  1.5332306545732044e+10  2.5946860518662960e+10  2.4183014156930645e+10  2.2706925603101219e+10  2.4701698023209087e+10  2.3850634301341190e+10  3.0554350752918468e+10  5.6223043497818367e+10  2.1482790231648323e+10  1.6829755571826546e+10  1.8279896320507568e+10  1.7851758850062386e+10  1.7118249796993065e+10  1.9648165042917046e+10  2.0028005525375355e+10  1.9853559599450840e+10  4.6016120504518021e+10  1.6734974001799652e+10  2.0075618414039841e+10  3.6953153476206322e+10  7.0004492565351364e+10  6.5837070812478462e+10  5.9627347934191353e+10  1.7397171722814972e+10  2.2547553472204163e+10  3.8089344423116539e+10  5.7503246816773575e+10  7.8810652732570709e+10  1.5343029027193176e+10  3.6435654818250740e+10  1.9072481182799313e+10  1.7269453642169922e+10  4.8237646060059517e+10  1.6312294932188116e+10  1.6003494814042788e+10  1.7369929224513123e+10  3.0661331798835030e+10  1.6862659044504204e+10  1.6876835183087715e+10  2.7186257782768642e+10  1.7205144571486145e+10  4.2127121003580994e+10  4.6205696813825836e+10  2.5397852242362530e+10  1.5637958107780748e+10  2.9988306374574196e+10  5.1721582859971024e+10  4.4991250773829765e+10  5.3411217771390007e+10  5.6932529570248436e+10  4.0717564991787277e+10  2.3845876356161312e+10  3.1384945865305820e+10  6.2842200045737495e+10  4.9427042737683495e+10  2.2027406898783401e+10  9.2434002991326294e+10  3.6612972113598618e+10  3.5318244674128471e+10  3.3077188127370903e+10  1.5812739374747808e+10  1.9584685368657238e+10  1.6379782343248171e+10  9.7986724023091949e+10  4.2141369952271515e+10  4.2286060675495949e+10  3.0581895133695614e+10  2.9166494913111408e+10  2.8960434449146790e+10  4.7002168863834808e+10  5.1645683759395065e+10  6.5130259550697701e+10  2.8238903585252659e+10  3.0582155298221893e+10  1.5636682981259171e+10  1.6530999584621475e+10  1.9070698440479088e+10  1.9644059191152473e+10  1.8782013096341293e+10  2.8210193679590179e+10  3.2249549395354805e+10  4.9186958066145363e+10  2.2208831805094265e+10  2.0337233230275627e+10  2.5003438681576569e+10  1.6540315719777332e+10  4.7482126133275208e+10  2.3471833674506008e+10  6.4189525595046700e+10  7.0588207320396088e+10  1.8363044570555733e+10  2.2173580731367989e+10  2.0662090075971523e+10  2.2279705831759563e+10  2.0877099299230637e+10  2.5917893424748428e+10  2.8927413478131947e+10  1.9827489261535801e+10  1.9349146670107140e+10  2.0758935606001911e+10  2.6285816426296371e+10  1.5003029953861567e+10  4.4488543151949593e+10  2.0844239700843185e+10  2.2391797972298096e+10  2.6617594939455635e+10  3.4095765967073051e+10  2.5722561949098648e+10  1.9983169722842567e+10  1.4948332478692873e+10  2.7260483991143108e+10  5.3570406214639824e+10  3.9506318312487991e+10  4.1715906533786865e+10  4.4799328157144562e+10  2.2773627711168953e+10  2.3226327480386139e+10  2.6600181408176514e+10  2.2631300720029900e+10  9.0386347146497452e+10  8.0707128489042160e+10  1.7011975518807564e+10  1.7796502144171810e+10  1.7575120226018436e+10  1.6383388041913273e+10  2.3587200765097820e+10  2.6433445681467529e+10  5.8949788285463409e+10  1.8386584401692684e+10  3.8187923141081596e+10  3.3585569464666012e+10  3.3767632530068092e+10  2.2061627800204124e+10  4.4075812686170883e+10  1.9405392906221561e+10  2.2753424623349258e+10  1.8714924348998848e+10  1.8026647021097073e+10  1.9057084012950077e+10  1.5784487153109308e+10  2.2011563441990677e+10  1.7640328615240318e+10  1.9530474070987808e+10  2.0209599706333981e+10  1.6157150805040924e+10  1.5372017577177809e+10  1.9971537272325386e+10  2.6193776123196217e+10  2.9762991339017860e+10  3.5857329789732925e+10  4.4472805543370560e+10  1.6290865063540068e+10  1.7010950323019670e+10  4.0012473692191727e+10  9.6631275844036972e+10  2.4447725314757095e+10  2.3716396868488590e+10  2.1164480166057243e+10  1.6907962677653427e+10  7.0368181438373306e+10  2.2302137551628769e+10  2.1261595077138855e+10  5.4713964287428375e+10  1.9975189923655621e+10  1.9344470053591511e+10  2.8229555907727844e+10  1.6255603287752434e+10  2.5568309667494823e+10  1.6120038113631794e+10  2.1107044155967514e+10  1.9772921816927288e+10  1.6648345315912806e+10  1.7232744417455254e+10  1.8930432240847992e+10  1.9958550228984612e+10  1.7463163389964302e+10  2.7887225650412281e+10  5.9464491865563492e+10  4.3507099931488228e+10  1.5959975509701988e+10  1.5327440992166212e+10  2.8211142738175529e+10  1.5846706391111536e+10  2.3323868441240414e+10  2.4966875937193043e+10  1.6776126172256258e+10  8.1258381708567062e+10  1.5318969193619017e+10  2.1158162021144535e+10  3.1377410207068027e+10  3.8939057989176086e+10  2.8026616376891277e+10  1.7109769462724045e+10  2.6512239309583118e+10  2.8938563151057419e+10  3.7681087796748260e+10  1.5551359268251907e+10  1.8717683359831154e+10  1.5931504448070599e+10  2.2263967146146446e+10  2.1664427798442394e+10  6.8787827385867889e+10  2.4509485209694271e+10  3.4476694040103951e+10  2.4722296702011360e+10  2.5731177128337662e+10  2.9249040747528435e+10  3.0969308130218494e+10  3.6836886057960640e+10  2.8606244846804169e+10  3.7673074849097549e+10  1.9621789580240860e+10  2.6866283434191986e+10  2.4821796584567173e+10  1.9081191018856274e+10  1.8478721323873623e+10  2.3907103299639355e+10  5.4327263115571472e+10  5.8689540847819504e+10  1.7683588255108017e+10  3.7028054514327324e+10  3.4965011085487434e+10  1.6445528595630978e+10  6.8911825649606857e+10  1.8509982194945686e+10  2.0088952144926735e+10  1.5390048987427864e+10  8.2455422012660385e+10  2.1132625915210018e+10  1.4948897276064007e+10  7.1165703409358978e+10  2.6735231961084984e+10  2.7995098231027328e+10  3.9045868763838943e+10  2.9660522419412174e+10  1.5342130006009884e+10  2.3029272620825741e+10  1.8232930744115353e+10  1.7978533725447186e+10  1.6118677395733429e+10  1.5827315733272224e+10  1.6548046637389290e+10  3.0474068680558884e+10  5.3614395467707405e+10  1.4989821653598610e+10  2.6674168523177593e+10  1.7766934711274498e+10  2.2595583303715214e+10  2.4327316350737785e+10  2.3548980104548191e+10  4.7633248359305580e+10  1.6175625779852201e+10  3.8969638119487404e+10  6.3615284731550774e+10  3.1610820078240273e+10  7.5667491949810928e+10  1.6084892342664520e+10  1.5314081140558807e+10  1.5317703695643944e+10  1.5869195521043171e+10  2.4299772223539707e+10  1.7800143409591908e+10  2.2449456928086399e+10  2.4069510025574886e+10  2.4185531318079063e+10  8.5690392357915146e+10  1.6190312363439754e+10  1.5922964411833488e+10  1.5849516060798233e+10  1.6868588971904945e+10  8.1354657796671356e+10  7.8996077998743912e+10  9.0300963624625305e+10  2.6198805193622452e+10  6.1871385457146538e+10  2.6108758953335659e+10  1.7172974912111273e+10  7.3191181257967148e+10  1.7747608995769100e+10  1.8948033208709221e+10  1.9663748714312550e+10  1.9425144452213066e+10  1.8497808524317024e+10  3.7776732483722603e+10  8.0634667994055206e+10  2.5718088814693619e+10  3.8480081276089462e+10  9.1351611429057693e+10  1.5015906278991718e+10  1.5205558855213413e+10  2.0699158648176781e+10  5.3197234108810448e+10  3.9133346739991219e+10  3.6817164113301064e+10  3.1673161743313171e+10  2.2219752729090721e+10  1.7469605713833958e+10  1.9627623083662514e+10  2.6963689845550648e+10  1.6314507174938494e+10  1.9525702358808182e+10  2.9579572889416874e+10  3.2966013391465214e+10  1.7811905613907124e+10  2.9894483949293354e+10  2.0836945352625324e+10  1.8213443294868912e+10  1.9734391080176193e+10  8.0171187035581055e+10  1.8747300264513462e+10  1.9694199692896912e+10  6.7629836439970039e+10  1.5323706957710316e+10  1.6729927152228304e+10  5.6217773790222893e+10  9.7773067516841965e+10  9.1600378334739136e+10  1.8936048996708164e+10  3.3524578797304352e+10  3.0316941069985611e+10  5.2490078108304871e+10  1.8877182032625896e+10  2.7366286492293655e+10  1.5045249175174597e+10  1.7653047243341541e+10  1.7625791555009720e+10  1.8317524858742699e+10  1.7940201754090611e+10  1.6228246194691868e+10  4.1531690241208771e+10  3.7550637344869339e+10  1.9005034141750889e+10  2.5620636416033310e+10  1.7398084093186211e+10  2.4017009869449852e+10  1.5715471100948273e+10  3.2160258125044231e+10  2.0374867592637943e+10  2.0883653533228657e+10  1.9801963480131729e+10  2.1442863315083885e+10  2.3070395279034084e+10  1.5035293563717913e+10  1.5326084399269855e+10  1.5275437813595911e+10  1.5293487368991482e+10  1.5003420725698469e+10  1.5344848484377905e+10  1.6075343825839352e+10  1.5406295955759682e+10  2.8279073393375645e+10  2.7209813493924290e+10  5.2089962185861786e+10  1.4920587352731649e+10  4.5743756453411819e+10  9.7649921521012222e+10  9.0144637016322144e+10  8.1962615584938049e+10  9.3084392096327209e+10  5.8399926070929207e+10  6.0699090764755844e+10  2.0659036090473888e+10  1.7256861894696762e+10  2.2447753113099243e+10  7.1310647004831360e+10  6.5148874585529396e+10  2.1489903071750168e+10  1.5840616875078291e+10  3.0621043208570190e+10  2.7539919460305954e+10  2.8536926629094341e+10  2.9011751022728516e+10  2.5672993477167820e+10  5.8188437567944168e+10  3.7428825593133842e+10  8.8024756773142639e+10  1.6170189000466293e+10  4.2712616242818901e+10  2.1132369763574993e+10  8.5607033218618439e+10  3.6392124294550850e+10  3.9057203012135071e+10  3.7573366695692612e+10  2.2642937412172699e+10  4.7255528134234840e+10  3.5984160426546616e+10  2.6054873653829361e+10  2.7114502882669846e+10  2.5400390110860737e+10  2.3082971047371262e+10  1.6447446748338999e+10  2.3019761085829746e+10  2.3373949718898022e+10  2.8208164239443653e+10  1.5050778156287359e+10  1.5315341765461153e+10  1.5277599252746302e+10  1.6139731913414122e+10  2.0065193407250641e+10  1.9047043071254864e+10  1.9529256527085915e+10  1.8580631164573009e+10  1.6343657747889809e+10  3.6246937136527603e+10  2.5396817828066277e+10  3.0180889946906830e+10  3.5121158927422661e+10  3.4355528357482716e+10  3.8313539259530815e+10  2.6067798415327339e+10  2.8820294211908234e+10  4.2217523198012451e+10  1.9764195280029858e+10  2.4040299212188267e+10  1.9528024015727482e+10  2.1796695150261086e+10  1.5993663244126343e+10  2.4797525171903744e+10  3.0603746024834179e+10  8.1475940365300598e+10  1.6640949203064032e+10  3.0272352205120106e+10  3.7062836866688217e+10  6.6209768366670425e+10  5.9754363800242615e+10  2.2759967013133678e+10  2.1873309020935337e+10  2.1031905513335159e+10  5.9707649038768425e+10  3.1459721741410942e+10  3.4614295769432846e+10  3.2976237213056320e+10  2.7137121959567802e+10  3.0747072688965794e+10  1.9622550916815876e+10  2.0249438209581959e+10  1.6198149407590040e+10  1.7403355111643833e+10  8.3931286923733337e+10  3.7816657526219460e+10  1.6888653193629908e+10  1.6027112506125902e+10  2.5854231009009853e+10  1.7524008497153233e+10  1.6141607361683405e+10  1.6755675284768482e+10  3.5570028281623146e+10  1.7316407531532742e+10  1.7549569506923447e+10  1.7101133085623535e+10  6.5031231378192070e+10  4.7678857075495934e+10  3.9398152443939240e+10  1.7381092198097759e+10  2.7480810675734917e+10  2.5544732961480701e+10  2.3895496260898701e+10  1.7631960477666283e+10  2.3127075177774738e+10  2.4554615472195675e+10  2.5053712080497299e+10  4.3498212097013817e+10  2.0453954776334454e+10  6.6574279984304565e+10  5.1793011450263649e+10  5.7955243347710518e+10  5.0929897198628815e+10  5.5263520632962578e+10  2.4974090345235504e+10  2.2251185539968895e+10  2.2484525552464211e+10  2.3365383614167080e+10  2.8323727338678360e+10  9.8026495876753632e+10  9.1445925041723221e+10  2.6206574619263329e+10  2.5041253514768318e+10  2.7247197097645294e+10  1.8304411545002399e+10  1.9418472608487862e+10  3.5491948296882530e+10  1.5979999572337570e+10  3.2292922421260612e+10  5.0138859481014526e+10  2.6389844319628510e+10  1.7383950742756584e+10  3.5512221561812798e+10  1.5305395233462393e+10  4.0032401403219078e+10  4.2381828938766762e+10  3.9719129921850784e+10  4.0568192004775917e+10  1.7101471398543833e+10  1.5716095151923422e+10  1.5322155443719879e+10  1.5337952189247107e+10  1.6020653018339386e+10  1.7296868059277794e+10  1.7704275968849335e+10  9.8055611405346222e+10  1.5854145971414474e+10  3.7724488940291084e+10  3.9574932969563858e+10  2.1786248748387257e+10  1.8561099665678261e+10  3.0525814215552261e+10  1.6251061433717451e+10  2.5418634410400768e+10  6.3175006541309387e+10  2.2965122760203148e+10  1.9471020672986118e+10  1.9083123859203079e+10  6.2952635270112015e+10  2.3106181360371094e+10  2.4745335878353394e+10  2.0899401555164764e+10  1.9693527550564930e+10  1.7136843376310019e+10  1.8376338086246849e+10  4.5717848632579086e+10  3.0240558947510628e+10  3.3473766553570374e+10  7.4224608668673172e+10  9.7387994494786728e+10  2.5886062157809841e+10  2.1355121499088383e+10  1.8758955014779465e+10  2.2623216995038654e+10  1.9342623615789402e+10  1.9948917231675907e+10  2.0544593826242493e+10  1.9425341869952831e+10  2.4117979711215675e+10  1.8977922715391102e+10  2.2139442010986298e+10  6.1274427338523636e+10  1.5829834760285669e+10  9.0875497948601410e+10  8.1865864661240921e+10  2.1927144507907528e+10  3.7101139039835434e+10  1.6846244359316956e+10  3.5946768529246666e+10  3.4724038331301392e+10  2.5126320418040401e+10  3.8848839033575035e+10  1.6912018420670134e+10  1.6331308673040758e+10  2.2171446265501087e+10  1.4983575546690630e+10  1.5735457326660772e+10  1.5244097255147993e+10  1.5973074798890820e+10  1.5403034633112173e+10  1.5291762499761854e+10  1.8013353860071789e+10  4.6448643250560257e+10  1.7093403762035589e+10  2.0368208140182270e+10  2.0334799262370914e+10  4.3700832502849937e+10  1.4991507703938564e+10  1.5327818140845900e+10  3.5943942850116219e+10  2.2674276868095592e+10  2.0473044048830952e+10  1.6781924041778015e+10  1.7040087881412994e+10  1.7408088292766609e+10  2.2407507875417919e+10  2.3448479169819126e+10  1.6965066148128740e+10  9.0794235319767563e+10  2.3408436464687382e+10  2.2425532271264179e+10  1.8605785453384998e+10  1.6354494943985804e+10  1.5331394778610582e+10  1.6981636166398842e+10  2.9481477718068363e+10  2.6839501775387234e+10  2.8821834028624012e+10  3.5592628412636337e+10  3.4473664555357941e+10  6.6056988284657539e+10  4.4431786311996696e+10  2.5807983156029934e+10  4.7951652832323822e+10  2.2840550197710304e+10  1.5343306838021444e+10  1.9102214854460838e+10  2.2527347032046276e+10  1.5003533618195400e+10  1.5608867604468458e+10  4.5689733895136551e+10  7.7973872795257187e+10  9.1453984309573639e+10  9.2924963519390411e+10  4.8584281946234749e+10  4.6837891756609543e+10  4.9130721968143089e+10  2.2847042838760372e+10  2.2053797547626492e+10  2.0496233556944870e+10  1.9154603692923981e+10  1.9534952576707642e+10  1.5992713893355591e+10  1.5219960803448807e+10  4.3326555879244919e+10  4.9518638871688629e+10  2.1418229914279583e+10  6.3629301746091400e+10  1.6470264849373459e+10  2.9803498213013172e+10  1.9229121953240818e+10  1.9820109183132305e+10  2.0420170850643612e+10  1.5336927450950827e+10  2.6697082152730053e+10  1.5831417379924681e+10  7.9730880852292847e+10  2.3616518768397160e+10  2.2310569037119408e+10  5.7565412551284645e+10  1.6067744602963869e+10  3.5082892608637260e+10  1.5195444386013130e+10  6.6254792370278107e+10  1.6416623660965916e+10  3.1952145444602005e+10  1.8965319272755093e+10  3.5630471554156151e+10  2.8682081289110588e+10  2.1553167672583652e+10  1.5753255095156418e+10  2.0466616137177185e+10  1.9705080497102146e+10  1.8439340709365307e+10  1.9564274084986862e+10  4.7784596630164429e+10  4.5397951076004761e+10  1.6227973950608778e+10  2.5262653146461342e+10  1.9564140802103825e+10  7.5022546247060455e+10  2.0485137235125645e+10  3.1299338692197407e+10  1.6537447324355312e+10  1.4974044391729959e+10  2.2393449694908047e+10  3.7427284906084244e+10  1.7574091376119129e+10  1.8668973308639442e+10  1.6234944796559643e+10  2.6346764423639919e+10  1.6846948433113192e+10  2.3644632606188568e+10  3.5052501928152435e+10  1.5842313568723639e+10  3.0252117282266106e+10  1.6798723410213301e+10  3.0581887205473484e+10  2.2666515637641930e+10  2.3027414334370399e+10  2.4098886065831169e+10  2.2191353978230469e+10  2.0054746217119251e+10  2.0723282276449375e+10  1.5289606777773594e+10  4.9484682798410744e+10  1.6662580042755831e+10  7.7767544845484131e+10  3.9443840710064224e+10  3.8644497236252777e+10  4.0551701533694969e+10  1.7471075736249863e+10  2.5633202243145985e+10  1.6806191537282005e+10  1.8904743015585144e+10  3.2888958022643566e+10  4.2264389609745743e+10  1.9844431782886124e+10  8.3848099174334305e+10  1.7707935715281715e+10  2.1432422195189812e+10  2.1482778402024368e+10  7.3371725264510025e+10  1.9901808936720203e+10  7.8576737815336227e+10  9.1565406230986206e+10  9.1698525901815247e+10  3.3145673999720627e+10  8.0711491310943542e+10  9.1940655814852829e+10  9.0722323326040863e+10  2.0602957396972408e+10  3.1407592452346336e+10  1.7506358421491940e+10  2.1582242131823151e+10  2.3800816834826244e+10  5.4529189016441605e+10  2.7845332921253315e+10  3.5055417871881462e+10  1.8372771487156960e+10  1.4977953917802042e+10  2.9150811211950665e+10  2.7964412494421391e+10  2.5530066036741123e+10  2.1011013963147594e+10  4.1862268847759781e+10  3.7631388249787643e+10  4.0015822535264412e+10  2.6693222702539410e+10  2.8392265776584312e+10  4.0396852084852379e+10  1.6307813108508282e+10  2.6246419915806244e+10  3.6369828335376694e+10  1.6020252945425680e+10  2.2043018446199894e+10  1.6626149633955109e+10  1.5742734857246374e+10  1.5723818220665230e+10  3.1129544015797626e+10  2.1208057553383518e+10  1.6570055740737238e+10  1.6360917580390308e+10  4.0031520119083748e+10  5.3772654748301819e+10  3.4064172510831600e+10  1.6380366472667772e+10  1.7644851719278172e+10  4.0266090740071404e+10  1.8343150168031830e+10  3.3429043381422016e+10  2.2369567630183685e+10  1.7912854250307289e+10  3.0935913096648254e+10  2.9533895499208843e+10  1.6293378033451988e+10  2.8197286841972641e+10  2.2090548357853596e+10  4.9368428177629478e+10  2.4560823542631176e+10  3.2827898437841942e+10  1.9539933333489113e+10  1.6638375498773596e+10  2.3120131601434689e+10  2.4071830184520050e+10  2.5826012137576710e+10  2.2560181470929840e+10  2.5998742344455772e+10  2.2747887631393543e+10  1.7038597197184532e+10  3.6213478558792564e+10  1.9646597742332542e+10  3.3863631261196247e+10  1.9598600486386692e+10  4.7256593826676628e+10  1.8100361023536880e+10  2.0732742288706562e+10  1.5316135601557856e+10  2.9760284313877003e+10  1.6744156483405865e+10  1.6976230149393255e+10  1.6090292111695805e+10  2.0984346210784218e+10  2.3748203194645752e+10  1.8464426231276630e+10  3.7355277763832413e+10  1.9501845156871513e+10  2.0674793411156879e+10  2.2996374763931847e+10  3.1940799263288960e+10  8.3976298022937363e+10  2.0903158039963524e+10  1.7043852726065645e+10  1.7333710228540424e+10  3.5056598256013794e+10  3.7092282864284950e+10  1.5923804887532888e+10  3.6383414827451141e+10  5.2031437925120872e+10  1.5903278477467932e+10  3.8061125999588135e+10  3.1929219809163040e+10  1.7364740349917671e+10  1.9279548357367020e+10  2.4451374225320286e+10  2.4183664901364948e+10  2.6227569433469921e+10  2.5530771628105503e+10  4.2779000737856888e+10  4.0353853354501976e+10  8.2811809439838165e+10  1.5028965388673550e+10  1.5323396783460352e+10  1.5901869408845045e+10  2.9573837719459202e+10  2.8131761282145607e+10  2.0939505735258003e+10  4.7990894157583694e+10  5.1098192128317307e+10  2.5181284780161953e+10  6.3153797694671028e+10  4.1056131711418182e+10  1.5243006380272425e+10  3.6535248192361427e+10  3.9018318560655174e+10  3.9175933977823700e+10  3.0764495611018604e+10  5.2855443667835968e+10  3.2770009482965080e+10  3.2915889893624416e+10  5.5245772864033333e+10  3.7322283423953865e+10  6.6579278345292656e+10  1.6406036362749830e+10  1.8755453149546520e+10  2.1515088190954288e+10  1.5848131748885038e+10  9.3374941355801620e+10  2.1386167025005802e+10  4.6856295643639679e+10  1.8436569961376099e+10  1.8340027052529686e+10  2.6250472228506836e+10  2.5124429154081429e+10  2.5950523445327530e+10  2.7502370624612930e+10  3.1335754280595215e+10  3.5132891878736778e+10  8.0100181659899902e+10  1.5278461468054546e+10  3.1179205717619949e+10  3.4618917542729103e+10  4.2210546773247375e+10  2.7541485596405621e+10  2.2384139076190418e+10  4.6050696149041275e+10  4.3830051569000946e+10  5.4197932241102982e+10  1.5662110720249119e+10  1.6092822868572218e+10  1.5831834332774652e+10  6.3379280064317039e+10  6.4728143107438148e+10  4.5695255325551140e+10  2.1309253615263580e+10  2.1898700598795368e+10  1.5277294530324463e+10  1.6097606318101347e+10  6.0089756155199303e+10  3.1421344748021961e+10  9.1391170567261658e+10  2.3705413514807095e+10  1.7847896394351280e+10  1.7579006823402962e+10  1.7952980111716175e+10  1.6884423130605762e+10  1.8856654045155872e+10  1.7943051243760483e+10  1.8276356308874058e+10  2.8585902593787273e+10  4.2263473246422958e+10  1.6299624128460135e+10  3.8667441892913918e+10  1.8159482192266209e+10  1.7680730398463295e+10  5.6320402234444016e+10  5.0972127259048828e+10  4.0797352746811447e+10  2.1585928358280205e+10  6.6409343267862183e+10  5.8056283113834129e+10  1.7635234398878616e+10  1.7158062239832087e+10  3.4761182471500954e+10  1.7650290881145195e+10  1.7355029447650951e+10  1.7183349440213779e+10  1.6570522096109720e+10  9.7957269368956650e+10  3.2056258547496944e+10  1.5268331737807552e+10  1.5809527446693838e+10  1.6572555940330242e+10  1.7055762249225069e+10  2.4442502735208370e+10  2.1748918922412971e+10  6.9379605129964127e+10  2.3294379295098373e+10  2.2814134243920845e+10  3.0175295015351292e+10  7.2883978448232483e+10  4.2991553818375587e+10  1.6501429356153183e+10  3.6316441716613953e+10  3.7768144380130821e+10  3.9934690357904510e+10  2.6229661355132198e+10  2.7099922774074932e+10  4.0013419851023270e+10  6.0016646094842598e+10  4.1442080117885239e+10  5.2556960041288261e+10  4.9268525274059242e+10  1.7026822275611614e+10  3.3946644141537231e+10  3.9148821383720734e+10  4.1807611954880798e+10  5.6813042595418526e+10  1.8286309661186607e+10  7.6564371686826584e+10  7.9817541419019058e+10  5.8240826174775513e+10  2.3469523371789345e+10  1.6009106824855490e+10  1.5963260305133257e+10  1.5287618004128147e+10  2.0962465575576832e+10  4.8883788520942253e+10  4.0058540525808022e+10  6.0838371813707367e+10  1.5306793071010677e+10  1.5595503860370325e+10  6.2201747828597458e+10  2.0125378347434448e+10  3.2421169210256351e+10  2.2820473714509644e+10  4.2547183639292374e+10  2.6145385007916752e+10  4.9246371226844604e+10  4.6118768237964684e+10  1.4929376255820648e+10  3.5427747106167717e+10  1.8847973345725857e+10  1.8015899825291378e+10  3.4831948129799782e+10  2.9411877292709999e+10  1.8438314352403702e+10  1.8795653728873692e+10  3.3780897434048065e+10  1.6928203115577127e+10  1.5652736170124193e+10  1.6102167329350933e+10  1.9273910811158546e+10  6.4721096852581772e+10  2.2257614651434639e+10  1.6448837848498951e+10  4.8956465766152191e+10  3.1329802415967640e+10  1.9103450565745640e+10  3.2934368037063698e+10  1.6137629352012890e+10  1.5206107365189903e+10  1.5685756314696560e+10  1.7369881907427052e+10  6.6538308926459618e+10  6.0063673903376724e+10  2.2376983462789085e+10  1.6475451261316292e+10  4.4593545145928192e+10  6.8615570699238098e+10  1.7345981692576763e+10  1.9133269918719280e+10  1.8881347332140125e+10  1.9476314402558178e+10  2.9318564639827049e+10  1.6667292211973928e+10  6.0102104825114578e+10  1.8345468666396248e+10  1.7633612058734745e+10  2.6298383646301830e+10  2.5123034688752602e+10  2.6866332377560535e+10  1.8304753316885410e+10  2.5577905495898811e+10  4.3004200049651329e+10  4.7100210957411827e+10  8.0261437030465668e+10  4.3383939932895752e+10  3.0678618109244473e+10  1.5297737506890284e+10  7.2152858780869949e+10  3.7528090369055511e+10  4.0357928574899162e+10  3.8848860153077103e+10  2.6848190354530369e+10  4.2788771425077797e+10  2.0504514586502182e+10  9.5813594288454376e+10  9.1996274740370483e+10  1.7315746822421642e+10  1.7714515704308899e+10  2.3795735154133472e+10  3.3133369509057995e+10  1.7239832293422951e+10  4.1283554838928307e+10  2.3005989189453011e+10  1.6396770449345173e+10  1.5217906404221210e+10  1.5965677855634512e+10  3.8229737236390579e+10  3.0898250393634197e+10  3.0916997294951244e+10  3.2793261457292927e+10  1.8806983318803478e+10  3.9234858931300140e+10  1.6362844614944439e+10  1.6791014206712622e+10  2.3479299226423542e+10  8.0771243475396774e+10  7.7514533296837906e+10  9.2255623690143570e+10  1.8543616156071579e+10  5.6823735507837814e+10  6.7425280792567436e+10  5.4346038239636665e+10  1.4980283012704535e+10  1.5322151868452206e+10  1.5734912620435163e+10  5.4485600611712936e+10  5.0922846886002472e+10  2.5038570145866653e+10  1.7937590765288792e+10  2.5661903518855694e+10  5.3056145101827866e+10  3.0630354679517849e+10  6.0540389053815376e+10  6.1048221115680000e+10  4.9118548323487984e+10  1.5014011251724979e+10  1.5310322866427992e+10  1.6976056843595516e+10  2.2013062223380291e+10  5.5779593668539993e+10  7.1489587274388199e+10  3.9978407621453644e+10  3.1229817667701534e+10  1.6445727737345230e+10  2.6950289689252831e+10  1.7484409413075714e+10  1.6706813685951956e+10  1.6637984107792097e+10  2.0950997052004372e+10  1.4975185264276169e+10  1.7676649759495346e+10  2.8291534687627029e+10  2.4090655899337070e+10  1.6453376705959541e+10  3.4176481711735340e+10  2.7382814189146450e+10  4.4441485790073212e+10  4.1450406529975189e+10  9.2002406088750793e+10  1.5879618104926928e+10  1.4940530940309908e+10  1.5290004246674322e+10  4.5377573677583145e+10  2.5613984973538895e+10  2.7153181396380062e+10  1.6230082889111034e+10  1.7788778879180733e+10  2.7595537543215874e+10  1.6077093772927149e+10  1.8500115193584309e+10  1.7740128992949226e+10  1.8495819470159218e+10  1.7688829211734386e+10  1.8600652178780579e+10  3.4883756061909317e+10  4.4139660446069664e+10  1.7347856405553226e+10  2.9058692212207298e+10  3.1897801245920238e+10  1.6149492359655090e+10  2.0847053140263153e+10  9.1223288847169281e+10  9.1694439265134918e+10  6.2420099529388390e+10  3.8367345713946510e+10  3.0916423333741352e+10  2.0222843936946327e+10  2.1481938667073341e+10  1.5810156973318195e+10  2.3675378610275482e+10  1.5318709546142305e+10  1.5298050994688488e+10  2.3730795755442871e+10  3.0463620724309700e+10  1.9474173274704559e+10  2.0304545673014980e+10  3.4442086056137550e+10  3.5679743897027939e+10  3.7655409703061157e+10  3.0523038161030926e+10  2.6088724749140476e+10  6.5798314388023438e+10  7.0319110738224731e+10  6.1468376961749802e+10  3.8735640360288528e+10  1.6522315976264908e+10  3.8615199574572693e+10  3.6407292682332321e+10  1.6344319568541945e+10  3.3668723077621876e+10  3.5978148277519577e+10  1.4944211787300789e+10  7.0541431447166000e+10  6.2138183083123611e+10  3.3871814545674950e+10  2.8135062718732841e+10  2.6205489405270290e+10  1.9511169886395927e+10  6.2186416560996544e+10  1.8049477916599594e+10  1.8049919493734432e+10  1.6304619285653402e+10  4.6647202104942337e+10  3.7185111494442940e+10  1.9301078437651024e+10  2.7174003789438221e+10  4.5778730696630562e+10  1.8758921915351849e+10  2.8006930894804615e+10  2.2965120603374237e+10  1.5956644219860428e+10  1.5214273357377037e+10  3.2929316682749596e+10  2.9956574486509312e+10  1.5312269218536667e+10  2.0073436902586250e+10  1.6414369843334801e+10  1.7232331523958885e+10  1.6667839806166159e+10  2.9092096362857620e+10  1.6607040348707996e+10  3.7225306659613655e+10  1.8155101238082516e+10  3.1705298467564529e+10  4.5176650009006615e+10  3.3829716726481461e+10  1.9488151262305256e+10  1.4985281829486588e+10  8.3282501568275726e+10  2.8577658109593887e+10  3.1247662962125015e+10  1.8046722535523827e+10  1.7948849117063740e+10  3.2362796192385529e+10  3.1081396910324360e+10  2.6891106860409622e+10  3.7393232764832222e+10  1.8110497920201912e+10  1.7480406816211075e+10  1.7439479501816799e+10  1.8002052424969501e+10  1.6545148920771681e+10  2.3405034937076630e+10  1.8585257308492233e+10  2.6765312812753647e+10  1.5058997797300585e+10  1.5255905197845163e+10  2.8138214790984333e+10  9.0809077738233582e+10  2.1570708620154793e+10  2.0517088218793274e+10  2.0375914392388161e+10  3.4850552231092644e+10  3.7554423210586906e+10  1.9076233095535137e+10  2.8185107030053226e+10  5.5749784483238869e+10  1.9115491868305901e+10  8.8919833154774597e+10  2.3826917984995075e+10  1.5901481951006796e+10  1.5234884339926994e+10  5.7859253754629410e+10  1.9761143753545883e+10  2.3293743524851540e+10  2.7477718350682247e+10  5.3915468333752380e+10  1.9313475419629189e+10  1.8490893337047482e+10  1.6385178443666451e+10  1.6367694695299934e+10  1.6883284627901886e+10  1.6013703582269405e+10  2.2359057946787586e+10  3.3558766255749168e+10  1.7910974080367672e+10  3.0881227958253494e+10  3.5164478169425331e+10  4.0567556473251801e+10  1.5017276450853792e+10  2.2731579531494946e+10  2.7063407318929092e+10  1.5904867878947664e+10  2.5665042415532486e+10  2.4539942131126186e+10  2.4583939504462662e+10  7.1182499008658524e+10  6.1441443297325745e+10  6.6874553001241264e+10  1.9219111692959381e+10  1.7225495185750378e+10  1.7149829496555538e+10  9.7316129432804016e+10  1.9176222621530411e+10  1.8361456891276520e+10  1.9544654678717777e+10  2.0665868524023846e+10  2.0024406975755100e+10  1.8342192782169586e+10  1.5039575023411015e+10  1.5318722758493343e+10  1.6046546143790537e+10  1.6379661334656548e+10  1.7034375011454752e+10  2.7403471465248295e+10  3.4375439386311211e+10  5.2023705236577408e+10  4.8688632421097649e+10  5.0079296381968933e+10  2.0080984488065914e+10  1.5868166856609501e+10  3.6399431326374252e+10  1.6687554498904430e+10  2.6288569677951153e+10  2.1886405733877785e+10  2.2564079586382790e+10  2.1675148380642300e+10  1.7067293583059742e+10  1.5976866836332315e+10  3.1756505068080902e+10  1.5059175054664108e+10  1.5302065381798668e+10  1.5742608996975771e+10  1.6841568933924116e+10  1.6087667799823242e+10  1.7295687035892490e+10  9.3141162354955948e+10  6.1081022380456985e+10  1.8570350245930832e+10  1.5701529041325203e+10  1.6152589463869415e+10  4.6165127107986839e+10  4.5046538960018684e+10  2.8631796766258183e+10  2.8152330020820286e+10  7.3562636371491089e+10  2.1924313874174477e+10  2.6218103364839066e+10  5.2345518928558044e+10  4.5819160309424850e+10  5.0124246382414360e+10  4.6818084809509796e+10  5.0329273136411240e+10  1.9423727096038116e+10  4.7071664083259697e+10  4.9745888092862747e+10  1.8410901006071930e+10  1.9607647381966984e+10  3.2557501469344006e+10  2.4157611655631786e+10  5.3707785221122292e+10  1.9450859206610241e+10  1.7621069062654800e+10  2.6476324762779007e+10  1.6886326737470209e+10  6.6738666615586479e+10  1.5181403091374159e+10  2.5631886453983730e+10  2.5250755027538647e+10  2.6900534741104607e+10  3.8443610505355499e+10  2.4253881334617256e+10  2.1725008946214394e+10  2.7043286458935917e+10  2.6942622532557384e+10  2.3737411532767204e+10  1.4962733482983088e+10  2.2614428960956909e+10  1.9339677019453968e+10  1.8694903669961590e+10  1.5271292070799114e+10  1.6059543749902464e+10  1.5637917379097254e+10  1.7779788866066284e+10  1.8568989091911343e+10  2.5814937686708794e+10  4.1329365504120934e+10  2.0276274125770405e+10  5.1330401005690987e+10  3.5971962081001923e+10  1.8220835208646870e+10  7.6593397106951141e+10  3.9968073457366394e+10  4.3122133221527603e+10  4.5152577525171516e+10  2.6411717968384640e+10  6.9916621861537949e+10  7.2246490309780273e+10  5.2765641441411522e+10  2.7268969433482067e+10  1.7757245145416054e+10  2.7403455103239288e+10  7.1710859726840988e+10  1.5885027433462229e+10  2.3006929526715553e+10  2.0078069731966267e+10  2.0564084165768837e+10  1.6207403310543802e+10  4.7868607780206619e+10  1.5666689366735100e+10  1.6614358721098545e+10  1.4924507778965132e+10  3.9952142406530701e+10  3.8086334307722794e+10  3.6838490666309555e+10  1.7265510234648659e+10  1.7124651723884567e+10  5.1609143479362358e+10  1.5648067723440706e+10  4.1181243079582184e+10  3.1326358804301956e+10  3.3907897948497513e+10  1.9461397488192791e+10  1.7275377634749237e+10  3.2744418251154419e+10  2.8007823286460251e+10  3.2729130789462845e+10  3.3364834185657864e+10  2.0695635340803467e+10  2.5968134007023270e+10  2.1430426198155907e+10  2.0307404564483139e+10  1.5297481716625700e+10  3.3262193591833237e+10  2.2734960590186932e+10  3.5121276993296654e+10  2.9258932853962502e+10  2.1793509193561558e+10  2.1108720535923294e+10  2.5218527729448765e+10  2.3578844067746109e+10  2.8798840017963978e+10  3.0973225545453365e+10  3.2720418952840698e+10  1.5664422375124020e+10  1.5017064495189676e+10  1.5266284335844414e+10  6.2068454386930138e+10  5.5784691763451996e+10  1.6635728745025106e+10  1.6329622281121212e+10  2.0934256724916279e+10  1.7565917995160339e+10  3.0384218591773724e+10  5.3902915773010910e+10  6.0695815018203659e+10  1.4973562427386116e+10  1.8318267017622395e+10  4.1963368027319618e+10  3.2273368301398762e+10  3.1609713783275051e+10  1.7753795289366573e+10  3.2668572807142422e+10  9.2256626019130478e+10  2.9999917622755264e+10  7.1984274814107285e+10  2.2091263521997669e+10  3.0244628752479881e+10  1.9269524587385063e+10  1.7505955064343395e+10  1.7102449323900246e+10  3.2362754495512096e+10  2.6271092113924229e+10  1.6768413913736170e+10  2.4496549711386097e+10  2.5616800251320717e+10  2.6490125107937145e+10  9.6655324307929565e+10  1.6804892227489481e+10  1.6609136074912184e+10  1.6653800829606897e+10  1.7104402753864117e+10  4.3350017168868752e+10  2.3525910388813568e+10  6.3534843847708267e+10  1.7842875431146675e+10  1.5573266511766047e+10  1.6736139679354994e+10  3.2157702035219883e+10  2.1233917788049408e+10  2.3210638122180843e+10  5.2040714619318787e+10  6.9087377732131042e+10  1.7667783181464081e+10  2.3249965867069401e+10  2.4774367869433220e+10  1.4933240830582731e+10  2.0317342379358891e+10  5.6560907889929474e+10  4.4306573828531624e+10  8.1925368396080322e+10  1.6764924945344185e+10  3.2445143535022869e+10  2.9543180010662525e+10  3.0887299914525051e+10  1.6758176963531944e+10  1.9254657088988098e+10  2.3543179495065731e+10  2.7796779534456020e+10  1.5283836232392277e+10  3.8864001465431755e+10  3.6451035869933456e+10  3.9808795277185005e+10  4.5226566396070679e+10  4.3893194303260429e+10  4.2035635899014984e+10  4.4487707406354546e+10  3.9874034958658157e+10  2.7561431746915146e+10  1.5254117877661221e+10  1.6804297973672861e+10  1.7234425193704926e+10  1.7504527752256763e+10  2.0968080191699032e+10  2.0756891988659782e+10  2.2664163002999317e+10  2.0356907466387287e+10  1.6997401764200678e+10  1.6674020082562790e+10  5.2339619720943565e+10  2.9962411751220547e+10  1.6818477613728882e+10  1.6734330673845482e+10  4.5418486609421005e+10  4.7726773571770012e+10  5.0466188981865143e+10  3.6908225881658157e+10  6.1127859141021149e+10  4.5234862751080040e+10  5.1144366562761734e+10  5.4546385362486404e+10  5.4634128737994148e+10  4.7991118667317062e+10  6.2533769417711349e+10  4.1961726620145874e+10  2.4080924043404194e+10  1.9104589781106876e+10  2.2632479527434872e+10  2.2695395160973244e+10  2.1383387929954033e+10  2.1440352808094490e+10  1.6883205804570427e+10  3.2242676690208363e+10  4.2315151500158203e+10  3.4241612905733295e+10  3.4707959535182526e+10  4.2272896973921089e+10  3.1388364900278400e+10  2.9527833120683079e+10  2.7553743611111862e+10  2.3363540540826283e+10  2.3206568506106239e+10  2.4693571984163654e+10  2.4915148626215160e+10  1.8450288644501431e+10  2.0764442980669487e+10  2.8166961209089256e+10  2.2392139287054859e+10  1.4991286438427061e+10  1.5867056849458906e+10  1.6591792721055349e+10  2.1313435408866123e+10  2.3845086982542683e+10  1.7626186077102989e+10  1.7449044625887268e+10  2.1395384248633060e+10  2.0084247001833714e+10  1.5311531879205168e+10  1.5761291916292179e+10  1.5755938068239798e+10  1.8232542905505806e+10  1.8845883413770035e+10  1.9363491493603363e+10  2.8615825172397293e+10  2.0229432029349293e+10  2.1011373600502911e+10  1.9218258854142002e+10  1.5799598049669003e+10  3.6620044438003532e+10  1.7394486601842167e+10  1.6782761413315275e+10  1.7058665549334156e+10  4.0884769592895653e+10  2.1594980437431534e+10  1.7144672014082693e+10  4.9088610150562347e+10  4.5537340791620758e+10  4.4391241280499710e+10  5.1782923261902878e+10  4.7629320479455528e+10  1.9757701607309711e+10  2.6954586310729614e+10  2.8562591526610184e+10  2.3747576603891975e+10  2.4163518889063782e+10  7.0102944495776886e+10  1.7992167223831852e+10  1.7260499526200607e+10  1.8023321403916142e+10  1.7559100364783352e+10  5.4104678645897652e+10  1.7935768476733913e+10  1.7281044464460629e+10  1.8713861227054668e+10  1.8093509913967712e+10  1.7523178280919231e+10  3.8338823201444115e+10  1.7834042295365250e+10  4.8505632667456879e+10  4.2732510588718880e+10  4.1238432772813576e+10  3.8554737687172348e+10  1.6605048945899755e+10  1.6338454901878988e+10  1.5932230685612852e+10  1.7585092591158161e+10  1.5839192645219500e+10  9.1414762105184280e+10  2.4243807998081085e+10  1.8460477351603256e+10  1.9863058744378323e+10  2.0534882562615726e+10  4.6204741165955391e+10  3.3563187469053955e+10  2.2543272937858845e+10  3.6412489526773529e+10  4.2346698854313934e+10  2.4019074990746479e+10  9.3610685570739426e+10  7.9805883907387894e+10  1.5690604934047823e+10  6.6958603891366371e+10  2.5958487583910248e+10  2.8083936536049805e+10  1.8130114137366913e+10  3.1760154273898998e+10  2.8735976179037079e+10  2.7543312819779095e+10  2.5813815394456684e+10  2.5809907064238392e+10  2.7829566629725502e+10  1.6795522100717159e+10  1.5876097950752472e+10  1.7760772292047127e+10  3.1139219214484020e+10  1.9954452252259167e+10  2.1600960578308834e+10  2.2554989972684032e+10  2.2638235400561718e+10  9.3587077766825653e+10  1.8039517506490753e+10  2.7207346723883053e+10  2.0629108154413815e+10  2.4538188316137486e+10  2.4035630711933723e+10  2.3369944372593491e+10  1.6981948803086016e+10  2.0319377846335529e+10  2.3833970180739105e+10  2.2943996768465923e+10  6.2989689612523735e+10  1.5017709768526306e+10  3.1634980645381920e+10  2.9264866897904598e+10  4.5952053908079903e+10  4.3105004052306519e+10  1.8603752817801872e+10  1.9022129896480045e+10  2.1875740270909958e+10  2.2187232708676998e+10  2.1420436533181934e+10  1.8454791553202003e+10  1.8154699480611240e+10  2.3410680082443897e+10  2.9175981345061981e+10  1.7916647794021854e+10  2.4144876361046040e+10  2.7489882488380150e+10  2.8010704085405025e+10  3.4096326628885197e+10  3.5078755261138908e+10  3.2875443629142075e+10  3.1144364313881859e+10  2.9512408844168003e+10  3.4737405817537010e+10  1.9262874600171993e+10  1.7291579342031403e+10  6.5883735124763176e+10  1.6476220297723150e+10  1.7352086430995430e+10  1.7016712578400038e+10  1.6445153157484339e+10  1.7619799673892525e+10  1.5488188827082449e+10  2.1823842656668766e+10  4.3750575603728096e+10  2.3949333581456413e+10  2.3398344868462540e+10  2.2922915208072525e+10  2.3167706919256016e+10  7.6318227080560059e+10  2.9102731273365028e+10  2.9205391429080154e+10  3.0355881279497208e+10  1.7771567037140862e+10  2.2443062365328369e+10  1.7873133886187145e+10  5.0749230704141296e+10  5.3737772588934425e+10  3.0330284055563740e+10  1.7269986108903999e+10  1.6693955941509449e+10  1.6988021362729479e+10  1.6202628272792915e+10  2.2119695429048607e+10  5.2437448164864426e+10  1.7239700544200348e+10  2.0835110090358700e+10  2.0124883198505367e+10  1.6613969126981022e+10  1.6237734874508125e+10  2.5795966191017944e+10  1.6795804287024508e+10  8.2562676774056885e+10  2.6016992021628719e+10  4.7250343587575356e+10  4.8081114749640518e+10  5.0621227910106277e+10  2.7868523783885357e+10  1.6870546156025229e+10  1.7290713212396076e+10  1.7689427992550880e+10  3.2064185991720753e+10  2.1316151070606567e+10  2.3589206962687786e+10  1.9768395854812725e+10  3.1349954367150227e+10  1.8219935913266628e+10  1.9258415420434822e+10  2.3596409740691479e+10  2.3757300427174549e+10  2.2436507501954807e+10  2.6135243208220474e+10  1.8675939053309765e+10  2.3968322474337673e+10  1.9012233191960743e+10  8.1821611518002747e+10  1.7476342787096962e+10  2.0268250411253246e+10  4.0300329098482674e+10  4.4721533040034248e+10  2.0000567635879200e+10  2.1673556368726452e+10  2.0465984594097893e+10  1.8791772301682507e+10  4.8960133941379028e+10  2.9223875753834381e+10  2.9076768552756916e+10  1.5858030728815277e+10  1.5290371428649601e+10  3.5211719281408859e+10  2.2277610673294083e+10  2.2901797952347569e+10  8.7355596898038498e+10  6.9626622756701630e+10  1.7478030892302586e+10  2.4141684661342354e+10  6.8295682911973465e+10  1.9179887138018814e+10  6.3796603225369057e+10  5.7497289560868858e+10  2.1173618759589008e+10  2.1022158051132431e+10  1.5929405626600452e+10  1.4991968281965302e+10  1.5281092770861744e+10  1.5659456992534561e+10  2.0188305045779278e+10  3.2873942101153191e+10  1.6637459680258787e+10  1.6784649244179193e+10  1.5031106535699846e+10  1.5285526577499374e+10  1.5763870619048775e+10  1.6081404661121117e+10  2.5467552991548874e+10  2.3849622220950352e+10  2.4973822813257713e+10  1.8552079644341274e+10  2.0329841580402447e+10  1.8836555135069271e+10  1.8391848898298645e+10  3.1579530826817211e+10  4.7472101037970818e+10  4.9765039300773491e+10  5.3647027811883865e+10  1.9393441567713642e+10  1.9391578043661045e+10  3.6156301215010170e+10  3.3771899724898857e+10  3.3685560197418308e+10  2.3014166200276508e+10  1.8682284426307880e+10  2.2243633827095478e+10  1.5839845811813484e+10  1.5275101498561428e+10  1.5304951237094435e+10  1.5258280304684122e+10  1.6002223310103868e+10  3.7799900843881485e+10  4.3648824440186821e+10  2.5760382612882648e+10  5.8576774994851265e+10  8.3578761360133087e+10  2.5091694907957836e+10  2.6100384932064507e+10  3.3287701376130814e+10  1.9595103044135445e+10  3.8369208610380707e+10  2.3469101586931011e+10  2.7593786368953014e+10  2.8988362223265121e+10  2.6679497429516464e+10  3.4727282164601860e+10  2.9119104923706089e+10  1.5429010486737066e+10  2.9346606747296356e+10  3.0337497495917465e+10  3.1927301209866177e+10  2.4214524366305500e+10  2.4612837679299389e+10  1.9053431611036678e+10  3.2664481068798851e+10  1.5705791103098808e+10  1.6066242059582838e+10  1.6688712902114603e+10  2.7560405644182503e+10  2.5167904540698799e+10  5.6035035570087074e+10  2.6735007224571796e+10  1.9244839188283791e+10  7.5911395648836731e+10  5.2542101726320625e+10  1.5859128753175171e+10  2.4616668086990051e+10  6.6848448176573082e+10  5.5470752416075706e+10  2.5509817602855244e+10  1.9353415784965420e+10  2.1974597081239334e+10  2.7738394820173592e+10  8.5359240957633270e+10  9.4034631079612503e+10  2.4633654237504433e+10  7.6874589368681046e+10  7.0413211210192612e+10  3.7781628637625450e+10  7.3423255764540253e+10  3.0609937147032719e+10  1.9848818247450928e+10  4.7916566196347336e+10  2.0405406031760605e+10  2.7789299536823959e+10  3.0560102863565220e+10  2.0973171748898251e+10  2.4941319413268089e+10  5.4198955699690933e+10  1.9395174016355469e+10  7.3135069763911102e+10  1.5033474904762911e+10  3.1890435757511154e+10  3.3104017322456921e+10  2.9051622313418129e+10  7.1515035278293594e+10  1.6588746889316341e+10  3.4623539850698097e+10  5.4946794533431984e+10  4.9261889694247894e+10  4.2554214157408058e+10  1.5515365542911781e+10  1.8315229412907185e+10  5.9559958771388756e+10  3.3063231706284641e+10  5.6550051128395714e+10  3.3364900755409412e+10  3.1142248599401878e+10  3.1185560209616615e+10  8.2884098431425049e+10  8.0785815180078491e+10  3.0683712004124733e+10  9.8108377672501999e+10  5.1264968168119316e+10  1.5822440479352186e+10  2.7848904159432690e+10  4.0670996228719284e+10  1.8451892216215645e+10  1.7788375347697029e+10  2.4416832283245918e+10  2.9970301940728092e+10  3.2361987562672909e+10  1.8068590143123371e+10  4.5710602108056320e+10  4.8115874173471870e+10  5.0243210280825058e+10  1.9843652684709877e+10  4.1710688141942726e+10  1.5287236779446293e+10  1.5810903365733370e+10  4.4342183996181358e+10  2.8083798499795288e+10  1.7277205651471100e+10  2.5207913891704597e+10  1.7910328769807636e+10  1.7117278952728451e+10  2.1656573878387264e+10  1.9352115748885189e+10  1.8756165148989620e+10  5.6521380654065414e+10  1.6095509422328791e+10  4.2425922550075455e+10  2.1359790745996147e+10  1.6500336065401318e+10  1.8197723818998108e+10  4.1111579930933777e+10  3.9188879757654900e+10  1.5272430813896641e+10  1.7097359915712866e+10  1.5625449635559273e+10  9.2653900739853851e+10  3.6898844905757820e+10  1.7588489211406704e+10  2.0050669283304611e+10  3.3452703476851654e+10  4.0638205045619400e+10  2.3862942540003143e+10  5.3497313951615997e+10  4.8398654676646225e+10  4.7098115366256660e+10  2.0130932683752056e+10  8.3740299420094559e+10  1.5285562495782055e+10  1.5680001512055420e+10  1.5036479854488268e+10  7.1931944169249893e+10  1.8006580652284904e+10  7.8151569508713470e+10  8.0174067215362015e+10  2.5896203934257019e+10  1.7364914832177792e+10  1.6890857170418045e+10  2.7926134044215923e+10  5.7985006234951164e+10  7.5699327265669601e+10  2.1176407162735970e+10  2.6828035873677208e+10  4.2470581204465790e+10  4.5350095266142891e+10  2.9719535331508636e+10  1.8669432076555912e+10  1.7420544267545456e+10  1.9173459622791500e+10  1.8949230727447502e+10  6.6139048885511391e+10  4.6521980461525932e+10  2.2224348859321594e+10  1.6069088652440840e+10  1.6726030860095316e+10  2.5758531890261101e+10  1.5790632421707855e+10  1.5899761417334324e+10  5.7020289408339737e+10  2.0111801693941662e+10  3.0400178634334389e+10  1.9807754386364532e+10  7.5129551241717834e+10  1.9683921409887383e+10  1.9293650003368587e+10  2.0151441506128521e+10  2.0152821071279583e+10  6.9319196831566162e+10  3.2012807829405693e+10  1.7881016852775059e+10  1.6330638394107271e+10  2.7602073712337238e+10  2.8646349859008156e+10  2.5524814338608532e+10  1.6858077249986254e+10  1.7454471453847610e+10  1.6482138021453892e+10  2.1994503821587708e+10  3.8902748188793190e+10  2.8383684279143860e+10  9.9356659848261063e+10  9.2787604233065308e+10  1.5269010489467567e+10  1.5942540311861980e+10  1.6245100097379677e+10  1.6570067936449421e+10  1.5806305838536154e+10  1.8072160117992489e+10  1.8816965433468204e+10  1.5237951556975571e+10  6.5566999502392395e+10  4.0740426368231461e+10  4.9873770618132172e+10  5.2809569698064461e+10  5.0290112135818893e+10  9.2547081853377136e+10  9.1435338835844284e+10  1.5010668375093718e+10  3.5196601372888428e+10  2.1036998146137444e+10  2.1400361198315971e+10  2.5770959017506687e+10  8.2062761979181549e+10  1.8373656650051731e+10  2.9944203517702061e+10  1.5921025852419966e+10  1.5675706466619513e+10  1.5236517453938726e+10  2.6243042551449078e+10  2.8440718927560715e+10  2.7922505682649891e+10  2.5990929786744205e+10  1.9106778620871330e+10  1.8934443503986172e+10  2.0576132849504330e+10  7.2741654311195923e+10  2.7923487352149178e+10  5.1768583520274475e+10  5.5207586911450455e+10  1.5264567839723015e+10  1.7526388484226200e+10  1.6815540542669975e+10  1.5235637943066788e+10  2.6615653975905617e+10  2.1910819314705048e+10  1.7647242820697983e+10  4.2897496174619934e+10  1.5284918305163765e+10  1.9482581124777206e+10  2.1780717112727352e+10  2.5514585100665707e+10  8.2412224909662308e+10  7.9604690990258377e+10  7.1616672849125488e+10  1.7913551002109562e+10  2.5269195117386093e+10  2.5740258277048412e+10  2.4882633978383827e+10  2.4743909838179470e+10  2.3404103001636990e+10  2.6800236743142075e+10  2.8361811914039272e+10  2.8423665032538170e+10  5.3919640867008232e+10  1.5237246734402279e+10  1.5735021722029394e+10  2.3659783563838531e+10  1.5714954580678719e+10  8.5746875414925323e+10  3.7156005632025330e+10  2.0583252524451508e+10  2.0467701813143024e+10  2.1466118250216911e+10  6.8603692707400978e+10  2.5409496517109791e+10  2.4200494589697823e+10  2.3814639929431736e+10  2.8329732766638691e+10  2.0547607489990566e+10  1.5696389297056025e+10  1.5271691565637785e+10  4.7913061832515610e+10  1.6974399102449766e+10  1.7067285222038342e+10  4.2354010512294701e+10  2.1027691594332207e+10  5.4274349696743103e+10  5.1541975407216927e+10  2.1643024393963516e+10  3.8082360947955002e+10  2.2723369763920757e+10  1.6572066293022669e+10  1.6245576601571508e+10  1.5294657011870909e+10  1.4964296794506443e+10  3.8470591470351730e+10  2.1045500527441223e+10  2.8370322079798820e+10  4.3768457632608231e+10  2.1300741144834457e+10  1.7272134363348412e+10  3.8498444180473953e+10  2.5503406422065315e+10  1.8589293713953281e+10  9.6561775753667267e+10  1.6960465411390329e+10  2.4088592842264786e+10  4.3734151219303444e+10  1.6787564631100817e+10  1.5025062381918919e+10  3.6888306972101265e+10  4.2136928781832024e+10  1.5301562740309395e+10  6.8860882390508774e+10  8.5332272409132339e+10  2.9290094901192097e+10  1.6976232896330612e+10  1.7462605335680191e+10  1.5001935312394020e+10  1.7450241625060272e+10  2.2429057915336075e+10  3.6070551508856476e+10  2.2011709691779488e+10  1.5932650201962463e+10  2.6958330441263470e+10  2.5155665436888409e+10  2.4307140895453163e+10  1.6926768060800077e+10  1.6354157707618973e+10  1.4923099312242762e+10  2.0553298983007023e+10  3.2177282034401413e+10  1.5277753490067184e+10  1.7762355219132771e+10  3.1640823514497837e+10  2.2155030711802608e+10  4.1159257434630081e+10  3.1751339802427685e+10  2.2825052662506485e+10  3.4499750173955658e+10  1.5895812728279673e+10  6.3578397800545250e+10  1.8001432776370590e+10  2.3950500275616146e+10  1.5250566049259192e+10  3.2232478639459736e+10  1.5934598171009676e+10  1.6813436491031483e+10  1.4991456197041006e+10  1.6996880459440218e+10  3.6833313430755455e+10  6.4568539358253448e+10  2.2399522077802017e+10  1.9093129549763794e+10  1.5714604622612984e+10  2.8191220669536564e+10  1.7164068486415524e+10  1.5604870810395269e+10  2.5289375196387249e+10  2.4521802833128826e+10  1.5593096036740587e+10  1.8010482336638130e+10  2.4987216438880013e+10  2.5495534208204231e+10  2.0246277615433533e+10  3.4966009139966080e+10  2.7183526033997238e+10  2.5552481429318993e+10  4.4364252312037498e+10  4.0761278284217003e+10  2.6232372457396599e+10  2.0352110492489422e+10  1.6246357444959034e+10  1.6848226651941559e+10  3.4068385136451267e+10  1.6658285928586241e+10  1.7077315789397387e+10  1.5750760687138823e+10  1.8072611635345974e+10  1.6170844778980381e+10  1.8000891974456306e+10  1.9611981246189407e+10  2.0156175361427624e+10  2.5708258840997829e+10  2.4268406221900879e+10  5.8418965035771576e+10  1.5264265604070200e+10  2.4751996901112663e+10  9.3887307308769745e+10  8.2243654440212173e+10  2.2474158258260624e+10  1.5858222192097742e+10  1.8279536735103413e+10  3.3914958061128448e+10  1.5752181080703146e+10  1.5266746963189665e+10  2.1788951601263645e+10  1.8444271586166119e+10  2.5954824793064438e+10  4.1508304501849907e+10  1.5827699418076441e+10  2.0786145919569672e+10  2.2909060956244938e+10  3.8550072548498566e+10  2.2904980524241203e+10  7.2357281637283081e+10  1.7166209027448889e+10  3.1100304693018749e+10  2.8161277228919807e+10  2.0709910093231903e+10  1.9395758659458660e+10  1.8926342946029778e+10  1.8394539531148067e+10  2.9505420990660450e+10  1.7735655413975636e+10  1.7346092007953011e+10  2.4439265828823494e+10  2.5471883252456417e+10  4.1078850333729317e+10  2.0325775460027264e+10  2.1300108607595772e+10  6.1109609458297546e+10  1.8754660363405098e+10  4.5802982896610710e+10  3.7510684607679283e+10  1.9411028108715412e+10  4.2896850478035461e+10  2.2453692114116741e+10  2.3482160751357086e+10  1.6665306643072285e+10  8.2742438194599152e+10  8.3016313989282013e+10  2.0785233010654987e+10  2.3183457340938393e+10  1.7391398038469952e+10  1.6828541328868813e+10  1.6624117391744059e+10  1.7534228711228085e+10  1.7256310470024479e+10  2.0896139772869492e+10  6.4315401424886757e+10  1.8868157887040386e+10  3.9878469258905121e+10  7.0685473636796707e+10  2.2806728729708111e+10  2.4035229446036598e+10  2.5540858430034393e+10  2.5625371663209648e+10  1.9450186617554695e+10  4.8073661106771034e+10  2.6328238068407333e+10  4.6704960864223793e+10  1.8725526683662888e+10  8.3208691893565674e+10  7.6638394344474594e+10  9.2233365351350128e+10  1.7453191892850868e+10  2.7026224150236622e+10  1.5016245716274441e+10  4.6481694871027863e+10  4.4184467100275909e+10  1.9967845024567875e+10  1.8166450253827404e+10  1.7807858404752426e+10  1.7504642279489265e+10  2.8342185034036983e+10  2.1725706630478474e+10  2.2867617292894882e+10  1.7988895830354900e+10  1.6002343852155676e+10  1.5751300961732187e+10  2.1401394057074745e+10  5.3000596072545883e+10  5.6195513132189125e+10  3.3993608897839909e+10  3.3463562333373283e+10  9.8056014038214340e+10  1.8700867231148293e+10  6.1815832779784401e+10  1.8317349734824142e+10  1.9537942921801868e+10  1.8001610368974293e+10  6.1194203857756195e+10  2.2540628424237782e+10  1.5684545053334322e+10  2.0560833114405163e+10  5.2505542111569489e+10  5.7867434980927910e+10  1.6664450707904186e+10  9.0638516195199448e+10  1.6805242557550306e+10  2.2002168775187675e+10  2.0711421351340240e+10  2.1230257987065945e+10  1.5227090727887280e+10  1.8021140145749401e+10  3.2718793564448807e+10  2.0088351191256950e+10  1.9282342187846729e+10  2.2260942421734177e+10  1.9192832425408253e+10  3.5039252205742577e+10  1.6948348809559284e+10  1.6759399507282471e+10  3.5783970560278603e+10  1.9119731046722931e+10  1.5200122052551971e+10  1.5294476945726702e+10  3.7318090657720726e+10  3.2986578673045773e+10  9.2619724928668747e+10  7.7093354328450119e+10  2.2895520707541702e+10  3.9024680287962769e+10  3.5361822028676689e+10  1.5676477752846346e+10  1.5269742574734402e+10  1.5253018925586624e+10  1.9436928663528561e+10  3.5381609879039368e+10  1.7645477838085560e+10  1.7127404067631889e+10  2.1586957616680157e+10  2.4469834772059647e+10  2.3933436302379120e+10  1.7907308650057953e+10  2.0443090319091770e+10  2.2885518615053940e+10  3.3493061987279869e+10  1.4961758051268099e+10  1.5697125911421356e+10  1.5284276541096298e+10  5.9446949273525833e+10  1.7395882160899357e+10  1.8032519139428829e+10  3.6475220756251526e+10  1.9854132669747528e+10  1.6742121608701490e+10  1.5651160790199953e+10  1.5740027717721558e+10  2.6555893832695789e+10  1.5660077580060066e+10  3.9123605875605095e+10  1.9786333136008717e+10  1.7573530693136524e+10  2.6804926381111725e+10  3.6803303139964935e+10  1.5720732064549345e+10  5.4626970728383705e+10  1.6293441972662148e+10  4.2037550995559135e+10  1.5646466396406567e+10  1.5012798949637009e+10  2.0536272839603882e+10  2.8446392219975632e+10  2.6236785118768768e+10  5.2103754891689468e+10  5.1393431478455742e+10  4.9188607484648521e+10  4.2680501142345970e+10  4.4433977464274681e+10  1.8360551178114418e+10  6.5452584202998627e+10  1.7540198347929615e+10  1.7762075318419731e+10  3.6952296533825806e+10  3.3473342652591122e+10  3.4642650542363197e+10  3.7442081956604820e+10  1.9003602335098717e+10  2.0843989589134659e+10  1.6920592398775778e+10  1.5428797886747581e+10  1.9169755925922161e+10  1.5051430842474249e+10  2.2505843676526299e+10  9.1237672768673126e+10  1.7061784058140846e+10  1.6993271073406105e+10  5.4836638653303268e+10  6.1083441049098694e+10  2.0437711848407963e+10  1.5486599384068802e+10  1.8033825006353157e+10  1.5553417012194843e+10  1.8578581392773365e+10  3.1810337871200996e+10  5.9847078586740517e+10  2.9839435966231880e+10  2.4596565487275307e+10  1.8273471568324379e+10  8.3064657460352692e+10  3.1219886045501980e+10  8.2634411718460983e+10  2.4040476860625038e+10  1.6594414513261452e+10  6.8242774499580849e+10  1.5279957289256081e+10  1.5292677746556911e+10  6.2352564958314308e+10  2.0401626882816219e+10  1.6730724646389551e+10  2.0503275808343906e+10  7.6193687125293442e+10  5.3876524707398285e+10  3.4332607656934643e+10  3.6523079159248322e+10  2.0376852328712456e+10  1.6993272928780127e+10  1.8256653360477638e+10  2.1682035854673611e+10  1.6291444763613060e+10  1.4960053603920946e+10  1.7131067732921812e+10  2.1773840588371674e+10  9.6725418119661285e+10  4.5124113708582863e+10  3.5710960069100571e+10  3.3530067226807076e+10  1.5849202994395895e+10  2.3176925682545341e+10  2.3135825530375858e+10  1.8207416639737869e+10  1.8857707498317116e+10  1.6642113471892340e+10  1.7441328366164379e+10  2.0274844803385551e+10  2.6244540369817043e+10  2.3702650650844448e+10  1.8864693584242580e+10  1.7759168173870087e+10  2.8226080754182617e+10  3.0554118080568241e+10  1.7275419841203812e+10  1.7852577488691925e+10  2.6038373410910030e+10  2.8916369970262833e+10  6.5478489284131691e+10  4.9345232152846008e+10  3.8625629086576469e+10  4.1985464228227806e+10  1.8069823690430397e+10  3.7940988468241379e+10  2.8924303917276672e+10  6.3975633093415070e+10  2.0722632113873947e+10  7.4955645302707642e+10  3.4455803645273087e+10  1.9177393042495815e+10  8.7619299846166489e+10  1.9256481349147625e+10  9.3663004573341537e+10  1.8557755668808216e+10  1.7500708781844368e+10  1.5031875654679506e+10  2.4406200443656494e+10  1.8327608106797352e+10  2.4965197158967976e+10  2.8604496183691895e+10  1.6555850007769913e+10  2.2015736863189644e+10  2.3910355789609665e+10  2.3495953068659218e+10  2.4501001730794132e+10  8.0268867075722198e+10  1.7091490391010656e+10  5.4533194360739243e+10  1.9471659778245049e+10  2.6506472192792938e+10  3.0832888297632095e+10  1.6142757044839006e+10  1.6075317800049313e+10  2.0902180801367294e+10  1.9553445210267906e+10  2.4337488051363853e+10  2.7383535509377300e+10  3.9177520783675529e+10  2.8213445787709656e+10  2.8159317654414013e+10  9.8446859864233826e+10  1.5208927449578537e+10  8.0192918911675980e+10  6.9760796472837692e+10  1.4956845372134392e+10  1.5247680853830818e+10  1.5202449657916241e+10  1.5638608561074718e+10  1.5816269598045391e+10  1.6116686606280161e+10  6.5693491787775764e+10  2.0137568814023956e+10  5.0167256411598953e+10  1.9186696938821472e+10  1.8387796508953568e+10  1.9542598389755463e+10  2.4171504768127529e+10  2.3317661313740555e+10  2.1669071519588787e+10  7.1775604202566177e+10  6.1643190457907730e+10  6.5330462938059036e+10  6.9658543731112030e+10  3.5951667039169037e+10  2.2928347616822891e+10  1.8151422926907284e+10  1.7517979880457428e+10  3.1800706324255569e+10  2.5109151619049004e+10  9.7479636516600067e+10  2.2353650919249474e+10  1.5985498881936546e+10  3.0000592420209106e+10  4.4635438599114082e+10  5.5616270566862587e+10  3.7596988646987991e+10  4.4648634688424889e+10  2.2935764081973423e+10  8.3521608145319611e+10  9.2177279559802765e+10  1.6260836517833994e+10  2.7393591132708553e+10  2.8962320676684578e+10  1.4968875307656528e+10  5.8639796778930176e+10  2.0990823471467834e+10  2.0281631833935131e+10  1.9873972935053234e+10  6.9358538363034866e+10  1.5192077320113081e+10  2.1529884322798355e+10  1.5296110426644157e+10  1.5862397766177174e+10  2.2769685523373238e+10  2.7211142102292339e+10  2.7617196619576195e+10  2.5899253794613899e+10  1.8648854158530704e+10  1.5211392884291180e+10  1.9070854780633801e+10  7.7412750551748352e+10  4.6551593317633301e+10  3.1060246835580929e+10  4.1751672955049118e+10  1.5258749326253160e+10  1.5587919489064095e+10  6.3965505171644722e+10  3.9380690169090927e+10  2.5503181974572517e+10  3.3776915106388355e+10  1.9497171891459396e+10  9.7816513260284348e+10  5.9345804438104149e+10  3.6786983951812477e+10  2.6335538805317848e+10  2.1618368590348843e+10  5.2572327522521042e+10  1.5789418225144230e+10  8.2389575077946152e+10  9.2578108209358002e+10  8.3265480956501587e+10  2.5478760348242229e+10  7.2173754248537964e+10  2.2473398104207550e+10  2.8540630558254139e+10  9.2189318671327896e+10  2.0443318880070286e+10  1.6234170309349455e+10  6.4666417840630051e+10  6.0552939119410919e+10  3.1444437873718391e+10  3.2995764417698971e+10  1.9421382925730606e+10  1.4905447881437857e+10  3.4600452734117638e+10  4.9130225459976685e+10  1.5658094739482161e+10  1.5228296983786562e+10  1.4958531555375597e+10  8.3542412542511444e+10  9.2160714440078445e+10  9.6925359436170959e+10  1.5300198664920942e+10  3.5168137395735733e+10  7.1280418296690109e+10  6.9123678813805618e+10  6.1924469565873848e+10  4.6691439986542473e+10  3.1839521551566433e+10  2.5349322135502682e+10  2.3814269928917065e+10  2.5233107871488361e+10  4.8467873195035118e+10  3.0933421241615345e+10  1.5200708046761282e+10  2.6904910176622982e+10  9.2719869305205307e+10  9.6467860533908875e+10  1.5534812890783798e+10  1.9444247476815022e+10  1.8683106145755695e+10  1.5581006329187933e+10  1.6211767143331652e+10  1.9019953872751732e+10  1.6452979461015306e+10  9.7343738481120056e+10  2.8450393385402149e+10  8.1892031583913132e+10  8.0860264774723358e+10  5.2747095304509201e+10  1.6319269493828039e+10  2.0516267697116505e+10  1.9657121303945576e+10  2.0197546649090794e+10  6.4985018522852661e+10  1.7253647537824051e+10  4.7354614109711052e+10  2.9004831205168869e+10  1.7551066699839462e+10  1.7997707637541817e+10  3.3798080787611485e+10  4.2099224687343491e+10  1.7926180572483597e+10  1.7731726141965042e+10  1.7393737756712948e+10  3.7204300940428925e+10  7.3826558666407654e+10  9.6674203990961914e+10  7.0562883142416046e+10  1.5224922897028187e+10  5.7781793699530235e+10  2.0053006713669758e+10  1.9239313239938644e+10  3.2453248218281269e+10  1.8591365379531231e+10  1.9172582547355446e+10  1.9311783797411694e+10  1.6477344059887789e+10  4.6768063798334740e+10  1.6472033344866909e+10  5.0909616386623009e+10  1.5021672073289984e+10  2.1313080546151089e+10  2.1850583508312729e+10  2.2668036692708302e+10  3.9731420985823265e+10  2.3226680720337940e+10  4.6052510352938377e+10  1.5534237048916208e+10  3.3012782376752201e+10  1.6139358159056139e+10  1.6359606275051891e+10  3.5962566436538406e+10  2.8282991584231888e+10  5.0885783442658096e+10  2.0831876678904034e+10  2.0636636860838398e+10  3.9141579387578896e+10  7.5718245777220993e+10  1.5698990243305443e+10  1.5655353651926886e+10  2.0592852074772850e+10  2.1542548990285282e+10  9.0009976297229462e+10  9.7755604097696487e+10  2.1033514616712730e+10  2.0717013247888031e+10  1.9390373177266827e+10  1.9761155437580521e+10  2.0197986040649441e+10  2.3692935574198093e+10  2.2095401697517941e+10  1.5014929435947865e+10  2.6671140055183308e+10  2.5685635887666901e+10  2.9874243343599487e+10  2.9627028287576656e+10  2.5402172326433651e+10  1.5270196785234324e+10  1.5001791227992496e+10  1.8596593809716946e+10  4.1198278975649864e+10  3.1220878437801834e+10  2.3014417499735168e+10  4.8224237431578079e+10  1.5073650923091440e+10  1.5064181381494896e+10  3.8649362765839668e+10  2.7924422123389465e+10  1.6923954791217279e+10  1.9980295603380238e+10  2.3850852243744019e+10  7.2939167304943069e+10  5.0641639951110764e+10  1.5757783103196398e+10  1.7991359659899147e+10  2.3438742621245529e+10  1.8778828069859768e+10  2.3478832716517387e+10  2.2583694835002541e+10  2.2647329985255714e+10  7.2283071299218307e+10  7.3628312055087326e+10  4.5041404175765282e+10  3.4449615206526733e+10  9.7847478142314789e+10  2.5011155073045769e+10  1.9760340093214249e+10  2.0979262062978039e+10  9.7843804592406479e+10  1.4981206416907269e+10  1.5954981535008570e+10  3.4693108759812050e+10  5.7397995777364601e+10  2.0444189702631500e+10  3.2513888466472183e+10  1.7427031402923042e+10  2.9749801594429581e+10  2.1433086459806477e+10  2.2722602110877880e+10  2.2515462712891781e+10  2.1492517904289513e+10  2.1000223401005871e+10  2.2198284976028557e+10  2.2597891441560081e+10  1.6775821150008915e+10  1.8664569566785706e+10  2.0066458272257183e+10  1.9346297071459843e+10  9.6660473899411026e+10  8.3059499096453644e+10  9.4181427831590088e+10  1.9948631972034981e+10  2.0498673532754929e+10  1.6450001435983839e+10  4.0231654660243423e+10  2.4382779900205101e+10  1.5633865622465631e+10  7.5076970368757950e+10  3.7185797885266205e+10  4.9541163390735130e+10  2.4791808878269299e+10  1.8044998782910351e+10  1.8373937550823162e+10  4.2050105747426735e+10  1.5256340974977852e+10  1.4926279804745228e+10  3.3610561044442005e+10  1.5982464672020555e+10  1.9843755536609470e+10  1.5003201005300377e+10  1.9075166786863247e+10  5.8942363478531410e+10  2.1953019108699448e+10  1.5267526182727562e+10  1.4890669578786335e+10  1.5726634621109520e+10  1.6113733900891672e+10  2.0314880461486366e+10  1.6631769260571247e+10  1.6301234997316755e+10  2.7512911623062614e+10  4.7177622293267288e+10  3.5309708913096954e+10  3.8618843801476791e+10  3.0559853502498501e+10  3.2038188739231480e+10  1.7723782450595707e+10  3.0451451538869499e+10  1.7506009500468815e+10  1.7988508737479435e+10  1.5556380540423698e+10  1.7442564713290569e+10  1.7117712122739738e+10  4.1817939563299980e+10  1.6044620590073265e+10  1.5698995126361567e+10  5.6210062141321327e+10  1.5233686665119682e+10  1.8082609514822353e+10  3.9896432548663170e+10  1.6739597072840126e+10  7.2043318234338409e+10  1.9647325881920654e+10  6.7943814314213486e+10  7.1208638315651657e+10  4.1090482303236206e+10  1.5577316097350464e+10  2.4462532313817970e+10  3.3377905185793636e+10  5.7253912611723534e+10  2.0261973802668861e+10  2.9798935260153248e+10  3.0985583905045490e+10  1.7000094352571686e+10  1.6482330158912827e+10  1.6330728980975023e+10  1.5243139140786135e+10  1.7422965705002247e+10  1.7639396628773083e+10  1.6487177133438421e+10  2.3428126340183247e+10  2.4302797858849754e+10  3.1687289604657772e+10  2.6008292992181721e+10  2.1056258714770435e+10  1.7997166691104733e+10  1.5969735430251759e+10  3.7902827840480988e+10  9.1025334060938187e+10  3.0124431840308529e+10  8.3894093667543472e+10  9.2271628174477615e+10  1.9681890969618687e+10  3.4137076354423012e+10  3.1053662015727280e+10  3.0032042830907795e+10  4.0730853777547340e+10  4.0067101357916161e+10  2.8360936862798958e+10  6.2004743508203110e+10  2.8189399503525894e+10  6.9819729716265091e+10  1.7083928707561016e+10  4.6455168123215126e+10  1.8033677077303238e+10  4.4277754592052094e+10  2.4251786686509041e+10  1.7593139723707897e+10  3.9232055266810738e+10  2.8719239358446106e+10  1.6701116235281954e+10  2.1468066058927696e+10  1.6491778884748011e+10  4.1778853223698029e+10  2.0694537452670643e+10  2.0490679045606415e+10  1.5291074263017305e+10  2.0723412204041916e+10  2.9194390279507992e+10  6.4575456419533424e+10  1.8447494751074486e+10  1.7405607318826172e+10  1.8659279680077366e+10  1.9617180828455254e+10  2.5490473500583328e+10  2.4134735070214909e+10  2.3926431705701782e+10  1.8137835475381565e+10  1.8929695423302410e+10  1.5822735565882074e+10  1.8028709593922268e+10  2.9127978620033722e+10  2.5001407042750473e+10  2.4888664974659924e+10  1.6457732852408888e+10  7.9749341878550827e+10  3.2635484205761150e+10  2.1860976237854965e+10  2.3554865575242630e+10  3.5930946022168137e+10  1.7732385960011555e+10  2.3762939706900738e+10  1.6118181181838631e+10  1.9609009643324242e+10  1.5255430013542297e+10  1.4979870007394501e+10  1.5183776947747498e+10  1.5624902840093012e+10  2.7213280260779045e+10  1.8514588915256348e+10  1.5654308334109428e+10  1.7316762686582020e+10  4.9678307821996277e+10  1.5722681462775541e+10  2.7376496681343166e+10  4.1398020726350624e+10  1.9945751105542389e+10  2.0969785446753666e+10  4.8869045513723648e+10  5.0191579394452866e+10  1.9228501981927189e+10  1.8217826175667583e+10  1.9036400840576920e+10  3.6251303801228409e+10  1.9625823150691563e+10  2.9745256643283768e+10  2.5746730266054996e+10  9.7594562290254166e+10  1.8912279772495907e+10  2.0947433033371887e+10  1.6348548348870432e+10  1.6624722559302137e+10  2.2712573354305351e+10  1.6210520850593328e+10  1.5787921592485023e+10  1.5252711482921474e+10  1.5247413603382494e+10  2.0307645209714108e+10  2.0656935470827183e+10  2.1536218016983643e+10  1.9043691890305569e+10  2.9003083776681412e+10  2.1134895521004902e+10  9.7910517829591522e+10  2.5522061385887848e+10  2.6349764590197327e+10  3.5577994071398911e+10  1.8647717139701786e+10  1.5871082375083492e+10  2.5160252886690521e+10  2.0455388651122784e+10  2.1612121459532616e+10  3.7794386116845032e+10  3.9430461431353729e+10  3.6977648595090645e+10  5.9158161590276237e+10  2.2668725818730637e+10  2.5650652554175438e+10  3.5153772040951256e+10  1.5313076572642052e+10  3.8372711482337730e+10  1.6174625141194464e+10  2.0200714479924175e+10  1.5898127772161474e+10  2.0116840089315338e+10  3.0070834880338978e+10  3.6595097824786285e+10  1.7004916428098387e+10  2.3750225076575306e+10  4.4049916499375740e+10  4.3337947500874336e+10  6.2587703739559792e+10  1.8758557198638527e+10  1.9612690542273605e+10  6.9481056860453079e+10  7.2432180639497284e+10  1.8546226793080795e+10  2.3147190510688263e+10  2.1140758886661682e+10  2.7941314382258362e+10  2.6960077557943451e+10  2.3964954918895302e+10  1.4967604206715549e+10  2.1638790253063873e+10  2.1496577244119579e+10  6.2706286384570580e+10  4.6229727628359421e+10  7.7565044301035843e+10  3.3444608709124046e+10  6.2282733676189697e+10  6.2678961436060432e+10  6.6663991757243820e+10  7.8821838920763153e+10  1.8748625666856285e+10  3.3995035948997089e+10  2.5197845437852913e+10  1.4988798623182991e+10  4.0480957984598938e+10  1.8750534148592728e+10  3.3454179295300114e+10  1.8328657139059315e+10  1.5805322227537331e+10  2.4157990797256031e+10  1.7726538479726200e+10  3.9605624211839195e+10  3.3245789442948448e+10  1.7240157748156841e+10  1.6769320897793226e+10  8.3999294323814468e+10  9.4347275159646088e+10  9.3413029528832001e+10  9.3274511682525314e+10  6.2850317165836128e+10  1.6768991108293224e+10  1.9301062871992573e+10  3.8356103404866158e+10  2.3843508061670273e+10  2.1715309480709999e+10  2.2463350699332256e+10  2.1322573806933933e+10  4.7308754046692802e+10  4.8611403006648109e+10  2.0536943296902180e+10  2.6551021457182716e+10  2.6994209146906197e+10  3.4721010821131821e+10  3.3395215675350487e+10  2.5842585819810760e+10  2.5463771016489143e+10  5.6356518899295868e+10  2.1182307646311485e+10  2.2385981792439693e+10  1.5561015375592373e+10  2.6678176694841305e+10  4.3719948187078598e+10  4.0509383196614487e+10  2.1296807296728188e+10  1.5924193958965973e+10  2.1956597399326752e+10  4.0811951542674355e+10  1.9076650007952328e+10  1.7250089749843746e+10  2.4829646131539131e+10  1.7707493535903725e+10  1.5213529779209354e+10  1.5637685712509485e+10  1.8997857467176971e+10  1.5608679722573727e+10  5.9462840647005104e+10  2.5808579099790714e+10  5.3555012861436859e+10  7.6310132950364594e+10  1.8235525941836845e+10  1.7786803976030884e+10  1.7199063101583775e+10  1.9820024629320755e+10  2.5818333621039101e+10  2.0426403753532410e+10  2.0911631715689987e+10  2.4504452777658146e+10  2.0043373718203594e+10  2.3715567673614418e+10  1.5605949641363436e+10  5.7506647626819687e+10  7.2973985007123611e+10  6.4994003119138641e+10  6.4657473268287666e+10  1.6729948281272427e+10  1.4930540794132940e+10  5.3507020594096123e+10  4.8463547481266205e+10  5.1101200781090332e+10  3.3011467351612728e+10  1.9236504538300327e+10  1.5258095237562819e+10  9.7554451352210678e+10  2.3860568440533485e+10  1.5278764310321457e+10  1.5609222648513687e+10  1.5871953378101364e+10  5.6375701058312065e+10  1.7529592835772942e+10  4.5215710541673225e+10  1.5273266856376419e+10  1.5257804739200722e+10  1.4996726684778374e+10  1.5596343642501667e+10  9.7984438524046753e+10  2.4054699668868099e+10  2.4594448607732899e+10  2.5595261238957623e+10  2.5892244206797806e+10  2.3102005377380032e+10  1.7638710926300228e+10  2.8731582716076374e+10  2.3201053701839554e+10  2.2337440594234909e+10  5.6888157587825104e+10  2.4747015153551060e+10  3.4440415613178246e+10  1.7491872732095993e+10  2.9415529214611908e+10  2.0182548952655163e+10  2.5120582255093040e+10  6.4668170303768570e+10  2.8403566836032925e+10  1.9294368708914875e+10  8.5417497473379028e+10  9.4071691411958450e+10  4.0750368274938446e+10  4.4899567752090096e+10  1.4983830259051651e+10  6.3327765383355881e+10  2.2798538741317684e+10  2.2226200661194248e+10  1.6902584070352783e+10  1.6785137829781139e+10  1.6601976902089298e+10  1.9719514938848454e+10  2.0916336535581219e+10  1.4990865207768467e+10  2.1874822698676250e+10  1.9791967659960152e+10  1.8026415779788647e+10  1.7576063630110500e+10  1.5926780194577486e+10  4.1995197485277489e+10  4.0508661696652618e+10  1.7223236074421833e+10  3.2800235041476498e+10  2.6801477164269157e+10  3.1861530574411747e+10  2.4021105057523937e+10  1.6148746002024527e+10  4.1261773243273186e+10  3.9420797258573212e+10  2.7988312779076477e+10  3.1060477736766594e+10  1.8510281106923832e+10  2.6037747249255424e+10  2.8456416502465771e+10  1.4925465055991787e+10  3.2240716722087318e+10  9.7992173516472763e+10  1.6473112347446955e+10  2.9723746810474823e+10  3.1208197625064484e+10  1.5639340782901253e+10  1.5648682601389540e+10  2.3305062886972866e+10  2.3389077744310238e+10  1.7167968148008284e+10  1.5668611005002197e+10  4.0118516618436531e+10  1.5026320434346687e+10  2.6729908931978378e+10  1.5827052552070005e+10  5.5767942766911736e+10  1.7025084432687050e+10  1.7185350657430550e+10  3.2871586079930233e+10  2.5048156967419167e+10  1.6400453321049213e+10  3.3215802639371834e+10  2.2350116929077618e+10  2.0231906380469921e+10  1.5989493116714468e+10  2.1826188518261635e+10  2.2674062118095207e+10  2.4286355663854179e+10  2.4652092263168148e+10  1.5305441569588343e+10  2.0596177113657936e+10  2.1308008198637173e+10  2.1289812835956154e+10  2.0546257800920025e+10  4.5065498487875580e+10  1.5129315186532984e+10  1.5659212338790741e+10  2.1398700500032047e+10  1.8616498753562832e+10  1.7751589306137947e+10  2.7150170816069740e+10  1.4931979809368099e+10  4.5390699756774193e+10  7.4967501822952362e+10  7.2371664605952637e+10  6.8466608512069626e+10  3.3825386195454353e+10  1.5266221647314140e+10  1.4924057384416265e+10  1.5590194382851515e+10  5.4677917818976295e+10  1.6275139736027143e+10  1.6382633514833609e+10  1.7091168309870684e+10  5.0635723743373413e+10  4.6080955116900452e+10  1.5204526111678604e+10  1.4972144274415785e+10  2.4309446329493084e+10  2.0116275678338699e+10  2.2947923692218128e+10  1.9207109103909439e+10  7.4717270423543716e+10  1.5836748712901703e+10  2.9335897892557194e+10  3.2742283548353096e+10  2.1141045631411541e+10  3.7154900167382286e+10  1.8966751886420338e+10  1.8431384744681236e+10  1.8364309209711716e+10  3.6269260849483978e+10  1.5165447547833519e+10  1.5735843214835611e+10  2.9632344864953083e+10  1.9502995736316963e+10  2.4656815774230495e+10  4.6627098560474068e+10  1.7797912020213497e+10  7.5702928582887955e+10  9.6333725140282227e+10  1.7489423564226414e+10  3.1929159309906448e+10  2.3224355521856117e+10  9.8025754184357849e+10  2.0291762992968414e+10  1.6239190595264009e+10  2.5216594706712288e+10  1.8215487400243675e+10  1.5227394573549765e+10  1.5619001667200323e+10  2.4011020709909863e+10  1.5774990530864202e+10  1.5274572522790562e+10  1.4994786184442392e+10  1.5004697774678003e+10  1.5259075943633663e+10  4.1186527423983978e+10  2.5838215986145756e+10  1.7419585979612991e+10  3.0938670376046577e+10  2.2322075161833466e+10  2.3333950611268822e+10  3.1866565694072529e+10  1.9075007132754417e+10  2.9151056403699390e+10  1.5256150182191898e+10  1.5268400766401100e+10  1.5712116396817741e+10  2.1255111368005119e+10  2.2467128387689915e+10  2.7014068297672813e+10  1.7800623165163532e+10  1.7578272559594048e+10  1.7286201985576748e+10  2.1971474579919613e+10  7.9514375574073395e+10  1.9844977537796421e+10  3.1651950554604580e+10  7.3885174476954254e+10  1.5072304359125587e+10  1.8306386209851128e+10  3.9773781048805016e+10  3.9793677843013519e+10  2.0919088293402859e+10  2.3226554421062737e+10  1.7334541362215508e+10  2.6642026559124401e+10  2.7638576030921970e+10  7.6660877605908951e+10  5.9790014573382439e+10  1.5024358723220314e+10  3.0920059471153854e+10  7.8659181802723206e+10  6.8333696157044273e+10  6.7311077498016754e+10  7.5584422165735260e+10  1.5185627546745619e+10  1.9615615232011925e+10  2.2161922987086887e+10  2.3757608495018192e+10  6.5352707169008865e+10  2.8306259329076218e+10  3.2188672060140850e+10  1.5553046992113577e+10  5.6688493767238258e+10  1.7842707471030704e+10  1.8022291840222614e+10  1.5517442166720512e+10  5.7214652863393051e+10  2.0529972794203041e+10  2.1249907351568729e+10  2.3829317851282356e+10  1.9136942216119362e+10  1.5676744371528082e+10  1.6978140555563593e+10  4.3312378286690781e+10  3.7656546585425545e+10  3.9972609393254799e+10  1.6608064819809860e+10  1.5008270510985626e+10  2.3146399353433956e+10  2.7066365480413677e+10  2.6722366665247379e+10  2.1900119296773270e+10  2.2820955198388210e+10  6.3549262723269867e+10  2.6899472456421970e+10  2.1195359934998363e+10  1.6976804965230492e+10  7.8790118823926849e+10  1.5705297635582623e+10  4.6379542917041245e+10  1.6694473122723825e+10  1.6454009730391357e+10  8.1764063087708954e+10  1.5873915828594589e+10  2.0382808556339790e+10  2.6355422610618816e+10  2.0279698504506748e+10  3.6855679398231918e+10  3.6903999484004799e+10  1.6370446686006130e+10  1.8502730834956139e+10  1.6102635103004347e+10  3.4685144630736183e+10  5.2829485351322044e+10  2.1624495900453827e+10  2.3844996675244343e+10  2.9612227420020081e+10  7.5779239521020050e+10  3.5932045602115501e+10  1.8379357181051983e+10  2.2668042681401318e+10  4.3969650701888496e+10  4.0338834466653221e+10  1.8397577770613808e+10  1.8001907864803539e+10  1.7867505304485115e+10  5.8396772838288254e+10  5.9132413551042015e+10  6.4823634531687401e+10  2.9813615177412117e+10  5.7136560053539726e+10  2.4981390705211880e+10  2.5153266705397728e+10  2.4715814509431839e+10  6.9005396104895584e+10  2.4034230105835690e+10  2.1058620248341019e+10  3.7782858687706047e+10  2.5669184986506405e+10  8.4624279626385880e+10  4.1661175369627068e+10  1.5204057156935854e+10  5.5331721723684364e+10  7.1132530547217667e+10  1.7451764718260109e+10  2.9063791669550362e+10  1.8607858838561756e+10  1.7675601707901718e+10  3.1512906942378452e+10  9.7920896590953308e+10  1.9153963878354755e+10  1.8743004444388988e+10  1.5046073657042231e+10  2.1555411523207035e+10  1.5222356073024086e+10  1.4974547902135651e+10  1.5940711253385113e+10  1.5234652804386213e+10  1.5026977961067358e+10  1.5263239657427319e+10  4.3560241766125191e+10  2.4261174638176853e+10  6.7179712211447563e+10  5.0839202879190231e+10  4.7810971123388756e+10  5.4253074196294411e+10  3.7514614581831917e+10  2.4216857089032082e+10  2.5888244044335663e+10  2.8779404140619438e+10  5.9396765670524467e+10  3.2355823407069660e+10  5.1194056464734535e+10  1.7210037853599518e+10  3.7877449142130135e+10  1.5924358959632494e+10  1.6090924304744968e+10  1.6708072525849392e+10  6.7252468879253319e+10  2.9199064543020954e+10  6.5569358068241661e+10  1.7239562820633030e+10  1.6762231789486437e+10  3.5029081322555840e+10  3.3980651157020859e+10  2.6520674532516670e+10  2.2497782161146080e+10  2.2649172633812801e+10  2.2020712955296627e+10  2.3555191681687866e+10  1.6220629755943861e+10  5.3561420080820465e+10  4.3634604117000526e+10  2.9535132742098061e+10  2.8374883605672035e+10  4.0622574411511169e+10  9.1782188567134430e+10  1.9861986813166294e+10  3.2267925386057724e+10  3.0908384585939613e+10  1.8344198180766972e+10  1.9803392341699162e+10  1.7025627204207752e+10  1.7184170426889435e+10  1.7960204849284443e+10  1.4978573466291035e+10  1.5259302010725702e+10  1.5706505830854565e+10  3.3632164845922245e+10  2.0315795192812988e+10  2.1025847450760780e+10  2.0970234124088490e+10  1.8274591392910980e+10  1.8873455050307030e+10  1.8940345642940548e+10  2.0025772734396526e+10  2.0723742330935677e+10  2.6641495484497143e+10  2.5991427862195320e+10  1.9387918168450172e+10  5.9757407793732407e+10  3.2532905977497856e+10  1.6413711883718529e+10  1.7691839749379898e+10  2.4617880945755093e+10  1.7228066976109032e+10  3.4192401173941307e+10  2.6452354483675732e+10  2.5038089086937759e+10  1.8272628290386200e+10  2.9891308743329052e+10  4.4100739147190483e+10  1.5701732078615311e+10  2.7007420693487991e+10  2.0021959655987156e+10  1.6472814972585495e+10  1.6258867784946342e+10  1.5009256841259817e+10  5.5127861973851906e+10  2.6758302075591930e+10  2.4395122892541027e+10  2.3922416496765247e+10  1.6838917885871435e+10  9.5538787265386200e+10  5.8730840470206070e+10  1.5072502131181406e+10  3.3970590772980633e+10  6.6634940891901184e+10  1.6836868838860723e+10  1.6365264993978926e+10  4.5804211894954773e+10  4.2521879690965256e+10  4.3985762180059158e+10  4.7124047429345856e+10  7.8840745518757904e+10  7.3921988061873077e+10  2.0141585627033478e+10  1.8476013471498253e+10  1.5149147569777479e+10  1.5225000421163713e+10  4.2767643703793282e+10  1.8895045719553169e+10  2.6305394939471699e+10  1.6539034927637777e+10  2.2293589896782368e+10  2.1032375986166111e+10  2.0255581276038704e+10  1.6238708809143986e+10  1.9487983754541965e+10  4.5770039363879166e+10  1.5227618241710464e+10  1.6571197964914108e+10  1.7291328953311245e+10  3.2484834862757847e+10  5.8448011890669777e+10  4.1933946196812981e+10  3.9545003613419891e+10  1.6900820111406549e+10  4.4635435780898903e+10  2.0095303378572701e+10  2.1175582239205784e+10  2.1099433610048847e+10  1.5999838106274405e+10  5.5883375566827141e+10  2.7845743528266914e+10  2.3975590187333847e+10  2.3304292291004253e+10  2.4144964854546822e+10  2.4365116812115410e+10  1.5011266779330235e+10  1.5189697187414482e+10  1.7236635646454056e+10  1.7696373523675274e+10  3.7863354616384438e+10  2.1552034151910770e+10  2.0675869086243275e+10  2.1154997656496918e+10  2.3486706887484726e+10  1.9536918739147842e+10  2.2126355579742897e+10  3.5938571097896202e+10  2.9497118980404072e+10  1.8827649802411907e+10  2.6849561493840740e+10  1.9157776369500912e+10  1.8513881580571712e+10  2.2764228995806652e+10  1.5150562023129391e+10  1.7712561612807243e+10  1.6998865054297390e+10  1.8372768393583649e+10  4.4455349156003777e+10  1.6410494876963326e+10  5.4675232397301979e+10  1.5045447794236441e+10  4.5021535031356583e+10  1.5210487453564718e+10  3.9628121199102005e+10  2.1865639219552357e+10  9.7377655559921432e+10  1.7835982487684792e+10  2.1733793009340691e+10  1.4951394499174370e+10  2.7584753862398872e+10  2.7055678731476166e+10  2.0922000863844910e+10  2.8240710757606529e+10  6.0585624247356636e+10  2.0534102206659431e+10  3.0547617880470108e+10  3.2295624505168880e+10  1.9286132255700428e+10  1.5141088642327801e+10  2.0737009106953751e+10  1.6571050099385241e+10  1.6412908178732412e+10  1.6096834508857037e+10  2.8744964637187084e+10  3.0007824582709240e+10  2.7933272393518177e+10  2.2019240467801289e+10  3.2013690776209396e+10  1.7072642287814217e+10  2.8257477792993446e+10  2.9858171634565430e+10  2.8171854926682671e+10  2.4523984855705544e+10  6.3359304639208199e+10  2.3924101637443211e+10  1.5624912227717386e+10  9.7203510663859680e+10  2.0929815988049683e+10  2.1391876737132347e+10  1.4940623927017544e+10  1.5179710002834951e+10  2.1287062075356819e+10  2.0621499644423386e+10  2.1946206941331768e+10  2.0868548585239105e+10  2.3396212402128201e+10  3.8217348116330063e+10  3.8661209853994873e+10  9.7252470121391693e+10  1.6474441525141163e+10  3.6108670565230049e+10  8.4284746357986145e+10  9.3168978979042770e+10  9.7458516721359055e+10  1.8830851567360680e+10  2.0902399466290867e+10  2.7877605767012280e+10  2.8451989438532650e+10  1.6103280478754049e+10  1.9162559645612087e+10  1.8955858224489006e+10  2.3115199466780018e+10  2.5462845691548286e+10  2.4048661026534409e+10  2.3598166506576073e+10  1.5613073513186800e+10  8.5344395612327591e+10  2.8460801793778107e+10  2.9902766730860668e+10  8.2131075098332779e+10  9.3183870871130646e+10  4.5460538396437561e+10  6.1363447422377213e+10  1.9779334530834667e+10  2.8039116348055534e+10  2.6466259163585072e+10  1.4903095743678822e+10  1.5608613721909054e+10  1.6416296463723433e+10  8.4750409919287460e+10  2.3701441483937935e+10  2.0161214951088367e+10  2.5775344419008846e+10  1.5230709460321466e+10  2.5492949040938629e+10  3.6573134201349022e+10  4.0739918887998955e+10  2.6512933205647888e+10  9.6555948938907715e+10  1.7608954254733303e+10  2.2186326456239346e+10  2.5901069828052155e+10  2.4293887768490677e+10  1.6832799354875591e+10  2.6377631831668903e+10  6.9396656013502060e+10  1.5027083152577061e+10  2.2044971008546398e+10  2.1420886644016644e+10  1.6698897941426033e+10  1.9149389463365692e+10  9.2671125205740067e+10  2.7727882641951508e+10  4.0510447314182549e+10  1.8400231621307510e+10  1.7548872971193611e+10  7.3889209306660736e+10  7.8007502761938004e+10  1.9546633647108757e+10  2.5741982597114174e+10  1.8739100889622440e+10  9.2065082871297134e+10  9.1740508132035980e+10  2.7118886400523247e+10  1.5681549849856522e+10  1.6993328479724836e+10  1.6347410579919682e+10  1.5055170606103483e+10  7.8916259750604736e+10  3.5256636030451462e+10  4.3467828222479858e+10  2.0320951813150509e+10  2.0342813603124794e+10  1.8642066729844116e+10  1.9061373629962776e+10  1.9499365379350788e+10  6.4091445259662216e+10  6.5521234515024719e+10  1.5023521734217312e+10  1.5270225724127745e+10  1.6383732576102596e+10  2.1981262768863064e+10  2.2451447189415321e+10  2.1680192561081978e+10  4.5673703184111633e+10  9.2912524360638718e+10  2.4083417286579548e+10  2.5237704198029072e+10  1.6175540525073875e+10  4.6134903324891975e+10  4.8719804495607536e+10  1.5761280490600800e+10  2.6131408900337418e+10  2.2316883547991833e+10  6.6811193896628876e+10  1.8530622760364071e+10  2.7463634237984943e+10  2.4248950816627609e+10  8.7800952221782776e+10  3.4672615926902176e+10  6.7073478459351601e+10  2.4815350705863232e+10  2.1333523361033520e+10  2.0792343567481045e+10  5.3238483364172630e+10  5.0874104374408943e+10  2.6142411541964108e+10  2.1221705368640961e+10  2.4850753867166138e+10  3.5779267550525871e+10  1.4984343150558229e+10  1.9571454531372162e+10  3.3867573765269569e+10  1.5914329237772655e+10  3.1597818809852291e+10  3.3154760683869675e+10  3.1605134301299191e+10  1.9387576819454018e+10  1.8336603714714169e+10  3.2867013663018627e+10  9.2683561816064987e+10  9.7470161276578934e+10  8.4614437416916641e+10  1.5019522651659994e+10  6.7934091282927979e+10  1.7612701389454132e+10  3.3354444902595169e+10  1.5015920355202690e+10  3.6810567961237511e+10  2.3029072888542633e+10  1.9370071173817348e+10  1.5623289376711174e+10  9.4094457801391693e+10  6.3511580740472458e+10  7.6522591534840485e+10  3.7998806094813057e+10  1.7309256891579937e+10  1.9346789762780342e+10  3.1708417721290241e+10  1.5004807378826748e+10  1.5220498324184795e+10  2.2350621557517406e+10  2.2944423062839664e+10  2.2270407697376450e+10  2.1754271348990223e+10  2.3355017458412922e+10  6.7261031126627930e+10  2.2079995590706924e+10  6.1045848402566765e+10  6.0043666040583443e+10  6.8375613692293289e+10  1.5039765388684444e+10  1.5233097457031927e+10  1.8280488454514900e+10  2.5380891329110294e+10  6.8551968944819817e+10  7.2128493581628464e+10  5.2478365692091621e+10  4.9601267704257210e+10  3.9386826188445602e+10  2.3440899531864697e+10  3.0484220137044601e+10  2.8762874386191471e+10  2.0165373997861767e+10  2.1427868215238117e+10  2.0736189969686314e+10  3.4135909048805550e+10  1.5995403701668062e+10  2.3537445365906181e+10  1.5241051164219305e+10  9.0820617826737823e+10  2.4051880533477680e+10  1.8823242794585178e+10  1.8525733664820530e+10  2.4551143482885506e+10  3.4200304113939240e+10  3.9959439763128304e+10  1.9634057403415943e+10  3.5059100515161308e+10  1.9815699598869492e+10  1.5797830247998814e+10  1.5200871562337519e+10  1.5268166948721111e+10  1.4956511644255518e+10  1.5249763327358053e+10  3.8423101376219551e+10  7.5045447486289886e+10  6.7670690587083321e+10  1.5689509582434473e+10  1.5784194871121559e+10  2.3991891156169044e+10  3.5806725141126648e+10  3.6441503388000496e+10  2.6008719720336727e+10  5.7361777844912849e+10  5.0835189072602585e+10  5.2508100056377449e+10  4.4967041519850258e+10  4.3126025511183525e+10  3.7656858010655426e+10  3.8950354324554832e+10  3.5687533452939262e+10  3.8782126851072983e+10  3.0537946642932251e+10  2.3184131900046963e+10  8.4200224200011261e+10  1.6298692485769035e+10  3.3045000340929955e+10  3.6430095454194969e+10  1.6264895417411419e+10  4.5854433799660530e+10  4.3187676955758270e+10  4.2936985501476051e+10  3.6674345679494331e+10  3.0769896073332016e+10  3.1147525412855816e+10  2.7682598385723785e+10  2.3156413003704563e+10  9.6732632080601898e+10  4.8686096492713684e+10  3.5460877301329773e+10  5.0939475959583847e+10  1.6304288778788345e+10  3.4514489514651482e+10  2.4771807214177048e+10  8.4879537689787933e+10  2.4429222092718422e+10  5.5228588969692245e+10  2.1794908457241386e+10  2.2337891983918301e+10  2.2938222312201397e+10  2.2497120248045437e+10  3.0328170903775761e+10  7.5125420311654770e+10  5.7828679298255211e+10  3.6271090177724983e+10  1.7221156953357246e+10  1.7713098558145153e+10  1.7018257256833200e+10  2.3668569923580246e+10  1.4938129106814135e+10  5.1159472903906349e+10  5.2478111212991135e+10  5.7860328069870026e+10  1.7542203165991306e+10  1.9657708941289566e+10  4.4826829817641441e+10  4.2051629658579224e+10  1.8017101696820904e+10  9.6919627167830017e+10  1.8211903825863972e+10  2.5181300454446507e+10  2.3463755414798710e+10  2.5855351696358372e+10  7.8843207360754791e+10  3.8673827602198151e+10  9.2957934852695526e+10  2.4019605171961349e+10  2.5347438310147083e+10  5.1610484082030144e+10  3.3103361870884922e+10  2.0115090790206676e+10  2.1333431890208424e+10  3.0683154398743851e+10  2.8597173835594093e+10  2.9479812695131813e+10  6.0727810312770302e+10  5.5659523677466949e+10  2.0060427412206631e+10  3.2967823553650555e+10  2.2555310142296005e+10  1.5741687649072500e+10  1.9750147612323723e+10  1.5749520527543289e+10  1.5866328219507311e+10  2.6153150184829033e+10  1.4953358062943575e+10  1.6806456489846502e+10  9.2812699373960007e+10  2.7451077238313694e+10  3.4052488449458080e+10  1.6121967056411236e+10  7.9032293108749878e+10  1.5022960396113148e+10  3.0343293757528023e+10  8.5288231680881561e+10  9.0842979202301697e+10  4.0432952630633209e+10  2.0333721923980782e+10  1.9698414535788033e+10  7.1292322505247253e+10  1.6867501482829987e+10  6.0061637313323509e+10  9.2054080170846420e+10  1.5578509450570673e+10  1.7639508244634953e+10  4.0939211313335571e+10  4.3598123598357422e+10  2.9037098846774651e+10  2.8647114704767319e+10  5.6098000880444687e+10  5.3674781399063293e+10  2.4446527634228004e+10  3.8471518820169273e+10  3.6316668592068283e+10  3.6570792625133194e+10  6.1939593692344475e+10  1.6084381465790703e+10  2.1817566231012859e+10  1.8098163377696159e+10  1.9474839530553986e+10  4.8496567041353531e+10  1.7640041655847900e+10  1.8083918232133141e+10  1.7381582341741104e+10  1.5222014788813091e+10  1.5005890083594088e+10  2.3981205573906677e+10  9.1622966533261505e+10  1.8592820120278294e+10  2.7089113848155899e+10  3.8309899553116646e+10  1.8374330546642803e+10  1.9652227332405319e+10  1.5607939647390524e+10  1.6589744084945669e+10  3.8031366265777618e+10  1.5783164880357067e+10  1.5268279362594740e+10  7.7181794377403122e+10  6.7990935065132050e+10  2.4921735756375298e+10  1.6549161698402605e+10  4.6292793937545647e+10  1.9210360488673607e+10  1.5036328425057583e+10  2.3709577638304432e+10  2.4687536476605324e+10  2.4795846029237980e+10  2.5124676571938709e+10  2.3714935747993816e+10  4.5948056219515007e+10  4.4793522322617882e+10  7.6914393284850616e+10  6.3166483767737511e+10  2.8654233076849575e+10  3.1980446140178837e+10  2.8738900558877251e+10  5.1009066143047867e+10  3.6541399656580658e+10  6.5068240113758095e+10  7.2033529419219025e+10  7.0163374642292999e+10  2.6936909398984627e+10  3.4718652983783272e+10  7.0593493958433914e+10  2.7331434656490410e+10  2.7455981385972481e+10  6.6303269357652061e+10  1.6756613594300058e+10  1.5595278106709261e+10  2.8770225509202950e+10  1.5008106988972059e+10  3.8421702520163536e+10  2.6796529278446228e+10  3.4276901863477928e+10  4.1237593250670235e+10  4.3167678634099823e+10  2.8381524077722557e+10  1.8690567492816528e+10  1.8140191559925106e+10  2.0682817803497265e+10  2.9990114753527805e+10  2.9415139074275196e+10  2.6014785236486988e+10  2.1408559325019363e+10  2.0565423496727081e+10  2.1069130274905533e+10  2.3659164142042988e+10  1.7790878884868412e+10  1.8254462975580109e+10  1.7941461793524300e+10  1.8287361484633675e+10  6.1372999194493126e+10  5.4913194163554848e+10  8.4470168615134521e+10  1.6570228402131958e+10  1.8419841240725582e+10  2.6618749100959015e+10  1.5751271759180901e+10  1.5881135720339142e+10  4.7611219136811913e+10  1.5850829978434269e+10  1.5590920907547327e+10  4.7144308881706268e+10  9.5876210859756424e+10  1.7612951303808346e+10  6.5210409081874702e+10  3.5784349961585129e+10  4.0241200052527954e+10  4.2222836550956055e+10  3.6597168056568008e+10  2.3146555159212292e+10  5.4889550712167900e+10  2.1315561661734715e+10  3.6316839052064049e+10  4.8358373886709274e+10  2.6512718326804642e+10  1.7490719418848728e+10  1.7815570290638424e+10  1.6136780754772997e+10  1.9292646965724468e+10  1.8614695012385685e+10  4.0988036340381477e+10  1.5275590262852236e+10  2.3795018340096325e+10  2.0434352383641029e+10  2.2948232812395599e+10  3.3735370341268761e+10  3.2288095733086910e+10  1.9812799582552715e+10  4.3782875297793785e+10  1.4963245668147007e+10  3.0170949906868137e+10  1.5951846113605202e+10  2.7018880164699718e+10  1.7282004375714684e+10  1.7062158061642447e+10  1.6943183047935602e+10  1.6354870946830280e+10  8.4972474826399155e+10  2.8524392697270458e+10  2.3845144087871082e+10  2.5123426045794003e+10  5.1451306068562347e+10  5.3028643804473381e+10  2.6901133670392746e+10  2.8349346148930252e+10  1.6904366638693184e+10  1.6225972176096972e+10  1.6449118287265858e+10  2.0854392178316914e+10  1.9092716747621120e+10  2.9036649381487034e+10  2.1368013022576839e+10  3.1703648788458214e+10  2.9325982727828186e+10  2.9530137637839794e+10  2.1848912740582970e+10  5.2749341189966026e+10  2.5536543895888325e+10  1.9872384022283390e+10  1.7942740971205368e+10  2.1286799710985443e+10  2.3027049866607468e+10  1.8702063487672134e+10  2.2509425050062336e+10  5.2554888882908920e+10  5.1112244544052559e+10  4.9169155568245262e+10  1.9475527009833897e+10  1.5559321149578897e+10  1.5149052920372391e+10  2.0266390891505714e+10  1.9235039646407345e+10  4.4471441307748001e+10  4.5296434343115570e+10  2.6377829409542747e+10  2.6332135864731808e+10  3.1710522120711426e+10  3.3415529283677700e+10  2.4657221874889587e+10  4.0606497356395378e+10  2.3674056006683811e+10  2.4706325970221836e+10  1.9242381464600555e+10  1.6338348921150221e+10  5.1677712498089699e+10  5.2269090670493202e+10  2.9273076989749165e+10  1.8093786578270622e+10  1.8396472001165817e+10  3.1539388161168331e+10  3.3566964691233746e+10  2.8297472474301346e+10  1.5986459926824310e+10  2.5029099382862061e+10  1.8996312866916527e+10  1.8798200507530472e+10  2.9861266780894207e+10  1.4996130871228483e+10  1.5645540133020140e+10  1.5212359483808601e+10  1.7326254690962173e+10  3.3739302311123264e+10  3.8839070203080933e+10  3.2023414512513119e+10  3.0217125831198856e+10  4.3669349493539581e+10  4.0940168562167442e+10  1.9053531736825027e+10  1.8935044865090416e+10  1.8081330008565052e+10  1.5050390820157476e+10  3.0611369475528625e+10  1.5018223342378515e+10  2.3117206726019718e+10  5.0133008260133728e+10  1.5174583638059765e+10  1.5689060493782078e+10  1.7388856102048550e+10  2.5395448855634281e+10  2.1093815494810448e+10  5.7651957145296600e+10  6.3000023566775108e+10  1.5181329452654030e+10  1.4977932422248106e+10  5.5207130558428749e+10  4.5519802802370049e+10  4.2267987563136795e+10  4.1153876479987061e+10  1.4994590083894068e+10  2.2478675870017807e+10  2.1748058281993965e+10  2.2632507772515133e+10  1.5192356560939119e+10  1.5994949711776093e+10  2.1326194306772545e+10  1.7170341860238813e+10  1.5796453542574718e+10  1.5223633170839310e+10  1.7637844397551205e+10  2.3112759595686890e+10  1.5042149507645588e+10  1.6219032893772116e+10  1.6103476870039877e+10  1.6696865467272203e+10  1.9398902477144848e+10  1.6412814082332470e+10  2.9559059092282791e+10  9.1077043741405731e+10  6.7985650926558556e+10  1.5120192894694168e+10  4.7729533795843300e+10  2.7399009651466244e+10  2.5471129758680378e+10  2.6689722197950279e+10  1.9800846704997456e+10  1.6392834854420269e+10  1.5227747622507366e+10  1.4937888532527311e+10  2.2580383633170982e+10  4.2816445194500122e+10  2.3996527036107574e+10  1.6120517087270147e+10  1.6457345681038681e+10  4.4038867364987083e+10  2.1230974507486752e+10  2.1810086993422436e+10  8.1216164581865967e+10  1.7789972095323734e+10  1.6744302854093039e+10  5.6904251454450684e+10  6.4220227392012543e+10  1.8650500066838802e+10  2.8445131446030563e+10  2.9390496235461681e+10  3.1260299564052029e+10  1.5975161713174370e+10  1.5226438214141539e+10  3.9448538182322998e+10  1.9167113833551098e+10  2.0184809536599918e+10  1.5824518345015745e+10  1.6908564090620535e+10  2.9567480170465588e+10  3.1705676514342659e+10  2.9950459232386536e+10  3.0688480306671345e+10  1.7993902444359253e+10  1.7797891506468861e+10  6.9239059889445602e+10  1.5661476970571405e+10  6.9870106599194061e+10  1.7030217198993765e+10  8.0676602141758057e+10  1.7907395432590935e+10  2.9250973522260078e+10  1.5616748454235481e+10  3.0985266351513721e+10  2.4245152205592823e+10  1.7899049032655094e+10  3.2233227890673805e+10  2.3958926202297291e+10  1.6991357659168316e+10  1.6206492790210566e+10  1.6874228101858799e+10  1.7060640799651762e+10  1.8303596153077293e+10  1.8302434549666512e+10  4.1419834107292389e+10  5.6547765394293869e+10  1.4918857385966106e+10  1.5702754067210300e+10  1.5234505770703705e+10  1.6238579981119226e+10  1.5533005360601082e+10  1.5796173861645294e+10  1.5609378717951275e+10  1.5248038853076746e+10  1.4961984091093632e+10  4.9186055221427650e+10  1.7334105126654804e+10  1.8088477117785294e+10  4.8780824881029953e+10  4.1016155907205261e+10  2.0743522756385265e+10  1.5040527715513420e+10  2.0326775083640629e+10  2.0582830305001293e+10  2.3369310499782486e+10  1.7561952052319550e+10  2.4377265655412937e+10  7.8077678453152725e+10  6.8173145045344620e+10  1.5960889547945196e+10  1.7067941615939388e+10  1.8168429049781532e+10  2.0181700629177414e+10  5.5208501587687225e+10  9.7194851424838806e+10  3.1956386593538044e+10  1.7757685116327515e+10  1.8575981141305359e+10  1.8787675724582424e+10  1.9632857871649197e+10  3.3571876499899601e+10  3.2518830710217251e+10  5.2481329329341194e+10  1.8040441632115891e+10  1.8513967512076477e+10  1.7817391593676315e+10  1.8564574301186543e+10  7.0354504205366821e+10  3.6239380818317108e+10  3.8162812858101204e+10  3.8468666866459488e+10  3.2678633252904324e+10  2.9464198205295967e+10  2.6448102139687778e+10  1.9619144531283371e+10  1.5026285670589655e+10  7.4067900187972946e+10  1.4979215814626905e+10  3.6415277095921333e+10  3.8073067268694519e+10  1.5617836986882431e+10  3.1866627084705990e+10  2.9351003194347618e+10  4.1775508543976219e+10  1.9384032019913094e+10  2.1910143139638969e+10  1.8034588348016941e+10  1.5232775457603230e+10  2.8018680445408314e+10  5.8465880000922195e+10  1.6227668375587946e+10  1.6502912625684313e+10  2.5787946055113792e+10  2.7755229229129604e+10  6.6764022538036919e+10  7.0016997536142609e+10  7.5876557915077118e+10  6.1401993199681580e+10  6.4518053779377869e+10  1.5173381721542379e+10  3.3529307355371208e+10  3.6668385154001610e+10  5.9634057964651161e+10  6.2093043534581070e+10  6.1265360168914658e+10  7.8896329072066513e+10  3.2354969966840061e+10  2.0310823191120934e+10  2.0235110401527275e+10  3.1226068263147556e+10  1.8376889496317677e+10  1.5228442507304970e+10  2.3622369054030361e+10  4.2539088907824432e+10  1.4987279468341431e+10  2.1154328047234798e+10  2.5528393106998432e+10  1.7186899476502018e+10  5.8403126701696457e+10  1.6504152166525341e+10  1.8109073253001316e+10  2.9572852852899799e+10  2.5179263948570911e+10  8.1422401015368225e+10  9.3650935483505524e+10  9.6932049177830124e+10  2.9429316238636070e+10  1.5667898146371178e+10  9.5317484339990692e+10  3.4444220460359795e+10  1.4947901012019905e+10  3.1429330631764572e+10  5.1611823733715782e+10  5.2238909202082939e+10  4.9736719708108093e+10  3.9659321164959869e+10  2.1040947027299313e+10  2.2586637283331650e+10  1.7933589875205208e+10  1.8368919396786819e+10  1.7686906902872490e+10  1.8480536459914398e+10  1.5791980642138237e+10  2.2191760169317692e+10  3.6612652511424805e+10  3.2240886464997639e+10  1.6861156858642828e+10  2.5870872034243366e+10  9.5209875627692612e+10  4.5699098448055931e+10  1.6219629793861336e+10  2.7528468438194672e+10  2.4134931593291996e+10  2.2467730561910763e+10  5.0808155721528137e+10  3.3969856953819294e+10  8.1429617325201462e+10  3.9762996704205772e+10  2.5453362263146381e+10  1.5266976576494570e+10  4.4602563050182693e+10  4.6145838241484550e+10  4.7705963674710503e+10  5.1222438742254692e+10  4.9674666269557724e+10  2.1012238060214684e+10  1.7739886455403439e+10  2.0260268174680847e+10  1.5744431092216478e+10  2.0852879542378544e+10  1.8289519812529789e+10  2.1602627218906147e+10  2.1317109907791500e+10  2.2091250207988407e+10  1.7799946256164219e+10  2.1572510157970802e+10  1.8392198743017113e+10  1.6046978499477657e+10  3.1569146565196419e+10  2.1665295851694828e+10  2.1384151672909790e+10  1.9960271546615047e+10  2.1034289909518852e+10  2.4967749061541454e+10  2.7148960065547562e+10  2.6300062941377331e+10  5.8653710870764397e+10  2.1055009477364887e+10  3.9936258991187904e+10  2.1101300566175911e+10  1.9622494708896744e+10  2.5898735559971882e+10  1.5609480696588593e+10  1.8076740360529449e+10  1.8369898094228390e+10  1.5459137121257553e+10  4.8248320869534317e+10  5.4832017011431404e+10  1.7371256298377193e+10  2.1334385719775108e+10  1.8189616550053387e+10  1.8380904606840027e+10  1.5307214329563122e+10  8.0762240786412659e+10  1.8315174324251621e+10  2.5089413171213604e+10  1.7506098478536369e+10  1.7128216728856771e+10  2.3781327043609947e+10  2.4711576942327518e+10  6.5513628494947220e+10  7.1530010122954590e+10  1.9360798840667683e+10  1.9762422436288483e+10  7.2409242885711029e+10  6.6760696156733635e+10  3.2502615539721943e+10  1.9603124328346127e+10  1.6146118057977831e+10  3.4400662293828430e+10  1.5188578702501707e+10  2.9374543871983738e+10  2.7088414971844845e+10  3.3599717543108337e+10  3.1466779793698845e+10  7.0021803494390747e+10  9.7952512591998245e+10  2.1824025935551697e+10  4.6727309425147812e+10  2.1211057841029282e+10  1.8641919083409279e+10  4.9728526795803627e+10  2.9828094236889816e+10  1.5625657126566929e+10  2.0050028436179436e+10  2.8160550416038658e+10  1.6916843691673420e+10  1.5008667555847225e+10  3.5430863000756416e+10  2.1717224639904823e+10  1.8418852346961685e+10  6.2877889799144928e+10  6.1486375503372139e+10  5.8402230791811447e+10  2.0897372664163445e+10  1.7540242216229786e+10  1.7648635969109814e+10  2.9950129862268887e+10  2.2347550451770248e+10  2.2413634405373165e+10  1.9876527691109753e+10  1.5188223649778664e+10  2.1839625723749443e+10  2.4095718712541286e+10  2.3437410597312084e+10  4.5402029042869331e+10  4.4703889286300842e+10  4.1583059880865356e+10  2.5172359003694962e+10  6.0958773691265678e+10  2.6637649138339062e+10  1.9712770487239616e+10  1.5688986643717340e+10  3.5004153988880203e+10  2.0234875976345749e+10  1.8177863260115269e+10  2.7587259847877880e+10  2.1466480171234955e+10  2.2170352980439053e+10  2.2187942694662388e+10  4.6109371544227524e+10  3.4001147306207111e+10  2.4750247849723118e+10  2.1334296103217075e+10  2.9182496468036964e+10  1.5667642312173883e+10  1.5176824745457720e+10  5.2118151592224144e+10  1.5244712965178520e+10  1.8923541565941792e+10  9.6057731844566635e+10  2.8236737165269928e+10  2.7158603515242325e+10  1.7063730866494080e+10  1.4923179758419397e+10  2.0484166429572586e+10  3.9661663895091705e+10  7.1823557359378235e+10  2.4415110376596550e+10  2.5721091549830326e+10  1.7085048913364737e+10  1.6752918782467558e+10  1.6527955047368513e+10  1.4973382812473351e+10  1.5169127321534035e+10  4.3623303250123444e+10  1.8490751905328281e+10  1.5652472902656118e+10  3.9758934950551071e+10  3.8188383568841476e+10  2.5067168253370594e+10  2.6591354892428280e+10  1.5672393903288637e+10  4.7399248853443909e+10  9.2903716777675369e+10  3.4804406306759903e+10  1.9977474661376930e+10  3.4054809017635609e+10  1.5038443162796700e+10  2.2679347627550419e+10  2.1497352142623520e+10  2.6125495852000359e+10  1.7360325612178009e+10  1.6887569051246538e+10  1.6548173597506512e+10  1.6009179176852852e+10  1.5635769958545149e+10  1.5215876268646755e+10  2.2169431753153687e+10  4.3719102870401215e+10  9.3025698847582184e+10  1.7947823639083412e+10  9.2542866843147705e+10  5.0106487791886566e+10  1.8453105019888191e+10  6.5767580217266350e+10  7.3179112242528839e+10  4.7336301853585640e+10  1.8252286124534561e+10  2.8241582094630455e+10  3.2814868278778938e+10  1.9742782932729321e+10  2.0452223858166553e+10  1.6583897791636204e+10  2.4145340954898048e+10  1.7235886347541847e+10  1.6517088019649561e+10  1.6648039526710133e+10  2.0325584357433903e+10  1.9218535737665741e+10  2.5142220579414135e+10  7.5632909514099930e+10  2.0730889003923973e+10  1.5605670725248423e+10  7.9224405894017258e+10  2.8751062954743500e+10  3.1239762526219078e+10  3.0656228618482788e+10  3.1000608001878586e+10  1.5589376300672911e+10  8.5427152390035812e+10  5.6174321900691895e+10  1.7764062792965115e+10  1.5765317527610981e+10  4.9442727600595383e+10  7.0651021473337402e+10  3.4916972493248329e+10  1.7083152740133743e+10  4.5125873668513100e+10  3.1256442447897873e+10  2.9224467145572819e+10  1.6279120184114084e+10  5.7966026509671913e+10  2.2434978886057156e+10  1.7277999425549522e+10  1.8025129149953480e+10  2.9803961254523220e+10  3.0030534251702175e+10  3.0207376199661251e+10  1.7693816588016354e+10  1.9434411527623341e+10  3.2448500767301456e+10  2.3379228733976273e+10  2.0063158583829563e+10  2.0647455942271145e+10  3.9307782663306602e+10  5.4528927435121521e+10  3.0513883270926979e+10  2.0518893886114830e+10  1.6224500783758688e+10  1.9087271755354561e+10  1.8018280541074528e+10  7.4615835188922058e+10  3.0704112633356956e+10  2.1450602406338696e+10  2.5488525515657421e+10  2.1181714797377617e+10  2.2306661498482578e+10  2.2043024444195057e+10  1.4992248215166969e+10  2.6374388048720852e+10  2.4177584512645016e+10  2.3400235015157280e+10  2.3232808410111435e+10  1.6174206328109800e+10  1.5225808129768709e+10  2.1595860497572037e+10  1.7466531310193798e+10  4.3393812371776009e+10  1.7813709366173492e+10  2.2827685266639721e+10  2.2017971301459278e+10  2.2186291487124569e+10  2.4547305635920269e+10  2.6389113063985661e+10  1.6916183643827927e+10  3.1685241028020504e+10  1.9380672746810505e+10  5.4295574341101044e+10  2.3429616233955738e+10  3.7897223205934776e+10  3.1425143951399639e+10  1.5257769788820478e+10  1.5247972418385603e+10  1.6942256963207224e+10  2.1829535540439175e+10  3.2606398101327850e+10  2.9221713362480389e+10  3.6572360986718491e+10  3.3492168885961044e+10  2.4054376128878231e+10  2.9045538410304195e+10  2.5508059866559464e+10  1.5542473312950233e+10  5.6463393614743034e+10  1.6573251412805639e+10  4.2968221549097054e+10  4.4319248769247940e+10  6.1910646477629921e+10  1.9864998946941769e+10  2.0934988187595413e+10  2.9592573334045383e+10  1.7000190146445791e+10  8.3861210236956436e+10  4.6022875252325150e+10  3.1366901747954613e+10  3.0172293531326157e+10  3.0489117993377033e+10  2.2693386880813126e+10  1.6460403891129292e+10  2.0436563445796207e+10  2.1253422374242046e+10  6.3239289791867683e+10  3.4687288781447792e+10  3.5318963149081802e+10  1.7953298391409035e+10  1.8092373129273640e+10  1.5972281754245489e+10  1.5021786382699257e+10  1.8546832748267052e+10  1.5902177791672874e+10  1.6070318696671593e+10  2.6856288742806370e+10  1.6235066730447285e+10  3.8058520285327950e+10  1.6172742958218916e+10  1.6543760626457659e+10  1.6881625315601665e+10  1.8106791325387356e+10  3.2426587603797829e+10  1.7902398524225094e+10  3.6096305124677460e+10  3.3723532689987820e+10  6.4070474862182907e+10  2.0026858260639297e+10  1.8151824649422592e+10  2.0571823512398212e+10  9.3015054149830383e+10  2.4625923423859722e+10  4.1026461090868668e+10  2.0046730556251312e+10  8.2369952057940430e+10  2.1136972152632645e+10  4.1703322536802505e+10  5.3330202875079552e+10  1.7326765861919178e+10  6.3847203924588860e+10  2.5536428413247601e+10  1.7234767872118839e+10  1.6609423318815424e+10  2.3368414899259239e+10  1.7669169346654095e+10  1.8049452819372047e+10  9.5012761496520844e+10  5.1713335753939339e+10  5.1207009208853745e+10  3.5934577991771996e+10  1.7521047467787804e+10  1.7756199781579201e+10  1.8893130930913906e+10  4.4644253695112328e+10  1.4938152311573263e+10  1.5196974990981930e+10  1.6808093502101767e+10  3.6067825221565018e+10  3.6377500135486664e+10  3.8923213865761101e+10  2.4913885614187943e+10  1.5979122548930927e+10  4.3779191702346489e+10  2.2037838512272907e+10  4.2660341558196945e+10  1.5558416201898239e+10  1.6603188173278908e+10  4.3168505367531136e+10  1.4988446925836241e+10  2.5125430947839745e+10  2.4641695561505188e+10  2.4778371779697495e+10  2.8645759455423874e+10  1.4941426907739801e+10  1.4916101422879753e+10  1.4896299885985615e+10  1.4907663738027058e+10  1.4926669161777689e+10  1.4929397015285086e+10  1.4965251214482571e+10  1.5029240677862558e+10  1.4954022401382223e+10  1.4930688136903505e+10  1.4913721727576002e+10  1.4981941591443237e+10  1.4935286294023600e+10  1.4890941704503439e+10  1.4934487689677710e+10  1.4959381723520479e+10  1.4950279551599771e+10  1.4897831937214010e+10  1.4921692612062805e+10  1.4933494910656511e+10  1.4888047580674110e+10  1.4895384279482111e+10  1.4945168139877525e+10  1.4944786355837132e+10  1.5005638511749456e+10  1.5021198036138653e+10  1.5018341518723913e+10  1.4910745233127163e+10  1.4933305034186529e+10  1.4910442041412701e+10  1.4936358699263956e+10  1.4920208564577261e+10  1.4931615453543039e+10  1.4905712676877714e+10  1.4945274472769760e+10  1.4923157157454893e+10  1.4929066189939318e+10  1.4898945119847332e+10  1.4912399039637310e+10  1.4939224371756460e+10  1.4923501818747131e+10  1.4987685090509758e+10  1.4948491918761263e+10  1.4907158837456476e+10  1.4918423070037560e+10  1.4875294494330746e+10  1.4871677056073812e+10  1.4956191995545528e+10  1.4982956053630655e+10  1.4959779304272661e+10  1.4903430430887030e+10  1.5026729149126299e+10  1.4931490921562061e+10  1.4959056762316061e+10  1.4949952722807833e+10  1.4957472080030821e+10  1.4964095069941307e+10  1.4912785667197359e+10  1.4916648861161259e+10  1.4935621908811295e+10  1.4933674256644861e+10  1.4909845167642765e+10  1.4949511949109171e+10  1.4885294357294035e+10  1.4926601685538486e+10  1.5025082009887436e+10  1.4885862494713259e+10  1.4928253185442705e+10  1.5069176450111574e+10  1.4858374923891911e+10  1.4990960070444710e+10  1.4940567027473747e+10  1.4924491743044407e+10  1.4947288902615332e+10  1.4918798603466965e+10  1.4974577375026470e+10  1.4894934636083782e+10  1.4929240878523083e+10  1.4903706052108286e+10  1.4938694479390858e+10  1.4943495511326954e+10  1.5014026012597414e+10  1.4925161137936707e+10  1.4954098884581348e+10  1.4943964930741644e+10  1.4908049021380592e+10  1.4948005587950253e+10  1.5035784809077028e+10  1.4894814595824472e+10  1.4920474004971361e+10  1.4944001221609018e+10  1.4936420987595562e+10  1.4942457373258163e+10  1.4913544339221128e+10  1.4973246236681658e+10  1.4926395962693752e+10  1.4912545006643942e+10  1.4929774248900860e+10  1.4930660848805267e+10  1.4884728895997862e+10  1.5037389089491482e+10  1.4989788031892832e+10  1.4910952376586304e+10  1.4955547105894293e+10  1.4895446133653545e+10  1.4988190517511463e+10  1.5000252577885517e+10  1.4936175709166534e+10  1.4953415035531673e+10  1.4934667912746643e+10  1.4938047547777910e+10  1.4909514334183561e+10  1.4903687356258581e+10  1.4992360849103895e+10  1.5023308087431477e+10  1.4932491526167473e+10  1.4961972584060692e+10  1.4905093608817562e+10  1.4912260605846621e+10  5.4140909662488594e+10  5.2119490456928024e+10  3.8127252491213165e+10  1.7534034454035160e+10  1.6030078595829983e+10  1.5248298271991884e+10  1.6224864540385040e+10  1.6387878134061201e+10  2.0390702855956833e+10  1.9558077571376213e+10  1.7568966799411274e+10  3.1797864387177807e+10  2.3300016484580971e+10  1.5162699836471119e+10  7.2280043598395142e+10  2.0565476054703499e+10  2.5947322814992088e+10  5.5469169653206711e+10  2.0120004440074978e+10  1.8899204368754539e+10  1.7452654751419674e+10  1.5194916321564653e+10  2.3057785096343014e+10  4.3029241260303955e+10  1.8587169421624664e+10  1.7915564064833920e+10  3.4815704607737038e+10  9.3936961256737061e+10  3.4706465244523819e+10  2.5803048174206139e+10  2.5351675382730339e+10  </DataArray> 
</PointData> 
</Piece>
</UnstructuredGrid>
</VTKFile>