<?xml version="1.0"?>
<VTKFile type="UnstructuredGrid"  version="0.1"  >
<UnstructuredGrid>
<Piece  NumberOfPoints="10908" NumberOfCells="21160">
<Points>
<DataArray  type="Float64"  NumberOfComponents="3"  format="ascii">-0.09999216720722226 0.001251597859899349 0  -0.09999216720722226 -0.001251597859899324 0  -0.09992951222712528 -0.003754009329879275 0  -0.09980424152647172 -0.006254068541813297 0  -0.09961643359974248 -0.008750208961396265 0  -0.0993662061271743 -0.01124086650983409 0  -0.09905371590102154 -0.01372448054389361 0  -0.09867915872731027 -0.01619949483379979 0  -0.09824276930314649 -0.01866435853836769 0  -0.09774482106965511 -0.02111752717675784 0  -0.09718562604064213 -0.02355746359624618 0  -0.09656553460708706 -0.0259826389354021 0  -0.0958849353175884 -0.02839153358207142 0  -0.09514425463489948 -0.03078263812556374 0  -0.09434395666870733 -0.03315445430244742 0  -0.09348454288482222 -0.03550549593535961 0  -0.09256655179095953 -0.03783428986424361 0  -0.09159055859931162 -0.04013937686942917 0  -0.09055717486612039 -0.04241931258597781 0  -0.08946704810847689 -0.04467266840872038 0  -0.08832086139858776 -0.04689803238741953 0  -0.08711933293576302 -0.04909401011149607 0  -0.08586321559639315 -0.051259225583765 0  -0.08455329646219767 -0.05339232208263388 0  -0.08319039632704039 -0.05549196301222316 0  -0.0817753691826212 -0.05755683273987554 0  -0.08030910168336558 -0.05958563742052986 0  -0.07879251259084807 -0.06157710580744316 0  -0.07722655219809717 -0.06352999004875236 0  -0.07561220173414296 -0.0654430664693768 0  -0.07395047274917997 -0.0673151363377717 0  -0.07224240648073096 -0.06914502661705209 0  -0.0704890732012087 -0.07093159070001633 0  -0.06869157154728435 -0.07267370912760898 0  -0.06685102783148329 -0.07437029029037232 0  -0.06496859533643848 -0.07602027111244807 0  -0.06304545359224527 -0.07762261771769907 0  -0.06108280763736874 -0.07917632607753537 0  -0.05908188726356842 -0.080680422640037 0  -0.05704394624531189 -0.08213396493998064 0  -0.05497026155416092 -0.08353604218938757 0  -0.05286213255862293 -0.08488577584822193 0  -0.05072088020996789 -0.08618232017488325 0  -0.04854784621452173 -0.08742486275614705 0  -0.04634439219295482 -0.08861262501622209 0  -0.0441118988270916 -0.08974486270460519 0  -0.0418517649947774 -0.09082086636242756 0  -0.0395654068933429 -0.09183996176700104 0  -0.03725425715221625 -0.09280151035428542 0  -0.0349197639352395 -0.09370490961901168 0  -0.03256339003325057 -0.09454959349221126 0  -0.03018661194749989 -0.09533503269591435 0  -0.02779091896447685 -0.09606073507479465 0  -0.0253778122227242 -0.09672624590455349 0  -0.02294880377222645 -0.09733114817684957 0  -0.02050541562696112 -0.0978750628605958 0  -0.01804917881120608 -0.09835764913945998 0  -0.01558163240020206 -0.09877860462541965 0  -0.01310432255576947 -0.09913766554823829 0  -0.01061880155748498 -0.09943460692074342 0  -0.008126626830025281 -0.09966924267980326 0  -0.00562935996728636 -0.09984142580291366 0  -0.003128565753890103 -0.09995104840032237 0  -0.0006258111846929931 -0.0999980417826325 0  0.001877335517092352 -0.09998237650384323 0  0.004379305882543121 -0.09990406237980078 0  0.006878532179827535 -0.09976314848204761 0  0.009373448396544122 -0.09955972310707441 0  0.01186249122098281 -0.09929391372099353 0  0.01434410102169454 -0.09896588687966891 0  0.0168167228247549 -0.09857584812435229 0  0.01927880728810846 -0.09812404185289136 0  0.02172881167238507 -0.09761075116659038 0  0.02416520080757896 -0.09703629769281898 0  0.02658644805498359 -0.09640104138348123 0  0.02899103626378299 -0.09570538028946973 0  0.03137745872169579 -0.09494975031124768 0  0.03374422009907978 -0.09413462492571403 0  0.03608983738590409 -0.0932605148895233 0  0.0384128408210011 -0.09232796791904624 0  0.04071177481301732 -0.0913375683471712 0  0.04298519885248568 -0.09028993675716174 0  0.04523168841444655 -0.08918572959380006 0  0.04744983585105387 -0.08802563875205931 0  0.0496382512736056 -0.08681039114356295 0  0.05179556342344641 -0.08554074824110286 0  0.05392042053119698 -0.08421750560150111 0  0.05601149116377094 -0.08284149236711523 0  0.05806746505864942 -0.08141357074629837 0  0.06008705394489031 -0.07993463547314045 0  0.062068992350357 -0.07840561324682899 0  0.06401203839466206 -0.0768274621509803 0  0.06591497456732821 -0.07520117105330526 0  0.0677766084906786 -0.07352775898598621 0  0.06959577366697992 -0.07180827450715208 0  0.07137133020936784 -0.07004379504385366 0  0.07310216555609947 -0.06823542621694852 0  0.07478719516768322 -0.06638430114832015 0  0.07642536320644966 -0.06449157975086556 0  0.07801564319813849 -0.06255844800169477 0  0.07955703867508632 -0.06058611719899883 0  0.08104858380061176 -0.05857582320305206 0  0.08248934397420797 -0.05652882566182319 0  0.0838784164171622 -0.05444640722168118 0  0.08521493073823577 -0.05232987272369083 0  0.08649804947905057 -0.05018054838600033 0  0.08772696863883907 -0.04799978097283517 0  0.0889009181782307 -0.04578893695061648 0  0.09001916250175765 -0.04354940163173486 0  0.09108100091877785 -0.04128257830651554 0  0.09208576808252723 -0.03898988736391795 0  0.0930328344070252 -0.03667276540152144 0  0.09392160646157242 -0.03433266432535521 0  0.09475152734259386 -0.0319710504401355 0  0.09552207702259409 -0.02958940353048034 0  0.09623277267600569 -0.02718921593367883 0  0.09688316898172744 -0.02477199160459344 0  0.0974728584021618 -0.02233924517328454 0  0.09800147143857771 -0.01989250099594415 0  0.09846867686263801 -0.0174332921997361 0  0.09887418192394669 -0.01496315972214073 0  0.09921773253348604 -0.01248365134540491 0  0.09949911342282847 -0.009996320726703157 0  0.09971814827902359 -0.007502726424618317 0  0.09987469985507552 -0.005004430922550236 0  0.09996867005594191 -0.002502999649665144 0  0.1 0 0  0.09996867005594191 0.002502999649665096 0  0.09987469985507554 0.005004430922550164 0  0.09971814827902359 0.007502726424618309 0  0.09949911342282848 0.009996320726703126 0  0.09921773253348604 0.01248365134540486 0  0.09887418192394669 0.01496315972214074 0  0.09846867686263801 0.01743329219973608 0  0.09800147143857772 0.01989250099594411 0  0.0974728584021618 0.02233924517328456 0  0.09688316898172744 0.02477199160459344 0  0.09623277267600572 0.02718921593367872 0  0.0955220770225941 0.0295894035304803 0  0.09475152734259389 0.03197105044013543 0  0.09392160646157242 0.0343326643253552 0  0.09303283440702523 0.0366727654015214 0  0.09208576808252726 0.0389898873639179 0  0.09108100091877785 0.04128257830651555 0  0.09001916250175765 0.04354940163173485 0  0.08890091817823072 0.04578893695061644 0  0.08772696863883905 0.04799978097283519 0  0.08649804947905056 0.05018054838600035 0  0.08521493073823583 0.05232987272369073 0  0.08387841641716223 0.05444640722168113 0  0.082489343974208 0.05652882566182314 0  0.08104858380061178 0.05857582320305206 0  0.07955703867508633 0.06058611719899881 0  0.07801564319813853 0.06255844800169473 0  0.07642536320644966 0.06449157975086556 0  0.07478719516768322 0.06638430114832015 0  0.0731021655560995 0.06823542621694849 0  0.07137133020936781 0.07004379504385369 0  0.0695957736669799 0.07180827450715209 0  0.06777660849067867 0.07352775898598612 0  0.06591497456732824 0.07520117105330523 0  0.06401203839466212 0.07682746215098026 0  0.06206899235035701 0.07840561324682899 0  0.06008705394489031 0.07993463547314045 0  0.05806746505864946 0.08141357074629835 0  0.05601149116377094 0.08284149236711523 0  0.05392042053119699 0.08421750560150111 0  0.05179556342344643 0.08554074824110285 0  0.04963825127360558 0.08681039114356297 0  0.04744983585105388 0.08802563875205929 0  0.04523168841444657 0.08918572959380004 0  0.04298519885248572 0.09028993675716171 0  0.04071177481301738 0.09133756834717116 0  0.0384128408210011 0.09232796791904624 0  0.03608983738590412 0.0932605148895233 0  0.03374422009907983 0.09413462492571401 0  0.03137745872169577 0.09494975031124768 0  0.02899103626378299 0.09570538028946973 0  0.02658644805498361 0.09640104138348121 0  0.02416520080757892 0.09703629769281899 0  0.02172881167238516 0.09761075116659035 0  0.01927880728810846 0.09812404185289136 0  0.01681672282475495 0.09857584812435227 0  0.01434410102169461 0.0989658868796689 0  0.01186249122098281 0.09929391372099353 0  0.009373448396544148 0.09955972310707439 0  0.006878532179827604 0.09976314848204761 0  0.004379305882543101 0.09990406237980078 0  0.001877335517092354 0.09998237650384323 0  -0.0006258111846929686 0.0999980417826325 0  -0.003128565753890144 0.09995104840032237 0  -0.005629359967286269 0.09984142580291366 0  -0.008126626830025279 0.09966924267980326 0  -0.01061880155748493 0.09943460692074342 0  -0.01310432255576943 0.09913766554823829 0  -0.01558163240020205 0.09877860462541965 0  -0.01804917881120606 0.09835764913945998 0  -0.02050541562696107 0.09787506286059582 0  -0.02294880377222647 0.09733114817684957 0  -0.0253778122227242 0.09672624590455349 0  -0.02779091896447682 0.09606073507479465 0  -0.03018661194749985 0.09533503269591437 0  -0.03256339003325048 0.0945495934922113 0  -0.03491976393523949 0.09370490961901168 0  -0.0372542571522162 0.09280151035428545 0  -0.03956540689334286 0.09183996176700107 0  -0.04185176499477741 0.09082086636242755 0  -0.04411189882709158 0.0897448627046052 0  -0.04634439219295476 0.08861262501622214 0  -0.04854784621452175 0.08742486275614705 0  -0.0507208802099679 0.08618232017488325 0  -0.05286213255862291 0.08488577584822195 0  -0.05497026155416086 0.08353604218938761 0  -0.05704394624531183 0.08213396493998068 0  -0.0590818872635684 0.080680422640037 0  -0.06108280763736872 0.07917632607753539 0  -0.06304545359224521 0.07762261771769911 0  -0.06496859533643849 0.07602027111244805 0  -0.06685102783148326 0.07437029029037233 0  -0.06869157154728432 0.072673709127609 0  -0.07048907320120865 0.07093159070001638 0  -0.07224240648073095 0.06914502661705212 0  -0.07395047274917996 0.06731513633777172 0  -0.07561220173414293 0.06544306646937682 0  -0.07722655219809715 0.06352999004875239 0  -0.07879251259084805 0.06157710580744318 0  -0.08030910168336558 0.05958563742052989 0  -0.08177536918262118 0.05755683273987557 0  -0.08319039632704039 0.05549196301222318 0  -0.08455329646219764 0.05339232208263391 0  -0.08586321559639316 0.05125922558376498 0  -0.087119332935763 0.04909401011149609 0  -0.08832086139858775 0.04689803238741955 0  -0.08946704810847689 0.0446726684087204 0  -0.09055717486612037 0.04241931258597783 0  -0.09159055859931159 0.04013937686942923 0  -0.09256655179095952 0.03783428986424364 0  -0.09348454288482221 0.03550549593535963 0  -0.09434395666870732 0.03315445430244744 0  -0.09514425463489946 0.03078263812556376 0  -0.0958849353175884 0.02839153358207144 0  -0.09656553460708706 0.02598263893540208 0  -0.09718562604064213 0.02355746359624621 0  -0.09774482106965511 0.02111752717675787 0  -0.09824276930314649 0.01866435853836771 0  -0.09867915872731026 0.01619949483379982 0  -0.09905371590102152 0.01372448054389368 0  -0.0993662061271743 0.01124086650983411 0  -0.09961643359974248 0.00875020896139629 0  -0.09980424152647172 0.006254068541813321 0  -0.09992951222712528 0.0037540093298793 0  0.03992262388534377 0.002486785497259221 0  0.04 0 0  0.03992262388534377 -0.002486785497259208 0  0.03969079489453106 -0.004963950104530374 0  0.03930540992889055 -0.007421910153179742 0  0.03876795996798664 -0.009851156273280079 0  0.0380805243013092 -0.01224229018351549 0  0.03724576248390638 -0.01458606105130622 0  0.0362669040470829 -0.01687340128248248 0  0.03514773600397073 -0.01909546160204512 0  0.03389258819831109 -0.02124364529029102 0  0.03250631655312999 -0.02330964144185206 0  0.03099428428411559 -0.02528545711897306 0  0.02936234115037842 -0.02716344827463543 0  0.02761680082286985 -0.02893634932589001 0  0.0257644164580159 -0.03059730126298591 0  0.02381235457106663 -0.03213987818554704 0  0.02176816731024109 -0.03355811216313205 0  0.01963976323893288 -0.03484651632399802 0  0.01743537673901486 -0.0360001060827412 0  0.01516353615361514 -0.03701441842468967 0  0.01283303079261469 -0.03788552917244001 0  0.0104528769285144 -0.03861006816773743 0  0.008032282914228736 -0.03918523230996326 0  0.005580613557756907 -0.03960879640078678 0  0.003107353891560257 -0.03987912175302517 0  0.0006220724768140307 -0.03999516253040598 0  -0.001865615615496718 -0.03995646979370443 0  -0.004346086003418975 -0.03976319323760211 0  -0.00680974222889595 -0.03941608061154726 0  -0.009247052884598804 -0.0389164748268575 0  -0.01164858848909008 -0.03826630876125679 0  -0.01400505796765564 -0.037468097780947 0  -0.01630734459766757 -0.03652493000914474 0  -0.01854654127941309 -0.03544045437873259 0  -0.02071398499593302 -0.03421886651524655 0  -0.0228012903285513 -0.03286489250481604 0  -0.02480038189843101 -0.03138377060985464 0  -0.02670352560864616 -0.0297812310032406 0  -0.02850335856590027 -0.02806347359939107 0  -0.0301929175661303 -0.02623714406799758 0  -0.03176566603379014 -0.02430930812322127 0  -0.03321551931059191 -0.02228742418781713 0  -0.03453686819586654 -0.02017931453794559 0  -0.03572460064747166 -0.01799313504030543 0  -0.03677412155928945 -0.01573734359867008 0  -0.03768137053879957 -0.01342066743190099 0  -0.03844283761594898 -0.01105206931003321 0  -0.03905557682254428 -0.008640712879059325 0  -0.03951721758963028 -0.006195927208563378 0  -0.03982597391876074 -0.003727170699362877 0  -0.03998065129167953 -0.00124399449079346 0  -0.03998065129167953 0.00124399449079347 0  -0.03982597391876074 0.003727170699362869 0  -0.03951721758963027 0.006195927208563387 0  -0.03905557682254428 0.008640712879059336 0  -0.03844283761594898 0.01105206931003322 0  -0.03768137053879957 0.013420667431901 0  -0.03677412155928945 0.01573734359867011 0  -0.03572460064747166 0.01799313504030544 0  -0.03453686819586654 0.0201793145379456 0  -0.03321551931059189 0.02228742418781715 0  -0.03176566603379014 0.02430930812322128 0  -0.03019291756613027 0.0262371440679976 0  -0.02850335856590028 0.02806347359939107 0  -0.02670352560864615 0.02978123100324061 0  -0.024800381898431 0.03138377060985464 0  -0.02280129032855131 0.03286489250481603 0  -0.02071398499593302 0.03421886651524655 0  -0.0185465412794131 0.03544045437873259 0  -0.01630734459766755 0.03652493000914475 0  -0.01400505796765562 0.03746809778094701 0  -0.01164858848909008 0.03826630876125679 0  -0.009247052884598787 0.0389164748268575 0  -0.00680974222889594 0.03941608061154726 0  -0.004346086003418975 0.03976319323760211 0  -0.001865615615496708 0.03995646979370443 0  0.0006220724768140317 0.03999516253040598 0  0.003107353891560249 0.03987912175302517 0  0.005580613557756925 0.03960879640078678 0  0.008032282914228746 0.03918523230996326 0  0.01045287692851443 0.03861006816773743 0  0.01283303079261471 0.03788552917244001 0  0.01516353615361518 0.03701441842468966 0  0.01743537673901485 0.0360001060827412 0  0.01963976323893289 0.03484651632399802 0  0.02176816731024109 0.03355811216313205 0  0.02381235457106664 0.03213987818554703 0  0.02576441645801592 0.0305973012629859 0  0.02761680082286987 0.02893634932588999 0  0.0293623411503784 0.02716344827463544 0  0.0309942842841156 0.02528545711897305 0  0.03250631655313001 0.02330964144185204 0  0.0338925881983111 0.021243645290291 0  0.03514773600397075 0.01909546160204508 0  0.0362669040470829 0.01687340128248249 0  0.03724576248390638 0.01458606105130621 0  0.0380805243013092 0.01224229018351549 0  0.03876795996798665 0.009851156273280055 0  0.03930540992889055 0.00742191015317973 0  0.03969079489453106 0.004963950104530374 0  -0.06998656734335579 1.214306433183765e-17 0  0.03245005292904324 -0.06200857632122375 0  0.03245005292904329 0.06200857632122368 0  0.05811306002301816 -0.03899353213400074 0  0.05811306002301833 0.0389935321340005 0  -0.0614006985570547 -0.03359537127574802 0  -0.06149337361087821 0.0334088191180815 0  -0.001313965901807587 0.06997866514090914 0  -0.001313965901807505 -0.06997866514090914 0  0.06972560686502331 0.006124628316654578 0  -0.03774126024851665 -0.05894751496880801 0  -0.03808338075569135 0.05870987413577541 0  0.06143651450757763 -0.01579542206100906 0  -0.01768495131351921 0.05777361089201642 0  -0.0270257026342554 0.0753923004698188 0  -0.0226559397411065 -0.07479351566734128 0  -0.01544619427472729 -0.05704403063681404 0  0.08006005680817838 -0.01109279628746893 0  -0.07678421468108006 -0.01963207251585974 0  0.01819706638388378 0.07713105968647066 0  0.01818802148393595 -0.07713957693250836 0  0.07477269863186765 0.02627670184075708 0  -0.05793766135890995 -0.05407950061771848 0  0.05305899084771906 0.05902695410766332 0  0.05294899258748845 -0.05905065620622491 0  -0.0769053071338312 0.01966386569195777 0  -0.05811923894227312 0.05424998029076553 0  0.07481497666866632 -0.02954919507944274 0  0.05594414913483169 0.01974145655650267 0  0.01360861339007487 0.05769280538436207 0  0.01386466450392642 -0.05877752536996507 0  -0.04333410106278739 -0.04045098706500817 0  -0.05742343971543853 -0.01468409703162691 0  -0.0588742204274415 0.01495899781358035 0  0.03952757256389367 0.04408505394733586 0  0.04047985437240069 -0.04514689917380526 0  -0.04474249291083507 0.04139060397238147 0  -0.01208747647071522 0.08257551643608128 0  -0.009453923215504862 -0.0836049573949452 0  -0.03852746298672921 -0.07479955495941547 0  -0.07220744243311707 0.044342068220831 0  0.07341580798549906 0.04176997754694946 0  0.03547569288185422 0.07698440347114292 0  0.03370888507348145 -0.07748209785908156 0  -0.0842839259438385 -0.006042395094819011 0  -0.07103954438340117 -0.04575970436753495 0  0.004472491512019985 0.08438206615816649 0  0.08343403546471255 0.01339940845353156 0  0.06670994142375392 -0.05190030698467803 0  -0.04925266227520228 0.06905476415296757 0  0.04935361698307481 -0.02590149835915781 0  0.05572187132090311 -0.001107133031022894 0  -0.0549634953997115 0.0001368371151642747 0  0.02515897928532421 -0.04887949184798984 0  -0.0480400985349139 0.02674317227970866 0  -0.00116039428977392 0.05495967742341172 0  -0.02839196228457421 0.04717835190763474 0  -0.0295341908877247 -0.04637209864574163 0  -0.04836057252932541 -0.0264639912093236 0  -0.0006142638654187461 -0.05492640408402512 0  0.04559816181106224 0.0304716564863607 0  0.02553348161160179 0.04891828448878084 0  -0.05019243023087302 -0.06627549921811884 0  0.005425672478876339 -0.08489828200858582 0  -0.0747879517700068 -0.03288851003830767 0  -0.08138651266826472 0.007038037889352589 0  0.06646876399212594 0.05421027478108619 0  0.0468004146564549 -0.07189016129119961 0  -0.01537338591095633 0.07028451219662128 0  0.04807604623124948 0.07173502711632107 0  -0.07980211768721672 0.03300157252289304 0  0.08668103374375552 0.0004736135418857458 0  0.07584863745462087 -0.04256911812381235 0  0.04976344998262112 -0.01411525989072652 0  0.06889051095299815 -0.00608686931135483 0  0.06282226283528659 -0.02783107069576772 0  -0.03967969833779045 0.0776264180144704 0  0.08491550486612112 -0.02284799552895432 0  -0.0299341486488948 -0.08350585218032991 0  -0.02616395839109708 -0.06302955488379938 0  0.02689936164202104 0.08447809634001227 0  0.03882733308490768 -0.03374030779548205 0  -0.06928957884086341 0.05556127383282162 0  -0.06019578209019067 0.06530366532148324 0  -0.01287834556555787 -0.06842609944113495 0  0.01610504187468677 0.08776322040220855 0  -0.08523768631708353 -0.0264036584531565 0  0.02479892601655156 -0.08571875817638105 0  -0.06210302479101436 -0.06407732563268377 0  0.08190612208144769 0.03470749789702694 0  0.08560983114341024 0.02421433791278758 0  0.06290467063330456 -0.06329957464108621 0  -0.0350142323181285 0.03668723485510315 0  -0.02368058333350049 0.08586453102710874 0  -0.08750838730016068 0.01776259739745772 0  -0.04814854491269689 0.01597045658338778 0  -0.06151312487883178 0.04410572959656218 0  0.06703031477209553 0.03340468471677908 0  0.06241770054949806 0.06400693401479494 0  0.008583906642621503 -0.04968528100107254 0  0.05074210138172597 0.009371438628063529 0  -0.06947701481045351 0.01122839994756783 0  0.04201809903327243 0.05542761904038905 0  0.05048705324996072 0.04762335197991203 0  0.02209032005823411 -0.06653078380844964 0  0.02678451147275296 0.07094676953209635 0  0.008068131697382075 0.07457351165275765 0  -0.06565510276483517 -0.02282675225848124 0  -0.07441413001151688 -0.009459833166577771 0  0.007998237352069688 -0.07475412048025659 0  -0.06074149820257932 -0.04401872156094191 0  -0.04775702755979237 -0.05617150903586737 0  0.0733030343645734 0.01593672016893632 0  0.04293276916370573 -0.06214605748078646 0  0.05134644451314737 -0.04794469830388041 0  -0.01056781993017976 0.04964187641279369 0  -0.07053266275759341 0.02803136936719968 0  -0.04857075436746807 0.05858888409110611 0  -0.01971079053399246 -0.08701776570468653 0  -0.00839595078554149 0.06239597167805372 0  -0.02792228153475062 0.0574113175820721 0  0.0305651384929792 -0.0400206195685537 0  -0.08651990736312223 -0.01614062712035566 0  -0.06815294581644957 -0.05569015157666258 0  -0.03476403108586325 0.06851561182746595 0  0.0486027721957277 -0.03588020600376078 0  0.01745455298733183 0.06704564642195232 0  0.06515406646463259 0.02359784880191801 0  0.04591026018370538 0.01964711891351225 0  -0.03931977897225651 -0.03111169712535426 0  0.01544783823182258 0.04770196523485212 0  -0.04943994169168708 -0.008394564536333023 0  0.03552417387343672 0.03497593847870404 0  0.08279604581102708 -0.03546656547294368 0  -0.008987764690274437 -0.04927860440047284 0  -0.01908737219171296 -0.04659811342584656 0  -0.09010189591300108 0.002255956929087923 0  -0.08012851067622299 -0.04127065724950859 0  0.08975754863206434 -0.01015388089922322 0  0.01506686368347072 -0.08638135406409872 0  0.06375164796061442 0.01386089628322868 0  0.05538264662045665 0.02955292557957481 0  0.02335165625779358 0.05844351905052514 0  0.005075364255479522 0.06253371808320277 0  -0.06473553796187069 -0.008223732665151553 0  -0.05183021694769929 -0.03560754170601165 0  -0.0389224475932976 -0.04921084900747802 0  0.07210188044249891 -0.01880467387643149 0  0.06770469641651031 -0.03646545109011803 0  0.07746140285449996 -0.001927012313360477 0  0.005061058791617463 -0.06273261388256633 0  -0.04865450271079136 -0.07599274661097224 0  0.03779457900618044 -0.05421092669455942 0  -0.05749709348440186 0.02456531530982541 0  -0.03816631552314975 0.04880194075828648 0  -0.05007729924232315 0.04922831669849498 0  -0.05377161367509293 0.03877155040517369 0  -0.003941400462012765 0.08991423028711561 0  0.03930055645935576 0.06841809145752009 0  -0.06252256500181767 0.0052870403229005 0  0.05503833866200213 -0.06794316858181491 0  -0.006157549727139689 -0.06221111859382813 0  -0.03443189875188435 -0.03874504882734385 0  0.007147116257818061 0.0513385886672201 0  -0.04879638085089756 -0.01742307287068009 0  -0.02409488215149309 0.0662333177545114 0  -0.03301763037381532 0.08434299277592709 0  -0.01955535982544661 0.04895614695646194 0  0.02278059870066571 -0.0575584004218903 0  0.03759566331304698 -0.0693779268302261 0  -0.02447375225406536 -0.05401791209718183 0  0.0491281122725775 0.03873809372369923 0  -0.05111347755912002 -0.04674473066109774 0  0.03339520513198932 0.05313676783689535 0  -0.05723486323817333 -0.02572484465345961 0  -0.002542216169400841 -0.09032726190884535 0  -0.06655170900653021 0.01984682782199843 0  0.05966115067569767 0.04804593834123493 0  0.07512793504672988 0.05088595183936358 0  0.04218550750668038 -0.08066064481425569 0  -0.04867025486503902 0.006811584185340949 0  0.02806441402997909 0.04018118206339669 0  -0.05679756037279612 -0.07174673509787136 0  -0.08675861741247799 0.02695144028589051 0  -0.03059323906289459 -0.07075539526678994 0  0.01328677519505491 -0.06763067167018473 0  0.05889998773341746 0.006825777828353004 0  -0.01541121175944634 0.09033705827482215 0  -0.003335799179820968 0.07915495462529623 0  0.04566632234502076 0.06297029375253142 0  0.01670926109632313 -0.04594630746722656 0  -0.0194389467636038 0.07873925834148528 0  0.04831975604509849 -0.005585268402995154 0  -0.03948588609287455 0.02831455373709799 0  0.0803816969369887 0.005761926613350917 0  0.07544912702149857 -0.05131853067549708 0  0.09076149321945608 0.008369362434232034 0  -0.06938627593799603 0.03639041263057856 0  0.0003446870887761368 -0.07821145866531004 0  -0.03949306122734654 -0.08295474013743298 0  0.06376924502438545 0.000271964637715518 0  -0.08051279435459996 0.04405254797349469 0  0.04428403712892114 0.07974660402392861 0  0.05697537019005934 0.07107869342119041 0  -0.04950672684456367 0.07732382285356537 0  0.04143171380864821 -0.02420785752921625 0  0.08142269478674555 0.04276098326923117 0  -0.0696959541768233 -0.01592137534202213 0  0.02602154184817439 -0.07399892963009662 0  0.03300419823571188 -0.08565728517079582 0  -0.01267517256673808 -0.09104322065931526 0  -0.09163061137919636 -0.009205800415907826 0  -0.075966967746793 -0.0520591299302673 0  0.008745410753671152 0.09138241751705048 0  0.0904758041050172 0.01718877489754434 0  0.04605429756260323 -0.05449367499633444 0  0.07006530781919412 -0.05935515186969943 0  -0.0164293900853683 -0.07976028078149644 0  -0.007912295244087413 -0.07528144687313945 0  -0.04155842679606925 -0.06670371395554074 0  0.05971871910422314 -0.04724051435632384 0  0.03295165997275856 -0.04755600338349701 0  0.0607968046993462 -0.007588490869325963 0  0.05672267478460337 -0.02243575912817373 0  0.05534404046717815 -0.0313698482964491 0  -0.09118542921256143 0.0104073837950568 0  -0.08259488450756172 -0.03380684233369356 0  -0.07621928470283093 0.05137449658330791 0  0.03495047878590556 0.08503784737010023 0  -0.05654862206109509 0.0725015555649839 0  0.06563618015419546 0.0410886429837037 0  -0.07745187380958746 -0.002272002557048859 0  -0.0668569089113691 -0.03917295644237478 0  0.06012039058254657 -0.05603536815949085 0  0.06682179111273007 -0.04415803230647423 0  0.01173641732515871 0.08138173544733555 0  -0.02749853105663444 0.0392787601733643 0  -0.04339089057330893 0.06418153484462169 0  -0.04174144946830299 -0.02267776921522447 0  0.007517392791431895 -0.09219727472662854 0  0.04877730744935543 0.002015139449145881 0  -0.04263990771950145 0.02130190613744949 0  -0.02581380348546347 -0.03979492165675746 0  0.02314329860032944 -0.0415704149843221 0  0.0005644473219098272 0.04757671347048902 0  -0.04752236493307511 -0.001099272319393511 0  -0.05723360526075109 -0.007100990311825808 0  -0.0007372359527751215 -0.04739941542746147 0  0.02988987321124637 -0.05484129452636972 0  -0.03217266710697684 -0.05361594504551095 0  -0.04759086942614286 0.03433695055564995 0  -0.009850537908628674 0.07539275342905925 0  0.07449550889350909 0.03374448275801517 0  0.03844739706888876 0.02799627347094999 0  0.07926231215375258 0.02036413898295605 0  0.05352685907623867 -0.07535884423064608 0  0.0693799938521172 0.06115002830479459 0  0.02114179078452523 0.04291098836480825 0  -0.05385852304146922 -0.06004634489643469 0  -0.02031880766956276 -0.06769155498297313 0  0.09275387028034528 -0.00352743479490103 0  -0.04397744001909126 0.05304808921184814 0  0.05928940127436576 0.05529765927112057 0  0.04235788802224489 0.03674222649104691 0  0.03211406890634246 0.04608939844287693 0  -0.04133881871997477 0.07084974321568156 0  -0.0558431888622089 0.008291594907253529 0  -0.05437722869859659 0.03140295113341075 0  -0.08666030672416902 0.0341607682747259 0  -0.06754943295364683 0.06305236395176382 0  -0.06420444878282019 0.05064600450666373 0  -0.0800797325022643 -0.01350200307046746 0  -0.06512372870896793 -0.04942484962387104 0  -0.03308326640468124 -0.06419525476281181 0  0.0509503562674874 0.07799868272224836 0  0.05088320999017278 0.02437362474359859 0  -0.06186841130006778 -0.001756727088938264 0  0.05212637411860596 0.06599223127849969 0  -0.0758551465548417 0.03857161153528673 0  -0.07728638688917562 0.02656453105781019 0  0.06901042874040621 0.04731614854147033 0  0.01209081939330987 -0.08022834492702642 0  0.02879762905733919 -0.06776883329478905 0  -0.07252273783741256 -0.0257688700069788 0  -0.06798299348138545 -0.03113342863152764 0  0.08540659998240552 -0.01576478684458103 0  0.09107762165498197 -0.01971660051192489 0  0.07888060262479123 -0.01783778264137775 0  -0.02101058538737041 0.04205203247204813 0  0.02853721980163433 0.07769804383952866 0  0.006097234024811876 -0.05601312651655101 0  -0.06406287446290723 0.02611783169745915 0  -0.001652666466643635 0.06171895968878483 0  0.08280710566796375 -0.04242648654455569 0  -0.05520778814995713 0.06051881689163272 0  0.04878535634345588 -0.06546266704950092 0  0.08762521040595288 -0.02979040797273121 0  -0.07358753880896149 -0.03952033158530712 0  -0.08355506509624344 0.0006572725982623194 0  -0.0765975335072808 0.0124464726089248 0  -0.07437075212242336 0.005650281970764949 0  -0.03355784225688236 0.05371767913478674 0  -0.0397780270241519 0.08438623786987118 0  0.01996659401801459 0.05265564664413087 0  0.08324594977910743 -0.00523826898986081 0  -0.04532178301218006 -0.03406423227363382 0  0.0391116827288172 0.06175428610180631 0  0.05715192977114623 0.01322179417067201 0  -0.007203193524788258 -0.05566400624882614 0  0.01155049363901407 0.0640062717887698 0  0.01467622949595748 -0.05222652086307909 0  0.04431051323056184 -0.03011637964737275 0  0.0730343874594469 -0.01180485345898147 0  0.08782854990310655 0.03086480307835775 0  0.04362427948409541 -0.01753253953440165 0  -0.007899981135557593 0.06903126897775619 0  0.06077941009137214 -0.07111847207522007 0  0.07430749395265296 -0.0361404775349153 0  0.01917689710360056 -0.09153386810741997 0  -0.03022576374442375 0.06365192989824307 0  -0.09113171064126471 -0.02088595389986929 0  -0.06992221470387189 -0.06206593718954045 0  0.02628010224027002 0.06436237613591253 0  0.0693153194020964 -0.02522310988180461 0  -0.007804417154895806 0.05573327137031357 0  -0.01465862724625466 0.04429141075050969 0  -0.0633266293272688 0.05812376701644441 0  0.02272742733823086 0.09014652663237405 0  -0.03361629349580383 0.07501637387025377 0  0.05417379459149623 -0.00898164500726437 0  0.08124625995381186 -0.02828016639136692 0  -0.04112674628581191 0.03457134248012378 0  0.002114857739043876 0.09312960480868794 0  0.03280303257219402 0.06849698492542212 0  -0.02880237048318755 -0.07705508570690404 0  -0.02622076595311084 -0.08933232046192494 0  -0.07890195863430308 -0.02565067603650505 0  -0.01788576725551893 0.06427971226984398 0  -0.0215208549882797 0.07210540527182764 0  -0.05178750028066803 0.02139399278548309 0  -0.02273551815530162 -0.0812795959156261 0  -0.05510363187817231 0.04512311765167743 0  0.04787809297667704 -0.07805661264563121 0  -0.03830210234431656 0.04229919312132042 0  -0.002946917152164814 -0.08382899016142284 0  -0.04543378676986898 -0.05003337861528285 0  0.005010030226422055 0.06894181571284239 0  0.07622676983507561 -0.02347790134875208 0  0.07753235359114227 0.01132935198161774 0  0.04113191670208687 0.07437285290669497 0  0.00500963441577503 -0.06911474754758427 0  0.0520470615970408 -0.04144114076752871 0  -0.08516160298377125 0.0119926593961843 0  -0.06365395462762366 -0.01436779798456449 0  0.0428005903609391 -0.03898768473082535 0  0.002923209533540268 0.07825080130958974 0  0.06601422101359834 -0.0199758294344792 0  0.03668190164106307 -0.03949274763503822 0  -0.02122082205138916 -0.05929235261452147 0  0.06192763949672078 0.02929803057401432 0  0.06664242756707789 -0.01207662140751486 0  -0.08279677368594171 0.02200316051505146 0  -0.05479734149791809 -0.04139015003580638 0  0.07128774460655705 -0.0001165033540214992 0  -0.03449346102640302 -0.07941195026368761 0  -0.04565394715219033 -0.06202392461250892 0  -0.03173783549956323 -0.03325428968957449 0  0.0322347854909872 -0.03364225161947754 0  0.009492565610376954 0.04540050212590254 0  0.03939032901521582 -0.07522279165404069 0  -0.04372982881275756 -0.01405845281344588 0  0.04653341975842082 -0.04413668250739122 0  0.02886780927619115 -0.08118277064025732 0  0.04488645876139629 0.01289184906193588 0  0.06193404504518499 -0.03403093717785608 0  -0.05624314502250329 -0.06569342313904748 0  0.09364535663692722 0.002737095974470864 0  -0.01779185847933554 0.08454490923280543 0  0.01401209351002543 0.0723691283954639 0  -0.04550239211680588 0.08203972844753123 0  0.05468014449232542 -0.05313225768904487 0  0.0453329265794419 0.006875637121625307 0  -0.02268451572699455 0.05422703315471977 0  -0.01653338111155323 -0.07350433105268091 0  0.02633098757353688 -0.06234428950855114 0  -0.05246760201277161 -0.02213100339144716 0  -0.03399228971324091 -0.08784019742269267 0  0.0553792636972761 -0.01648880119546227 0  0.04901252591279175 -0.01998939326097797 0  0.04438490545330194 -0.01167583570479259 0  -0.04156553361156793 -0.05447147043090705 0  -0.0883702829862336 -0.03169524640566561 0  0.07209663854731105 0.05592988667215044 0  -0.08566068119300894 -0.03895932369043689 0  0.06289216418655266 0.07000212641905795 0  -0.01611652493424148 -0.06317595423948932 0  -0.07377416664835494 -0.05756365029301581 0  -0.09277098843976522 -0.01510524161154446 0  0.05362711707455025 0.05290698546366521 0  0.04810784256279574 0.0554809769527894 0  -0.03630604911317315 -0.06935259563524111 0  -0.04607953117878861 -0.0706048855798258 0  -0.04380614192375626 0.04718300041126488 0  -0.04451796310108151 0.01116935540063433 0  0.01335275392627783 -0.09196415034307694 0  -0.00549749658621237 0.04593662807678854 0  -0.006947868715195015 -0.06809785745110937 0  -0.08241983154524231 0.03838156924559503 0  -0.008812322792550594 0.09359974899738811 0  0.03386553905276372 0.04054691146910997 0  0.03879358183863874 0.05019092817012121 0  0.0443898872774522 0.04776660949326481 0  0.05096429059607459 0.01574977354359051 0  -0.06998550698773945 0.049753230901393 0  -0.06307085767752474 -0.02803049584787451 0  -0.06005975877831269 -0.02025110974086338 0  -0.05467235562185346 0.0670279038773428 0  -0.08059069518350567 -0.04764581283195943 0  -0.08967547362237746 -0.003633742401037453 0  0.07942253607962346 -0.04711613472012377 0  0.03654844119344293 -0.02799568767153337 0  0.0552441625950847 0.04414273043878637 0  -0.03405305501101855 0.03079344889448413 0  -0.04323984853986065 -0.07837635190382239 0  -0.04902920525956609 -0.04136627599312706 0  -0.01014876292302107 0.08799816898369427 0  -0.0228027106326001 0.09156516574255946 0  -0.02901204446170631 0.089171934112328 0  0.02845960515947967 0.08999590298961525 0  0.02315359140475103 -0.08014992201633515 0  0.02322522761232788 0.08000268025318338 0  -0.0351882538663214 -0.04461679781101182 0  0.004515319973755803 0.05664081502593465 0  0.02910010273591571 0.05716544178835353 0  0.06775962819443392 -0.03073677807215871 0  0.0142115565339182 0.09320531839539947 0  -0.06400851499671716 -0.06943992578762287 0  0.02893186669075215 -0.0897330036917356 0  0.06843718239906947 -0.06487134112935201 0  -0.01311101449522722 -0.04444727042611293 0  0.01819312103416386 -0.07111935275228566 0  0.01881461480886656 -0.06176602714898916 0  0.0865423221163662 0.0379269974515743 0  0.091321719430296 0.02297255554040156 0  -0.09113529607308023 0.02268354792286258 0  -0.09293987347565634 0.01588119726207515 0  0.05847531967546755 0.02480811510051451 0  -0.08107305274652193 0.0158708803817605 0  -0.05311388479363206 -0.02989035941086926 0  -0.06217280428633474 0.07082836979776719 0  -0.07253743250396934 0.06026339436191813 0  -0.06463150710703543 0.01438938999421838 0  -0.07167593747355799 0.01678044243867404 0  -0.071592353178787 0.02245549992579055 0  -0.06831321306013521 0.005549823925109157 0  0.004686731671777439 -0.04542942412041075 0  0.01053064191909086 -0.04431849436456769 0  -0.0004699548386188834 -0.0607876479182983 0  -0.03259745610780364 0.0418722571106197 0  0.0719355679339361 -0.04677426926698767 0  0.0539384688725881 0.004210411897444317 0  0.04349048859214111 0.02499411894604862 0  0.06779959741623696 0.01824733975246985 0  -0.02018160634819349 -0.04095313698994424 0  -0.02853743787374947 -0.0579200624274735 0  -0.006612995993403636 0.08367616522663479 0  0.08239844423699705 0.02898105174576343 0  0.05372630705131826 0.03514712084515204 0  -0.001083421836385274 0.08423593138280414 0  -0.01890816986803708 -0.05239321717160156 0  0.07767687087715677 0.03825785927922123 0  0.08513047986264922 0.01868444307601463 0  -0.06398430056160076 0.03875269322995219 0  -0.05006442172588676 0.04286445938965446 0  0.0204618729107913 -0.05225763176787618 0  -0.02471393408388179 0.08042423479418723 0  0.04454547015658458 0.04180232739573563 0  -0.07408622055331859 0.03313469131702067 0  -0.08701911681108107 0.006813465277529821 0  -0.02900995043899773 0.06933555033335491 0  -0.020571643368322 -0.09241248864359543 0  0.03128360873878639 -0.07261011905389132 0  -0.007390807307147672 -0.09376899448412897 0  0.04205482963035624 -0.05054327418428556 0  -0.05332235432782487 0.01346023949960465 0  0.064264239542108 0.005725480259304759 0  0.01705339463821139 0.08242792419025832 0  -0.08272497841483667 -0.02087811764650959 0  -0.09075029446789504 -0.02638538154032679 0  -0.05929086078668539 -0.05938233511257414 0  0.07560585037759865 0.003176774953718888 0  0.07612246814908431 -0.007257895871108113 0  0.05799484300228572 -0.0610157573348908 0  0.01313297817096765 -0.07304135368374548 0  -0.04783106820005317 -0.08146404419639987 0  -0.0143921453566708 -0.08588302398330325 0  -0.01531836812239284 0.05266448577369731 0  0.06740991083902159 0.06626095069714857 0  0.03895304609125894 -0.08565464030900259 0  0.04047695025033332 0.02038671443974606 0  -0.03056619992859388 0.07950311561005921 0  -0.03675936030570225 -0.02635941562180051 0  0.03897332607305033 0.08125635357425923 0  -0.03004581724324732 0.03447223084111337 0  -0.02569179060212302 -0.06843284178058259 0  0.08527817190650981 0.008233716513345889 0  0.02978580607241215 0.0347001479577241 0  -0.05907903788732154 0.04893123419176434 0  -0.0668365370797806 0.04529843095960233 0  0.09096723001526018 -0.02530726253075483 0  0.07233830245596257 0.02134827705613786 0  -0.01078247907408284 -0.05959271281197041 0  0.001958968126767387 -0.09410594526570756 0  -0.02236566653085602 0.06088528679118962 0  0.05822890807801549 0.06059504658672149 0  0.06347819374584832 0.05870954669919402 0  -0.0945060613455522 -0.001023197118362013 0  -0.005615293521590647 -0.04503389157848407 0  0.003415553906051836 -0.05130677816525821 0  0.02092192763388343 0.07186040909261029 0  0.0574573353853338 0.06581955570596555 0  -0.0122467363887987 0.06601999178992735 0  0.06913280329036854 0.02791953536004435 0  0.07059311869284915 0.03730485465250828 0  0.06169860854078501 0.03480607225877728 0  -0.06615097217260421 0.03095198966660063 0  -0.09475006419446039 0.004747650324420722 0  -0.05301309440057984 0.05568902568706506 0  -0.04863133615720142 0.06384009186394686 0  -0.04333030878357557 0.05893032707178093 0  0.06532249546649978 -0.05700731968331182 0  0.03766821278896257 -0.06384614653818049 0  0.04298061950795865 -0.0677666926115453 0  0.04784736319650561 -0.06029574859185451 0  0.006868260720982095 -0.07986584048159284 0  -0.02427873901593976 -0.04500404167209551 0  -0.07269605280126017 -0.004497908149900209 0  -0.0749526913448295 -0.0146965799212681 0  -0.07953166453194008 -0.00827858104670439 0  -0.0595358247168174 -0.03870995163450146 0  -0.05676249717949508 -0.04833090436738695 0  0.07227899622536822 0.01075187828382246 0  0.009452830834206147 0.08614637635401909 0  0.02111618546464378 0.06323342824902521 0  -0.04452380198935689 0.07522095364325022 0  -0.01357159647550056 -0.05203469572134286 0  -0.06593345597047309 -0.04428928982839402 0  -0.05435881736013209 -0.07700111933217886 0  -0.05281191912413634 -0.0549531095525176 0  -0.04425632351948018 -0.008878942888106117 0  0.0275816044916487 -0.04427890738650314 0  0.02606980701606995 -0.03703903643341059 0  -0.0123452513077453 0.05868773227830455 0  -0.00748714876967712 -0.08849714388710068 0  -0.0379651433875754 0.06413453645676256 0  -0.08477070613872961 -0.01123127567024247 0  -0.06292778389260738 -0.05563017511763545 0  -0.07011609144250516 -0.05087603775355418 0  0.03699734802838825 0.05695205414114284 0  -0.06067920567029073 0.01011578155203138 0  0.08803661595873659 -0.03503278231745239 0  0.09326978118725286 -0.01454151306261368 0  -0.04232051675212439 0.01600238447256254 0  0.08110917706341539 0.04842112626610963 0  -0.07172652677158005 -0.02066795715575995 0  -0.02861071641574502 0.05231565418415487 0  -0.03286590978808657 0.05913199432157904 0  0.002390096392847132 -0.07351589164739764 0  -0.05887633050111019 0.03788117690789409 0  -0.06095794675373663 0.02015958200344757 0  0.01841577610167539 -0.08236442629826403 0  0.07087091174273401 -0.04072580676989814 0  0.07657022438434272 0.04589629693985607 0  -0.04327155359134807 -0.02768175104346754 0  -0.04059514485059304 -0.0360958907946357 0  -0.05280045492970665 -0.004516508403579523 0  -0.05387309202273152 -0.01097904644457931 0  0.01580703451823885 0.04234981438869992 0  0.01487603483492967 0.05276141385850958 0  0.0216870421235522 0.08501133290638774 0  -0.01515903925865543 0.07559244188485778 0  0.03128355706468912 0.07338191439520177 0  0.07519990221252915 -0.0569732221559996 0  -0.0761987877567904 -0.04475988482571418 0  0.06189771151551486 -0.0425364727642075 0  -0.005160239880000981 0.07335110959788554 0  -0.07859310981618894 0.002732139665602147 0  0.0428113343434885 0.08466159064909577 0  -0.004206175132736575 -0.05122058803570562 0  -0.04427769450100762 0.030330774557153 0  -0.0704771563159135 -0.03553277440735893 0  -0.00268765153209829 0.09486401794335353 0  -0.005631521993331084 0.05107500697747326 0  0.0502058666439557 -0.03098322798758209 0  0.05362677140154156 -0.03661559590139001 0  0.06160874197277385 0.01913901198902945 0  0.05824896035438266 -0.01191548646607126 0  0.03367393670720636 0.0300990375244256 0  -0.08442882373885878 -0.04378716049984682 0  -0.07780435484760397 -0.03685905618729811 0  0.07925519459585566 -0.03895216148473971 0  0.07833997545717268 -0.03313577290800228 0  0.04494101389261726 -0.001398335742087412 0  0.09386117639373673 0.01300502336055745 0  0.02405229963717094 -0.09062215665898175 0  -0.03852820247230394 0.05375928374121122 0  -0.03346378626893387 0.04687852957724045 0  0.07123639398812946 -0.05396569663294485 0  -0.006069940172385569 -0.07992719677817629 0  0.06457267228365841 -0.06795123852669953 0  0.003454221660572667 -0.08941246900351198 0  -0.05146836124703961 -0.07145776394423813 0  0.05042500082070928 0.02931574482925945 0  0.001278655602989493 0.06569939045309911 0  0.02074931979854918 0.04780684968792507 0  0.00882626630937712 0.05920417930141044 0  -0.04268435759713883 -0.04561459478800116 0  -0.09010199176233012 0.03060236683485461 0  -0.05641196223139265 -0.03363357121045073 0  0.06669982183219679 0.009962796566476912 0  0.01853333465148438 0.05737771494874582 0  0.02473838961718357 0.05374866168265511 0  -0.06650954790033226 -0.003568162317044133 0  -0.06933677814951894 -0.01070574570076278 0  0.01036644002401938 -0.08485860132195699 0  0.03236481024799229 0.08082537203292513 0  0.09460047909771996 -0.008353083290143554 0  0.08483868184637103 -0.009899102300714689 0  0.03722631172960535 -0.08099384293241674 0  0.07793164916909336 0.05485146617132512 0  -0.0529961122161015 0.02664219646797649 0  -0.05996856213353492 0.02877317533782411 0  -0.06035040294510691 -0.01081689433038324 0  0.0466337801665621 -0.08286066213548106 0  0.0881929664070677 -0.005455758135093487 0  0.0009616678901688326 -0.0655533752030007 0  0.009084758058472447 -0.05991345131405951 0  0.04683044057943704 -0.04970811900731736 0  -0.05520454641656903 0.07739961165281127 0  -0.08101675923630228 0.04926787498628637 0  -0.002749461617239342 -0.09514439058197334 0  0.03902471820792242 -0.05904549857994266 0  0.01015644865360517 0.06896032100655131 0  -0.01267140748428501 -0.07656897364125367 0  -0.07612844323004812 0.05654384445236316 0  -0.00409645109333707 0.06595596760032411 0  0.05532153582082679 -0.04508341115769449 0  0.06121671948247896 -0.02063269188701483 0  0.0162180937416796 0.06219342170916771 0  0.02433707994520859 0.07529124115722005 0  0.03754170303532031 -0.04893244424411842 0  0.04103536998724439 0.03208634485551529 0  0.008714413663490629 -0.06595332499035418 0  -0.0550969475590435 0.01791889222070533 0  -0.03379078409138198 0.08906009918020592 0  0.003390807144786905 0.07346722699975169 0  0.08165283610503843 0.0008801021871569169 0  -0.03820305775053155 0.02352198327829904 0  0.04907475881228837 0.0339303241010102 0  -0.06525363371184037 -0.06012110438893714 0  -0.03304619283325522 -0.07485711630149339 0  -0.03346302672195178 -0.04904351003764627 0  0.04846233962049063 0.08209589629199594 0  -0.05448239871195774 0.05112398437988906 0  -0.08195336034431711 0.02845070086840162 0  -0.02824405670369182 0.08445911284911077 0  -0.03543456717789012 0.08007802635994418 0  -0.06467994293613073 0.06681509505849462 0  0.0340705175479855 -0.05738884657490226 0  -0.06663398898668979 -0.06548717879294187 0  0.001589651543472812 0.08829656773638457 0  -0.08512261304191349 0.04244659950365449 0  -0.0369174848935982 -0.05351249092154049 0  -0.04867186967226423 0.05376433283883079 0  0.05831134384843293 0.07558391883313396 0  0.0368099079097258 0.07244307332532388 0  0.04358090937358669 0.07036068211784618 0  0.06448265088999322 0.0495624701580918 0  0.01034745004006497 -0.05403082638416412 0  0.02334723335353977 0.03836127744954423 0  -0.04492946142354044 0.003315675515831173 0  0.007102500254086458 0.08045612797282896 0  -0.009831296870474487 0.04373994755674563 0  0.03818106510828941 0.0387993670104238 0  0.0122434994246593 0.07671616652978577 0  0.01754933736944352 -0.05590822534608827 0  -0.06885177391337627 0.04105633688898158 0  -0.03302558019186695 -0.05945291943399292 0  0.0360119585716881 0.06517672160228292 0  0.07770056882406082 0.03012441361491015 0  -0.06123830052060816 -0.07320431453302899 0  0.02330746364125745 0.06790161771622956 0  0.0201379580349986 -0.08683778423549289 0  0.04388957521302178 -0.006881471667833469 0  0.0779273226508877 0.0159367418714858 0  0.005185187608350147 0.04713140739331501 0  0.01811997256431983 -0.04110248043015127 0  0.05987744243547029 0.04335037346231571 0  0.03333488113244955 0.08945197995810157 0  -0.04354905369035588 0.0257999690285694 0  0.05267391691546097 0.07341644363675072 0  -0.05288937493819409 0.004485409903264731 0  0.07945666559060105 0.02517255913230959 0  -0.02592001078207245 -0.04947757784226973 0  -0.0101115463455466 -0.06467669945005497 0  0.07030921320421711 0.05171055499480728 0  -0.03857683100434901 -0.04119571794229548 0  -0.0472219915449523 0.02052469130841563 0  -0.06558660998908217 0.001700530092672462 0  -0.0591984628426587 0.002043489941326408 0  0.05310038260732956 -0.06370679429095047 0  0.05076489011538611 -0.06959422998368169 0  0.05953922021903577 -0.06658309203894147 0  -0.01842713070173655 0.09378923276655163 0  -0.01371042411367003 0.09459388774894806 0  -0.04915117189272384 0.01142696100263515 0  0.0276612303829961 0.04479951618857325 0  0.04765379364399961 0.06713749445274288 0  -0.01621684025170805 -0.09407250166994442 0  -0.02456497102439261 0.04991461958600128 0  0.05827691728906362 -0.07553929468117074 0  -0.03131700289566754 -0.04213087510504343 0  -0.03627771524463495 -0.03454537521689323 0  0.002677415618506251 0.05242429042664286 0  0.0105990728386359 0.05429075428049692 0  0.01142407825411184 0.04980924824523277 0  0.08572195013459906 -0.03894188530626484 0  -0.04818779613958982 -0.01284250137353058 0  -0.04789589964698891 -0.02191062910421982 0  -0.0529176881188921 -0.015448135314602 0  0.01845324486816334 0.091630689643525 0  0.05419029597595747 -0.02661839777099273 0  -0.07436525025539562 0.001128514704353429 0  0.02489988368680081 -0.0534738306221778 0  0.04327094903797553 -0.03450359194173075 0  0.09515551775103123 0.007064775676378125 0  0.0800919100143261 -0.05172868249423319 0  0.05359629915368344 0.03972009859746364 0  0.04887800261160601 0.04332289593453578 0  0.03377937071804221 -0.06656151014009273 0  -0.02546985111750031 0.04350851933012775 0  0.03970025888063197 -0.01994140371347324 0  -0.08168003027017388 -0.02930694803708879 0  0.04399543773459179 -0.07555776814508097 0  0.02080610659284943 -0.04778167252928186 0  0.01282298426644831 -0.04815741470428822 0  0.02994970401298548 0.05012298989853857 0  0.05518299780556879 0.04866274894771192 0  -0.02677752634111559 -0.07307506717318227 0  -0.05898373908939599 -0.02983691483273852 0  -0.06525105056333784 0.009094851963615012 0  -0.007801540689713931 0.07936630693025595 0  0.08834790464113022 0.0127055119690894 0  0.08935423672548656 0.004094372510341277 0  0.0754067437188241 0.05893109489578733 0  -0.04328274061347454 -0.0853428853918045 0  -0.03895758153001457 -0.08740200548811375 0  0.03598383816429999 -0.04406428223176821 0  -0.04834109148859488 0.03874183845082442 0  0.01453159772567691 -0.06326649346832297 0  0.01764113727682288 -0.0667012534709356 0  -0.04943271605972438 -0.05202854162627941 0  0.05220585607184679 -0.07985560510093115 0  0.04550287790299366 0.0754203029873822 0  -0.0442815016013753 -0.01872472409630508 0  -0.04869778921959537 -0.03100643706516462 0  -0.03743583365173236 -0.06506098543281974 0  0.009336209275807941 -0.07043346206607527 0  -0.02991398618825304 -0.03755547485779127 0  -0.0006711654013366072 0.07548480759268347 0  0.06189645731487375 -0.05154765376069639 0  0.06457621209759602 -0.04799753654701899 0  -0.03782741203875382 0.07358148924751362 0  -0.0238963220567005 -0.0855577719511077 0  -0.003612815918302152 -0.07626459593346618 0  0.05057738810113117 -0.05514457054473043 0  0.06926981832446064 0.01403975726991373 0  0.05838098184797629 -0.02811661888179321 0  0.08062494685095462 -0.02390518081082668 0  0.04156331586099645 0.01598129204727353 0  -0.06586052605669805 -0.01831197042625746 0  -0.09502067825866094 -0.005800571553002018 0  -0.0803666334239939 -0.05203981187455612 0  0.04580189776314707 -0.02314051814586106 0  0.06844323037635608 -0.01619441922709696 0  0.04840661449936056 -0.00995773542278152 0  0.05279175050438674 -0.004620517536008591 0  -0.04105714193234778 -0.06213302103819517 0  -0.04036691302917672 -0.07087292336378356 0  0.08580202007184255 0.04227101740788739 0  0.09124972821727631 0.02765986730850969 0  -0.01927790710042397 0.068390161838007 0  -0.06724609238910048 -0.02686041413432256 0  -0.02005944164828617 0.08822480274404301 0  0.05025481518064968 0.02005540988106317 0  0.07356510001343446 -0.003781983937104063 0  -0.05971031365314456 -0.06842791454267159 0  -0.08916822455588222 -0.01274172558005832 0  -0.05581295735280992 -0.01885449342169401 0  -0.09540209332772633 0.009584707743576844 0  -0.04583674420293441 -0.06631589273572085 0  -0.03996988469707818 -0.01874685477229953 0  -0.04390112335824206 -0.05808996149611632 0  0.035980007778828 -0.08877250171387716 0  0.007792260065502386 0.09556839211851466 0  -0.005299822721981344 0.05931324562248878 0  -0.08084325950809096 0.01153437099000802 0  0.04509164667973881 0.05218151693734459 0  -0.0607289893327038 -0.05051446445857405 0  0.06521205300041703 0.04534633487973457 0  0.05795723474100371 0.00260039686123995 0  0.05517899296134159 0.009245698366083709 0  0.06072109167089509 0.01076037707520901 0  0.05694251490902326 -0.005704686702899311 0  0.0606348421445716 -0.003035000918400828 0  0.0645353466308432 -0.005175889716821409 0  0.03898995199709226 0.08712792520611391 0  -0.05240039619477151 0.07399668279558801 0  -0.03501336938921471 -0.03036383440084344 0  -0.02614635461681503 -0.03553056954592584 0  -0.02921821806525586 -0.06601872595703309 0  0.03544616522657732 -0.07357763591628716 0  0.04700490982488488 -0.03986729074582179 0  0.06353583446372156 -0.03829062502038733 0  -0.0470254592836527 -0.04523585124007123 0  0.001070753340294628 -0.08568396997004124 0  0.07170507284818252 -0.03262493174480818 0  -0.07716326847096333 0.04700823063808496 0  -0.07643055383891645 0.04280211656374495 0  0.06409000058530506 -0.02377006999542618 0  0.07223943420891181 -0.06299522251675135 0  -0.005119604271856104 -0.07199984333047946 0  -0.01122979465582918 -0.07245827076481835 0  -0.05970898043792901 0.06081882831039357 0  -0.02313632652813462 0.03804934362607536 0  -0.003613478624077152 -0.05793264583939502 0  -0.02184293408429433 -0.06360719914358318 0  -0.03522108929236556 -0.08368424166229482 0  0.02152866939907543 -0.07413229244459606 0  0.02495649444542273 -0.06979080132341139 0  0.02937299311389786 -0.07682684277051553 0  -0.04997820010743882 -0.06195602242312247 0  0.06746266030869658 -0.002047101696394709 0  0.06767118999851747 0.002294348359022671 0  -0.0465325128781219 -0.005259121023250811 0  -0.08738941623852078 0.03858167627890645 0  0.05240260068070795 -0.02267810378127839 0  -0.08692883403886685 -0.0203568885932187 0  0.07680571942502661 -0.01399934548908297 0  -0.01462713578415976 0.0485064211010494 0  0.002988213366843304 -0.08147658022771007 0  0.06245562286927559 -0.01147886028787756 0  -0.013989182850751 0.08631330881367094 0  0.04189782209815932 0.06500989725157882 0  0.04873894864982278 0.05982934445975748 0  0.04289045785248889 0.05965929798856517 0  0.0752887624309406 0.007555615440580534 0  0.04320228778991815 -0.05779314665351654 0  -0.06801089468934224 0.02466347749456348 0  -0.03532481494276896 0.02669928661093674 0  -0.08699937002308841 0.02193481367601367 0  0.08362107207093926 -0.04712264912326463 0  -0.06117434034551211 -0.02429213131106011 0  -0.04445609594130124 0.03713718333765844 0  -0.0261767472271483 0.0626065989367717 0  -0.07576695161742339 -0.02865685252053114 0  0.01056019944642579 -0.09521275688492419 0  -0.003394289166588908 -0.06557851895061169 0  0.02705923394580898 -0.05809417940409219 0  -0.01533506977025777 0.07983693370943509 0  -0.02283310322770573 0.0761608394701548 0  0.04467739300464806 0.002760419451948975 0  0.04115870661283436 -0.07148185286800685 0  -0.04337726703887602 -0.07402202328413701 0  -0.04986825185203452 0.08168881655917945 0  -0.05960998435371234 0.07529939188484047 0  0.05669518375867767 -0.07172521987036296 0  0.01399444767338062 -0.04192970637079663 0  0.03419901992407989 -0.05173788046450815 0  -0.07004299722334273 0.03231818242915329 0  -0.04056321234705147 0.03874551240604424 0  0.08138651832805263 0.009789025501654825 0  -0.08887000296743551 0.01384657457866501 0  0.05875247870910879 0.03192478612663098 0  -0.03049353261410873 -0.09060192170685609 0  -0.03915952493578407 -0.07885947438445789 0  0.04914376840036247 0.05150563184047801 0  -0.05342546900179829 -0.05082964058760533 0  0.02889868055797477 -0.08530339673259624 0  0.03315683057349742 -0.08155247676928928 0  0.01240180643241751 0.08952519467026565 0  0.005876926844132768 0.08832905950549988 0  0.08444169903408805 0.004075644678434028 0  0.007778922581153175 0.06561813361440265 0  -0.04799146976677719 -0.03730096378898509 0  0.06630143234073375 -0.06099413724582719 0  0.04295499524908248 -0.08470184556424711 0  0.04734244214493766 0.02653764358835277 0  -0.07190601043952816 -0.02999269366001553 0  -0.05686669533837418 0.04143792135226733 0  -0.06341562676540714 0.06268533267946591 0  0.03755809074370836 0.02368365407607803 0  0.0305298588640833 0.08643101277157814 0  0.002366536616804956 -0.05778541255511944 0  -0.06629710614353197 -0.03499591731901835 0  -0.01174377340393776 0.05464543962512707 0  -0.04556052005990186 0.07111963445009301 0  0.05738690329254719 -0.03494256796122301 0  0.002044933269189715 0.04379697174584706 0  -0.01145680755237551 -0.09516641448878606 0  -0.0167020451950726 -0.08992022548941637 0  0.03722796402629947 -0.02383005498031066 0  -0.07986527780314968 0.05316160007979841 0  -0.07246969447132341 0.05299660488361248 0  -0.06525973327308479 0.03490569700901184 0  0.05469094509477707 0.06279053984933505 0  0.05603457600451858 -0.04919021010369217 0  -0.05827267662216178 0.06885218104746144 0  0.08251052848813076 0.03878503070812595 0  0.09589762849199075 -0.0007791157392598789 0  -0.01163655741783327 -0.05561425206237589 0  -0.02132038243757399 0.08259793798812276 0  0.04020751193438104 -0.02986846209991719 0  -0.0222173922590184 0.04591182005133455 0  -0.03791723919315481 0.03206949017386402 0  0.0711323302277181 0.06474985661745268 0  -0.09104039385641027 0.006363624317813344 0  -0.07777361650288264 -0.05620892304968857 0  -0.08808834876878394 -0.007319677607714252 0  -0.09561454234822304 -0.009781892061769146 0  -0.07356924839630052 -0.04885779781451288 0  0.09383989888277479 0.0196505048942557 0  -0.04898307215436622 0.002727483966252318 0  0.0008761519400346061 0.05850556416469791 0  -0.09196977725056962 0.02681926295078331 0  -0.02505623455229482 0.07015493182262043 0  -0.01766559726483902 -0.08357191079612884 0  -0.01315593817720008 -0.08207139396867084 0  -0.02017331132809723 -0.07806750360379283 0  -0.08390033126220418 0.0463572181427455 0  0.08919099213891818 -0.01420696107067311 0  -0.0166558385617039 0.04065715091067374 0  -0.05574777391399159 -0.03754165311714927 0  0.07084722768558241 0.03172220634809191 0  -0.06877473678466153 0.06696230486045537 0  -0.05103783508772033 -0.07914905253127318 0  0.03151984386587488 -0.0438638640319972 0  0.02901342059853237 -0.04797104673800295 0  0.03304907423164623 0.0570716585060201 0  0.09156214093044161 -0.02923799559169535 0  0.05514925318359997 0.0783715625113373 0  -0.05747005827787149 0.03405641036294317 0  -0.015935713982043 -0.0412622685264323 0  0.007922186929188155 -0.0881320548327931 0  -0.01550580156407995 0.06109702192491943 0  -0.05058391495353096 0.02992269721990464 0  -0.04476174722511234 0.007244508323184868 0  -0.07872933879259233 -0.03302530486667398 0  -0.08166990056257334 -0.03764059365431768 0  -0.05835854564393382 -0.0761173645905819 0  0.08199419446687237 -0.02022708565162405 0  0.01877967120210682 0.03972848497355625 0  -0.001843458083242969 0.04445374527657825 0  0.03628170872864298 0.04679192058936824 0  -0.08248897361682053 -0.01680037386269752 0  -0.03138379433355985 0.03815081109303693 0  0.04391186844309591 -0.04707007649736918 0  0.06955613441801727 0.04108516114370921 0  0.06220191422439469 0.03886584038655562 0  0.06667316442902735 0.03730833649250277 0  -0.04362702612426692 0.0856203454218044 0  -0.08066640054099553 -0.004522321012244214 0  -0.07631713780053201 -0.006028262591509034 0  0.05786766172357522 0.0515893866944418 0  -0.06928471439210308 -0.04225265810521718 0  -0.06349105665662742 -0.04120695410770411 0  0.08997856060962182 0.03417392137147759 0  -0.05331398175498544 -0.02596710047302486 0  -0.02607120996875009 0.03525663072409201 0  0.05648642661120142 -0.05742822137975993 0  0.06218153574988178 -0.05941105004506927 0  0.004108806447230913 -0.07705784726068896 0  0.05171207217731382 -0.0007415434978449316 0  -0.03415634201379106 0.06291678806911857 0  -0.08871695589471111 -0.03596195842674196 0  0.05330862828540903 0.01265130545750569 0  -0.01642784224772652 -0.04941619524440797 0  0.06701672950484881 -0.04028344836719072 0  -0.02991846483904724 -0.06186223319194332 0  0.06262900251520774 0.05310283452205314 0  0.08427553625142969 0.04597172561248021 0  0.01386211380303528 0.08461260501291588 0  -0.0184671184318799 0.04496583139491787 0  0.02857328383739297 0.06110996906529571 0  0.03020401879533441 0.06538456974041196 0  0.07758484604747014 0.0421439103987691 0  -0.06317587172952059 -0.03732517539990606 0  0.08154823925360324 0.01725989750330295 0  -0.02833604492184433 -0.0540627632228517 0  0.011764113939682 -0.08845150535880639 0  0.07261143933271982 0.04565376341465938 0  -0.06725039411917219 0.05903523958674103 0  -0.07343120891303172 0.0480063397699529 0  -0.04358543197724726 -0.002714942295478424 0  -0.07156804510327283 0.06412508659596902 0  -0.06921311397251689 -0.006625998389482439 0  -0.03957472825784002 0.01882725268206834 0  0.04109266359438217 -0.01463563994901228 0  -0.03793034463551161 -0.02203068161669363 0  -0.0461912266912733 0.06677518145482733 0  -0.07255214062446173 -0.05388781312379478 0  0.04907437777024799 0.005876332930868084 0  -0.05186413284482284 0.03490559021525273 0  0.05474123761378379 0.02350798248142769 0  -0.04764435777803688 0.04605129816807089 0  0.0545375084014001 -0.01277360409598858 0  -0.01270905702566166 -0.04827936266051309 0  -0.03782838977974963 0.08806051825365972 0  -0.02237858807748403 -0.05085001790955117 0  0.006815995238275861 -0.09594795837924526 0  -0.06124821387775487 -0.005900758272777828 0  -0.0564349722533824 -0.003376559475558909 0  0.02223145948233684 -0.03777081488499387 0  0.02373699541997053 -0.04533916498013428 0  -0.001609935452769467 0.05096168892582596 0  -0.01161988977978855 0.06975803590674391 0  0.01749995864800685 -0.04967144553612086 0  0.05579010797907578 -0.07839149754340081 0  0.04967890092493261 -0.07456449912989462 0  0.03726992816151115 0.03160511061220171 0  0.05475340742006964 0.0161491661516839 0  -0.03895690836586294 -0.04496091583198725 0  -0.02756900314439555 -0.04314290014676923 0  -0.02245703409570699 -0.03774484236331704 0  -0.02975624393362077 -0.05038530618075389 0  0.01361033157820076 0.06725906330905009 0  -0.05132968070555643 -0.001003438420043045 0  0.02252117572489427 -0.06272619672942037 0  -0.0268515145418289 -0.08072202842012102 0  0.006192284609547594 0.04341264715792229 0  0.08795101373864719 0.02122567237005648 0  0.02213172820280314 0.09386574300329213 0  -0.01914620178913331 0.05276333373962885 0  -0.06220013800325367 0.0542011223032729 0  0.06918613544298248 0.02387809110390381 0  -0.001996245214184332 -0.0437832799531768 0  -0.0003588234609229393 -0.05115773197367816 0  0.06724076532034523 0.0579669277697024 0  0.06597919979272801 0.06277430082252188 0  -0.01157301008106043 0.07879602941411758 0  -0.009420453308245253 -0.04547273933280147 0  -0.03865046711313675 0.06799529379676066 0  0.04235938157416216 0.02857362082565667 0  0.0349270332309653 0.02647420684194967 0  0.07570579986218082 -0.04635941498432183 0  0.06015526643634129 -0.02448919097842635 0  -0.0534333979988699 -0.06822574357292295 0  0.05854505319342051 0.01680953287493347 0  -0.01649746200837018 -0.0670346013677489 0  -0.02261784793799238 -0.07087051586424784 0  -0.08730674824593866 -0.0005019569988280201 0  -0.04070029083156732 0.06158662223498163 0  0.07825090889628773 0.03384051053503073 0  -0.07566966637928904 -0.02340612770056243 0  -0.06934402457896414 -0.0237023342567433 0  0.01505986230118265 0.07922559082634421 0  0.01503249231701583 -0.09529737173737417 0  0.06842876215000325 -0.04842592708716979 0  0.08717373685390192 -0.02596660217669737 0  0.08519851134336356 -0.03261817801432269 0  -0.09434318150988456 -0.01867386660036988 0  -0.07383210823202119 -0.06151214339109097 0  -0.07049194194795957 -0.06579897691249817 0  0.05340228269167258 0.06963042887783837 0  -0.02473109708819143 -0.05781694320859092 0  -0.07918947860430881 0.0402724803847497 0  -0.02449090545590405 -0.09288011926862574 0  0.02393050857628557 0.04548121144967805 0  -0.06839722096083158 0.01486752943017929 0  -0.07261976073407089 0.04056456084460382 0  0.02213557673761731 -0.09386395880943819 0  0.08221547929138755 0.02265291165068025 0  0.07644556726859394 0.0228861280080516 0  0.07551321566947185 0.01912250581019586 0  -0.07130391600361019 0.007895437456646925 0  -0.04855360068368166 0.07357296674951631 0  0.02565794714485511 0.09252321601272465 0  0.02668365204550695 0.03673670515553101 0  -0.01004458258188213 -0.07957282940518828 0  0.0794005705449026 -0.005247653545598414 0  0.06448097280531166 -0.07173365647907404 0  -0.08350394837270758 0.03196757218846136 0  0.02673332453293593 -0.04067826254337945 0  -0.04519714902187553 -0.02448642905925075 0  -0.05199966902128995 0.008797406920825467 0  0.05837849113400941 -0.05275068354431593 0  -0.01087427580378175 -0.08701741078339474 0  -0.05262849526583655 0.06358321185577613 0  0.01821045824539548 0.04513966317666133 0  -0.0118081259722437 0.09135428007380028 0  -0.04181060774263898 0.04388853922586757 0  0.03550005655952933 -0.03577566613744181 0  0.04238736064312035 -0.054206385530428 0  0.06575224658996293 0.02976927151301664 0  -0.05348165694423802 0.070494453874527 0  0.0724022250786866 -0.007316293008856934 0  0.06957540242438999 -0.009760677062739713 0  -0.05917691655407697 0.00677606719640323 0  -0.05734547797842267 0.01163130926288168 0  0.09055037476136393 0.0004140737871299805 0  -0.08637240105388859 0.003124671627124606 0  -0.03224274662443868 0.07142216820967441 0  -0.02901457060212109 0.04260726208113496 0  -0.07431908375465975 0.02918367137192146 0  -0.04331830220038943 0.07887356795322972 0  0.07876455712181135 -0.05543770068425338 0  0.08648290351583197 -0.04253984154934129 0  -0.07921625709769277 0.03661347261782475 0  -0.05302399860131939 -0.063970012957098 0  -0.05637678127533249 0.02805305921141483 0  -0.03108208656243546 0.04963711091111171 0  0.04614781283341546 0.03636698627156323 0  -0.01911496885644838 -0.05616107490877221 0  0.09616441539196786 -0.004988478029565899 0  0.05259142492642942 -0.01895847170021231 0  -0.02438915314762862 -0.07801577898836204 0  0.01142100891912933 -0.07646216281086445 0  0.05635546999920842 0.05746515510549515 0  -0.0737169687096739 0.02551107324991329 0  -0.01789919275896492 0.07304480295669061 0  0.05137839318494579 -0.05158912052108869 0  0.03272746260103294 -0.02954765253998329 0  0.03555673530158158 -0.03196502085462163 0  -0.05087339040909411 -0.05800560638633168 0  -0.05579705175651145 -0.05699384806262062 0  -0.0120593837648224 0.06234041721408172 0  -0.04584929398238455 0.06152721955283438 0  0.07193642535252656 -0.05040405429290249 0  -0.07747259759730586 0.008396857294314298 0  -0.07545499355180232 0.01611045309626299 0  -0.07281847742903647 0.01311646195133585 0  0.06170807302147643 0.07370094757527834 0  0.07365707426188943 0.06212515739405655 0  -0.06565855763557633 0.0553310187731034 0  -0.05169392120340027 0.01669085419712542 0  0.06497208178383278 -0.008814591926937499 0  0.04094434154313731 0.07809423694206208 0  -0.05696425685005283 -0.04452520232505737 0  0.03575910159548629 -0.06057522235195981 0  0.03403685780827621 -0.07020638983128627 0  0.02182981357155611 -0.08361825560309585 0  0.04252392668397729 0.00940805566989654 0  0.001760369941401039 0.08180600706377297 0  0.01992612040781686 -0.04425584180419012 0  -0.04578530355187448 0.05622369617382682 0  -0.04674056966022259 0.05068020723970224 0  -0.04095092685253603 0.05109054401766703 0  0.04695245687550553 -0.03262906539714319 0  0.08574112546814087 0.03413284996457674 0  0.07878610565750148 0.05127344099370764 0  0.03067233546314043 0.04273562150567038 0  0.03356547718268387 0.04946568108833851 0  0.05863104611302515 -0.01809157609306544 0  0.07107419947709831 -0.02887695665303512 0  0.07351358853985349 -0.02604678265058353 0  0.07268119272739247 -0.02245039511651372 0  -0.08063368199804516 0.02499913725797922 0  -0.07137769492335842 0.003446628150922973 0  0.02893103640343375 -0.03226547276644447 0  0.09371497617549941 -0.02271618993074317 0  0.07407482426861516 0.03822860875766682 0  0.02471394233972043 0.04183317305799475 0  0.0947493856026338 -0.01800067848984155 0  0.004152322654951605 0.09621424539032462 0  -0.0654151860934005 0.04202348480572649 0  -0.08867065533131696 -0.02347820639744204 0  0.0174437111346186 0.09505819834881785 0  0.04581362848382825 -0.02679037999676166 0  0.04919375355559766 0.0638454936510448 0  0.0311060963691999 0.03812563292356469 0  -0.07715259575637738 -0.04867254099522492 0  -0.02919901100376548 -0.08713388607819246 0  0.06811272147594104 -0.06854032067359939 0  0.03244474586059742 -0.08917063066027281 0  0.06938790226085796 -0.02110481790589552 0  -0.09458080341629235 0.01919816813500586 0  -0.09095370816596912 0.01892814338607347 0  -0.08520557227127171 -0.02999570549062188 0  -0.03510128047602964 -0.05656771025620175 0  -0.06583539779253073 0.07032667739841222 0  0.08543926284836949 -0.01932568015405158 0  0.08308224594858728 -0.01302949650321726 0  0.05819861132039363 0.03543797785859602 0  0.02844171079746467 0.05351353950924905 0  0.02685821307896307 -0.09283678940082962 0  -0.06238352998775296 0.0475714352991068 0  -0.05732755263739515 0.02086995961716997 0  0.07190175354057801 -0.0152159893318534 0  -0.06766590229024218 0.0524210075214671 0  0.0390741917083764 0.03534388758632032 0  -0.04156020305426616 0.05575887401425056 0  -0.01965380656889656 0.03879273855350403 0  0.05863800156962676 -0.04388321348816891 0  0.0565159915971133 -0.06470575471993104 0  0.02581312011179307 -0.07764585014647726 0  0.03062498565906414 -0.05833902897636559 0  0.02973331562521326 -0.03639516237722489 0  0.06157791530953547 0.003220085339061305 0  0.01967204621640188 0.08824406134147823 0  0.02453490642784644 0.08710734576547406 0  0.04647517859994036 0.02312380217023208 0  0.04109392818676137 0.04087167901829361 0  0.0740304952611891 0.02987929237217777 0  0.09144676020233775 -0.006793761543085997 0  -0.09345768295896906 -0.02381021363145341 0  -0.06434874891622329 -0.03144708925799264 0  0.04617158551063193 -0.01488562086784357 0  0.06490581538879307 -0.01659299029265797 0  -0.03579922136344911 -0.06191485619331937 0  -0.03236184974270433 -0.06767406631729111 0  -0.05600533731840416 -0.02239699425913198 0  0.01312459741426361 0.04485791800267579 0  0.08763808249209262 0.0272330110597092 0  -0.05686667652089349 -0.06210309848244092 0  -0.006151104627537344 0.09617507176040586 0  0.06641139216864916 -0.02738006629414381 0  -0.02803566052279931 0.0925514882457968 0  0.0387844317388601 0.05380766368647938 0  -0.07425217196108484 0.009820321352576567 0  -0.04278452905450198 0.06764478946937187 0  0.02875430510416456 0.08133834021813099 0  0.02789949581311447 0.07426045555217267 0  0.03195500287171615 0.07684095975142902 0  0.0005324206508343368 0.09655185943439062 0  -0.04423518955046035 -0.0818536224985119 0  0.07932652313229839 -0.04243201746143028 0  -0.07895847802118156 -0.01685008592921446 0  -0.0774953676427781 -0.01113270370890017 0  -0.06785321971771301 -0.04722359533108402 0  -0.06696631789003871 -0.05239892491872479 0  -0.06321561741741279 -0.04649238137192043 0  -0.08965031504113891 0.03593822453786202 0  0.078154216410528 -0.02648767197316983 0  0.06653952281230859 0.06980823735019152 0  -0.01790980872110233 -0.07026172475288095 0  0.01736757735936511 0.07076418699583033 0  0.0281057332300484 -0.07123259346410436 0  0.02810167887808408 -0.05157838902089967 0  0.08859708832946442 -0.02246404148913501 0  -0.05203690049333038 0.05904615394505763 0  -0.05618398205720659 0.05716168863364016 0  -0.05727958889306387 0.06335136209529771 0  -0.07775869307552885 0.03009006480490374 0  -0.07635241690162996 0.02315525328037008 0  -0.02271142206161527 -0.08889045173238964 0  -0.07264867653797004 0.05647249786057182 0  -0.03171405545326662 -0.02933904692652975 0  0.0591032089366637 -0.03170715796734522 0  -0.06241484771812797 -0.0176503382274585 0  -0.04120141838096738 0.07429579495460208 0  0.02147747144400938 -0.06995955861037362 0  0.04758788765542595 0.07876086292129221 0  0.0489837772998232 0.07510980067929147 0  0.05188563449641867 0.0813706525997996 0  -0.07182239882334188 -0.01315475483412471 0  0.0430424373998477 -0.02098525468144881 0  0.001334256164371504 -0.0446509570592813 0  0.08169129580008753 -0.03184410898661032 0  -0.01016708312089623 -0.0525070820737439 0  -0.01893640422236255 0.06101286690617946 0  0.05301723429614023 0.02706378252334645 0  0.009981281431271352 0.04200649573517662 0  0.06075661626775911 0.06715476425454819 0  -0.0006268819029053964 0.09098249406998998 0  0.005590765749046147 0.09286560562334518 0  0.07570012691337942 -0.01978569076081476 0  0.08214533824582392 -0.01680675281020451 0  -0.05233002167795459 0.07928745535406144 0  0.01088573715601873 0.09407127601576099 0  -0.06363206744170941 0.01780757413518763 0  -0.03481709014420843 0.05028013968547742 0  -0.09158322034623176 -0.02994704147027446 0  0.0134458190744353 -0.0833691888676482 0  0.01573711363714797 -0.07986380228595465 0  0.007221995495848023 -0.04283981690692509 0  0.04713266252522245 0.01600664001982161 0  0.04865980684146196 0.01253804309402559 0  -0.07294766596401189 0.03651134913238226 0  -0.01309973371636623 0.07285098954184521 0  0.0307573086384546 -0.06497333304870768 0  0.025671479932729 -0.06591726585802524 0  0.03882110178810606 -0.04215846257771824 0  0.04835602473924831 -0.001373874905104981 0  0.01482662146842908 -0.07658003983424023 0  0.03572353396619038 0.06037945850710212 0  0.007179426266921279 -0.05278587848681478 0  0.005393372420817054 -0.05934422301351189 0  0.08725332893371267 0.01597164839733549 0  0.06156303953034183 0.02281425430321221 0  -0.07380099697304285 -0.01793154325135215 0  -0.004083884068533853 0.08628413338927306 0  0.09074446770110312 -0.03271037746269623 0  0.001686775282404733 0.0623292604118242 0  0.07669908301697538 -0.01060480433490661 0  -0.07692651600387326 -0.04013954238382052 0  -0.08065341348593598 -0.001119775752467175 0  0.05108596523268924 -0.007560631043987278 0  -0.05607080505124908 0.003333914587267314 0  0.03375400345416055 -0.04126867149737538 0  -0.01187245322215691 0.04648214538612174 0  -0.09379938430474127 0.01258763999641529 0  -0.06588770090334492 -0.01159378811516113 0  -0.03639411562121034 0.08494507142211015 0  -0.03880888003021893 0.08101971005699912 0  -0.06103433448318313 0.04063778585208402 0  -0.05989755703317157 0.05729639802529352 0  -0.005017914713389381 0.06269253640888553 0  -0.01048884461408877 -0.04216405715946976 0  -0.06512273405922486 0.02290908255287291 0  -0.06074558225041089 0.02548706258311359 0  0.05157365882810894 -0.01114446528720696 0  -0.07318004958263669 -0.04299387686516713 0  -0.0702399697158963 -0.03900280597714897 0  -0.07447594344919313 -0.03625658699327236 0  -0.08307133673582495 0.004051756076006536 0  -0.08363084243850058 -0.002723963989326193 0  -0.00400983422087212 -0.05458544791077092 0  -0.0304762787429185 0.05516203179413304 0  -0.03602384495644535 0.05602954088272015 0  -0.08669178584234347 0.03074761566960729 0  -0.01252153699495063 0.04159463164282572 0  0.04754131134107589 -0.06859872292450013 0  0.04616167393535541 -0.06327036563810338 0  -0.01468020144780701 0.05627440535368869 0  0.07496257541593399 -0.0605952463802267 0  -0.03760548268460113 -0.03763441610963241 0  -0.08466053812899542 0.01555867374871913 0  -0.08311826872822045 0.01860439137235985 0  0.01805692595035644 0.04985980009986977 0  0.02286610729491663 0.05095985374853498 0  0.0214358697049375 0.05568015475404899 0  -0.04523199643110157 -0.03057253840538074 0  0.05199165650139313 0.03227898615112557 0  0.05561009700190714 -0.04153094462390085 0  -0.05245657935593512 -0.01877367050616209 0  0.03463651921865799 0.0438385301223403 0  -0.001211571397047566 -0.07357943788554926 0  0.06552317437854756 -0.03357993277623218 0  -0.04208943032576936 -0.03305826143261662 0  -0.04382749753700374 -0.03710186163565289 0  -0.008713648116005531 0.05247323446732913 0  -0.008915565953826813 0.05899222957454627 0  -0.004593157697439059 0.05439527944775964 0  -0.08409404269260609 -0.04729234325699588 0  0.0450493531190545 0.0570084849713492 0  -0.0683430549434173 -0.06836408354104866 0  -0.04452649347407485 0.0185288202606828 0  0.04397680941174392 0.03376659315285752 0  -0.02124492168355184 0.0574948554596597 0  -0.02459380042226006 0.05826829929798462 0  0.08396802220886039 -0.001783659687954461 0  0.08132996361498496 -0.007989742213708101 0  -0.03530791353503424 0.04398131030934066 0  -0.02539798667466841 0.08904691522363871 0  0.07502332495016006 -0.03286995141573384 0  -0.00837940079319917 0.07236405128297317 0  -0.004571477257899423 0.06925820765355137 0  -0.007477908967240226 0.06566353546848866 0  -0.02751538946839873 0.06578591856379819 0  -0.03160090892808242 0.06691794522160015 0  -0.02885059490434643 0.0606140935022899 0  -0.006615710345914813 0.04276934911548422 0  0.07829356446022105 -0.02981042403232748 0  0.06866080913203727 -0.05622800385037705 0  0.09509561362286451 0.01633175061322805 0  -0.04024908344580355 -0.02587002736778865 0  0.04153660497423175 0.01262057864649015 0  0.01307273868813875 0.06101031146182763 0  -0.002534047681034077 -0.08029778496818139 0  -0.005532392222191922 0.09287307267046786 0  -0.007801150930767076 0.09039828511628263 0  0.09144500275288595 0.03107902996205517 0  0.02039859005401164 0.08187512295869526 0  -0.007425246739388333 -0.05905652693596075 0  0.09667381362978576 0.004107632039665494 0  0.0357136414146088 0.08035739256934563 0  -0.08994416226774705 -0.01742640535007087 0  -0.06844199562078462 -0.05904331803504903 0  -0.08800005771784974 -0.0282245220078776 0  0.07586017010505285 -0.03916730327286545 0  0.07105431971641354 -0.03728278810083314 0  0.04219798690011912 0.05037824379000978 0  0.04065900402477987 0.04731811782695249 0  0.04285195224335531 0.04473617372761015 0  0.02753763724260221 0.06757755770171697 0  0.02523892571155422 0.0611936388203084 0  0.03970976127289248 -0.06663928740238709 0  -0.03651570154920751 0.07662872955998996 0  -0.0303715559022945 0.07609069642379256 0  0.0142738333655104 -0.05550244263321492 0  -0.04111754043110782 0.03127356423259624 0  -0.02973599567525348 0.03115680067112395 0  0.01839976254589779 -0.09484176052554423 0  0.01741189417777954 -0.08872627424018863 0  0.05142992862941348 -0.03409482858559807 0  -0.06351580043011892 -0.05234704883956653 0  0.04317341059565419 -0.04264498333376457 0  0.04064160541813552 -0.03649450260003523 0  0.07293314702068041 0.005184135668170444 0  0.04255050226863329 -0.02731832947580564 0  -0.005689565537243532 0.07670618259967911 0  0.04651746229748287 0.009988214782595661 0  -0.05429523543997189 -0.08030313492493588 0  -0.04821894810019895 -0.04829461200382348 0  -0.04226418362031016 -0.04894079149914676 0  -0.04635418572037554 -0.05319374450848061 0  0.00313257722314918 -0.05458520409646005 0  -0.01983792608419487 -0.07299361306860827 0  0.06153097887485794 -0.07446261595031206 0  -0.06690848916762596 0.02775673058344895 0  -0.02911341294958923 0.07272284972335125 0  0.08378774192094149 -0.02604154029088766 0  0.08434262943023893 -0.02942854675794318 0  -0.06324409387074591 0.02933955337817002 0  -0.04214961078637591 0.08201615585109251 0  -0.05394549855551659 -0.007646742645581153 0  0.05862037349026206 0.02853269252963042 0  0.06417585659019912 0.02680736555408746 0  -0.03017666317221204 -0.08013863563523227 0  -0.07944658994498818 0.02186319499069716 0  0.0508051385879448 -0.03836323733347247 0  0.05205056528431813 -0.04473103511950607 0  0.04541169179377093 -0.03699486055927505 0  -0.05431099538747567 0.02357612342283064 0  -0.04903054467178653 0.02344981280478591 0  0.08071557219798134 -0.002253194709060677 0  0.00778339871479773 0.05605136906658501 0  -0.02990539307795385 -0.07398883880367678 0  0.08204144726042106 0.05155258654359977 0  -0.006250046395275381 -0.08515836141009739 0  -0.001988250930427847 -0.0870310240161279 0  0.03277985572821286 -0.03760432100416768 0  -0.02133112054276076 0.06417336872772562 0  -0.01625183841972069 0.06712406828060778 0  -0.08237678298585248 0.0350756738341985 0  -0.03559728707275085 0.04011475039987773 0  -0.03893682813046548 0.0455652386497546 0  -0.05192223565869105 -0.03921286328940137 0  -0.05361684535235889 -0.04452249738275345 0  0.008322689539641791 0.06241443781446701 0  0.03003511500043945 0.0703147978476303 0  0.03606076597939647 0.06919641177294931 0  -0.05993352482659513 -0.04726504913739906 0  -0.08539345432707454 -0.03562999122002465 0  -0.05323266742710197 0.04796201770896046 0  -0.05846391531650318 0.04559429842258039 0  -0.05357614004914497 0.04212799978069066 0  -0.0210200577506024 -0.08404162369954732 0  0.03981972791918967 0.05857597939875079 0  0.07232728742091321 0.04901169681406714 0  -0.05709876036701254 -0.01037918841163816 0  0.09367156790619714 0.02520396679128513 0  0.07834660808340332 0.001284015817030995 0  -0.0443368631234624 0.0338489488193016 0  -0.03796338510492106 0.03531987978264275 0  0.0824889726906077 -0.03919894645979605 0  0.06392996099225237 0.03245228123285612 0  0.06414053529833408 -0.05394423774594057 0  -0.03145533065601067 0.09141987944080121 0  0.0006072111371391807 -0.09702594991541458 0  0.07447602110974992 -0.0006758322053024139 0  -0.0959351010559898 -0.01451837286668686 0  -0.05079156955232506 0.06622705244251177 0  0.06035196810326513 0.01404356042241163 0  -0.08375749246491236 0.02578283891367383 0  -0.04530264324186712 0.02310462499867173 0  -0.01274197056749561 -0.06243757127345721 0  -0.07656413967872829 -0.05921927117180386 0  0.01835498356780866 0.07387301581955746 0  0.07866337382048706 -0.02124668892410528 0  -0.02785366925388835 -0.09269337463674392 0  0.0521858543399118 0.04276393857565101 0  -0.06838814827572405 -0.02049928545651829 0  0.01696198643833912 -0.07412842414527097 0  -0.01765732355078898 -0.05990491549479209 0  -0.04953964690277717 -0.003817260629004319 0  -0.02451236498810038 0.07334843457378475 0  0.02153873719588023 0.0771177729011801 0  0.03118226240977673 -0.0504381037904898 0  0.007575170615809533 0.07119505033711065 0  0.01071493291279983 0.07221356013396196 0  0.002005236911215419 0.07041907031723731 0  0.004537075846155699 0.06573261181381368 0  0.01172225444235085 -0.06482478992765126 0  0.05858380101539414 0.02158833796656753 0  0.01911160647171365 0.06062013094049892 0  -0.008637944572991539 0.04675898674744105 0  -0.03576499925610594 -0.0727497053428665 0  -0.0624038936857217 0.0020835563868625 0  0.0119524202557163 -0.06135565829914336 0  0.05327087362048179 -0.07193752230859995 0  -0.08118464592283255 -0.04439842127081729 0  -0.07587986099941831 0.05989708439510388 0  0.09608077165379342 0.01037752061360583 0  0.08054813249234116 0.0316015001873357 0  0.07206710255469054 0.05923147903258514 0  0.008526562296199513 0.04845119703325079 0  2.644846069117367e-05 -0.08266741948670521 0  0.006516494840650824 -0.07192777835638482 0  0.001739114638763401 -0.06875091353065227 0  0.005490982074107136 -0.06592735202171152 0  -0.05143677224602274 0.05213526863650363 0  -0.08226041783904896 -0.02442346403328417 0  -0.07883970508008291 -0.02229069780605937 0  -0.04662110080158001 0.07893161977936106 0  0.0185046773465474 0.08527207822930565 0  -0.09113951371459597 -0.0333156815457535 0  -0.02672222314339218 -0.08396386868549359 0  0.01146889457100832 -0.05104509273052061 0  0.08890388880569414 -0.03896194927188058 0  -0.05798756003924088 -0.04150150510543863 0  0.00907105313718872 0.07775870356136928 0  -0.09402738853913457 0.02404179904491555 0  -0.003690147844726937 0.04855470688710517 0  0.06456194681100814 -0.03052263581667921 0  -0.01644576626242535 -0.04455970033066187 0  0.05783704813107387 -0.008759326776595499 0  0.08839458580324185 -0.01755750201772521 0  -0.004002447153672459 -0.04792036297591741 0  0.07043689670744818 -0.00318533173425548 0  0.01532394148699266 0.07543614988251232 0  0.01361275535288193 -0.04508194137651557 0  -0.04892469313204494 -0.03421879034566205 0  0.05175476626538375 -0.06657995267894244 0  0.08256833450581004 0.02580942465164333 0  0.05006725960274579 -0.08255864097931277 0  0.09565733841091045 -0.01181762458040053 0  0.09217056169967301 0.005536402397029393 0  0.06055990192682301 0.0001749339767040301 0  0.08969511612055286 -0.002650742522002616 0  -0.0002189126897541929 0.07861553068274231 0  0.005246287356227369 0.07606324258603375 0  -0.006677943610872112 -0.09685390176118512 0  -0.04749035305586801 0.03104696559365034 0  0.04740627687658426 0.04632480181956425 0  -0.02528181883311955 0.04665652496902321 0  -0.007215383135757695 0.08679064229518371 0  -0.009750874532129705 0.0847980235018298 0  0.003765529857169516 -0.09679754939483315 0  -0.09655813944872396 0.001780619141926333 0  -0.0409466591628245 0.08736073041336605 0  0.03552412887224675 -0.08369574381974484 0  -0.04087511515764286 0.01314070723094726 0  -0.08729884473736249 -0.04223336838286659 0  -0.08548060120424705 -0.02321172314438369 0  -0.03068143731350948 0.08648090950245549 0  0.05016323047028154 0.06922517635300501 0  0.05083182507708695 -0.06145002414359887 0  0.06007440079841837 -0.03655138563602544 0  -0.01687919612366438 0.08755510594823068 0  0.04472555195851354 -0.07868914985485016 0  -0.01420864874572557 -0.07132308332969668 0  -0.01586042317606177 -0.07662198382015267 0  -0.069724557503674 -0.003222866264295386 0  0.06977633435894361 0.0442438360728003 0  0.06449436444097487 0.01723650385312772 0  0.06534533857589513 0.02036313335679172 0  0.07561518846853044 0.01381432552569302 0  0.07839922711130271 0.008260164710979935 0  0.08034188885142469 0.01276723934773051 0  -0.05180534043554753 -0.07480731270929621 0  -0.0605109654558278 -0.01397968323751199 0  -0.06663818451391895 -0.0152875880062864 0  0.02143385747841672 -0.07738609534762501 0  0.03812752796410741 0.07529683922174829 0  0.04058123894129438 0.07128321733909461 0  -0.08807072828540512 0.01080944224016298 0  -0.08323811363026659 0.009542735716653429 0  -0.002332024776858734 0.05799037104093869 0  -0.0255281041841694 0.05290079892705616 0  -0.04069296646662603 -0.05759768718812353 0  -0.04340561704804287 -0.06418829039695263 0  -0.04777670219654497 -0.05948266059894203 0  0.06758380122424602 0.05012692773658496 0  -0.08000892077801797 0.01879893704950667 0  0.02682855272894145 0.03357649036676661 0  -0.04157330618444958 -0.01056401049624799 0  0.04534850549866556 0.08274368624742766 0  -0.04345248848202673 -0.005847922210067131 0  -0.0769751054803552 0.03439648719177579 0  -0.02371163431047951 -0.06113549990696114 0  0.03405430346424258 -0.02606073346465832 0  0.05812254804997101 -0.01502317074596816 0  0.06264765128830008 0.04194156889604689 0  -0.04787711553712452 0.08425046623751806 0  0.03912680830918753 -0.02627804603027208 0  -0.0431835100806077 0.0005397123100047175 0  0.05129742866364288 0.06157343844612649 0  -0.02430706353453529 -0.06558956329727116 0  0.06200124830479958 0.04580096627369303 0  -0.01883926680458464 -0.06485528427935808 0  0.03053966711535729 0.03006835632525577 0  -0.03081865846621298 0.04518093536602019 0  0.05371983419113575 -0.05606374682506496 0  -0.03269547362470045 -0.08191627962727731 0  0.03706201066259607 -0.0776409785666836 0  0.03680166744621046 0.04159529692773381 0  -0.06322167588913034 -0.02074764233511632 0  -0.05860005996903552 -0.01753463084168748 0  0.06190010717890389 0.007825934594075495 0  0.007551848872265023 0.08360104735779944 0  0.03595925515351611 0.051416201252471 0  -0.02327580599811159 -0.04790984920087604 0  0.05241200414417725 0.0500542403409273 0  0.05161972963270898 0.05580699090255756 0  0.05638062747444954 0.05428619218141432 0  0.0415076944215655 -0.08750379543919665 0  0.07266329979093461 -0.04352824105260795 0  0.08365078245799834 0.03182881543150789 0  0.04902744911043796 -0.04225138014283124 0  0.0491470991440477 -0.04577884802040867 0  0.04436966055441562 0.06717248109067191 0  0.09275734417294151 -0.01080880039027781 0  0.02934059561089147 -0.06126645335798896 0  -0.03659488181499267 -0.07717958619480222 0  -0.03699248439952928 -0.08118444132150764 0  -0.008174701978577519 -0.0722290235297839 0  0.0696985701965482 -0.01293183178258452 0  -0.06114772337564928 0.05126523418247336 0  0.08720299457963536 -0.01186293255612365 0  -0.02182857477446157 0.05128759565573068 0  -0.03268791482886872 -0.03619443551373442 0  -0.0283095077229161 -0.0328385345718583 0  0.0415352334432973 -0.07755758146868158 0  0.03601449030946144 0.08793000690707541 0  -0.08932148950631004 0.0252015735080753 0  -0.0866057488654477 -0.003493842992058931 0  -0.05866270264193857 0.01806148404367832 0  -0.01084083728500716 0.09616879148288983 0  -0.05744160665383374 0.03096036719454688 0  -0.00720951188808628 -0.051757808885608 0  0.05561317235594448 -0.01956117798419284 0  0.052335164371504 -0.01586086341486408 0  0.00787999695348642 -0.08287884778455418 0  0.02569240731277123 -0.08242729722188472 0  0.03825377055038186 -0.07239709567329758 0  -0.05035529230339025 -0.0831621300518877 0  -0.05788830732627742 -0.0007030358510150249 0  0.08003468979673765 -0.0143395389242426 0  0.06245418518024241 -0.04565093491766551 0  -0.0464902242650229 -0.01539875916628899 0  -0.04053590085311413 -0.01534890439070815 0  0.07161283833496344 0.02593118865025091 0  -0.05930761782245234 -0.06537318326358924 0  -0.05643221611087788 -0.06872815143935765 0  0.0402972196153654 0.02536681936307236 0  0.003716939809754418 0.09047010798564228 0  0.04630633709733922 -0.05759388519936002 0  0.04741663515711987 -0.0295081217580372 0  -0.09719515182253136 -0.002433556741575172 0  -0.09587343400391551 0.01488782995188897 0  0.05289900427096154 0.007136955578230467 0  0.0006439874467130064 -0.09110209907618469 0  0.04860186428485828 -0.05283155205964328 0  -0.04694288586205294 0.009349980064930534 0  -0.04242232429374183 0.005305570263128118 0  -0.02878911347069404 -0.04036917260866477 0  0.03119524848462138 -0.07924543955049962 0  0.0459615348897498 -0.02009197977424796 0  0.008169836476099633 -0.06288864241596849 0  -0.01961836688484123 -0.08113811985832879 0  -0.0098454080720269 -0.06948512408208052 0  0.04675253924782287 0.04965428751828914 0  -0.08872879532058041 -0.03903088413870619 0  -0.04596849315283151 -0.04223495420250722 0  -0.02220149965562396 0.06915981766390124 0  0.06114262920282618 0.0263294179052761 0  0.05572310513937444 0.0739007351111482 0  -0.08290891055867727 -0.05019884937136013 0  -0.09326750537643801 -0.01194932412073887 0  -0.0179674686103097 0.08145826210397179 0  -0.01497449495896063 0.08345933439460332 0  -0.01381529436768662 -0.05960102166836389 0  -0.04126702588231912 -0.04281356720412613 0  0.06369576835445089 0.01025148136845049 0  0.03273150414957732 0.0332460142896391 0  -0.05140646940525867 -0.03242930029386105 0  -0.07425405670639332 0.0627468297870865 0  0.01589032670889405 -0.06916352558548856 0  -0.001230218634754835 0.08724271209299182 0  -0.04672471759116943 0.01327388211854991 0  -0.04218064519063319 0.009054182891793154 0  -0.08312301139394589 -0.01380817049379984 0  0.0109749058299795 -0.05724233777116789 0  0.06448869134225667 0.07255215742027811 0  0.06412163154183567 0.06688845463877216 0  0.05984667456644605 0.07006175034655461 0  -0.08268386955826894 -0.00880977311451934 0  -0.04784889754754284 -0.06408031735682619 0  0.005425372790407351 -0.04866532513335145 0  0.007900542517621147 -0.04640092878775263 0  0.002422938476626445 -0.04764842085212118 0  -0.03198593705518435 -0.07770135242398639 0  -0.06213379522374401 -0.06086919717653735 0  -0.04660694951926351 -0.08463474726011096 0  0.07060574931532773 0.003186457679800864 0  -0.05206336478415634 0.04515541857798417 0  -0.07423334358814265 0.02103020924009757 0  -0.08299003772640412 -0.04034343013612449 0  0.01319236502177562 0.09611057799160486 0  0.01959779875390729 -0.05853131042511746 0  -0.05487078267440505 0.03582565627024245 0  -0.01379553020392031 -0.06540939576620375 0  -0.03538376604402856 0.07160001811811594 0  -0.0568313195578744 -0.07869832389324539 0  -0.08219499088876164 0.04146209848644176 0  -0.08497599580941258 0.03670912739803153 0  -0.05078914931362578 -0.01117459718313768 0  -0.03261181503490949 0.02810115690548274 0  -0.03526192581044128 0.03362157131263568 0  -0.06884557226825744 0.01786536164409659 0  -0.04388504005645805 -0.06857774097522835 0  -0.04803357250986724 -0.06834290503933245 0  -0.04649901440080014 -0.07371365267480579 0  0.05569571023209908 0.03268792168426678 0  -0.05066912124193892 -0.02453923166054349 0  0.07043134090772038 0.01680627337952935 0  -0.03668934755659737 0.02935140720473004 0  -0.04066648591612322 0.06548924386073902 0  -0.06022699490902281 -0.0271229763599731 0  -0.05892144725032601 -0.03558866333935463 0  -0.06685222525887081 0.04862769952187965 0  0.02419397064672468 -0.06021976124493938 0  0.05303404346030575 0.01871257986381323 0  0.04276421445873445 0.005174999660643571 0  -0.09130439152199851 0.03339119507070238 0  0.0396515587905361 -0.03930083503018276 0  0.04045540224953285 -0.08308393502872484 0  -0.07876092945194078 -0.02864137056025663 0  -0.01009261690888296 -0.0925217043597558 0  -0.004536081514083717 -0.09265450307448204 0  0.0748542945902866 -0.01662528324510511 0  -0.007114957217428454 -0.06507900390839232 0  -0.003964574836095025 -0.06853998742762929 0  -0.03184690703986675 -0.0857819250044478 0  -0.03665341898639862 -0.08964355308126137 0  -0.0335772700962812 -0.09091152440046352 0  -0.02477867852388877 0.04057564066607015 0  0.0751135393112545 0.05592847547495793 0  0.02019786125762423 0.06872594434450027 0  0.02377152991703139 0.07087940848416246 0  0.06708434416384063 -0.02312400444044693 0  -0.0561225022078279 0.04864779780987182 0  -0.07156296764538686 -0.05957076988560901 0  -0.07102724461527929 -0.05643581115108123 0  -0.0278423508695596 0.08124887147710365 0  -0.03058547187413554 0.08253587155959559 0  -0.07151112906818027 -0.008598089481618715 0  0.04944111348087966 -0.02293055841687476 0  0.04849021599729435 -0.0169375592520124 0  0.04267125030417455 -0.003993449957139092 0  0.04198660768940813 -0.009500846531072592 0  -0.03220793847653211 -0.04500069991479257 0  -0.03429731828545683 -0.04174697300126269 0  -0.03686437492668448 -0.04706905473243571 0  0.003777345257371196 0.05968401400029674 0  0.001824144591617571 0.0553050317358021 0  0.005713841634711172 0.05393144122814419 0  0.05697289213697225 -0.02544518700828619 0  -0.04145025226697744 -0.0807341227679079 0  -0.0465121382228867 -0.07846793165903819 0  -0.04122856115275232 -0.07613354486447403 0  -0.0278497780255574 0.07826261304979491 0  0.04741337219481821 0.08486143287455139 0  0.05290514797352647 -0.02944625772231956 0  0.05601420899672627 0.02658426947155732 0  -0.09125829656983421 -0.0007880545045473135 0  -0.09088392848855942 -0.006338757551292803 0  -0.01475458699723855 0.06413996393575228 0  -0.03211108813633182 -0.05660574519185722 0  -0.01973375736645502 0.07560414411859931 0  0.03089567622194149 0.08344761247021729 0  -0.06410523821970442 0.07313647644434304 0  -0.06665547013742087 0.03750336598038455 0  -0.06258327136915004 0.03615326964068811 0  0.05715688680344212 0.04642903647480208 0  0.05616429720275179 0.04128157902536635 0  0.05271339921361811 0.04567501127475736 0  0.04054163581689519 -0.05651169993163718 0  -0.04986262400750206 0.01907979207408032 0  0.01745797022965155 0.05447276822037747 0  0.03112742347316561 0.05934329491902526 0  0.02597263489913993 0.05666545458827549 0  0.03896553995854633 0.06546904732722256 0  0.07973344824915662 -0.03589670744553909 0  -0.04303527477080264 -0.05184766490074232 0  -0.03962064794894882 -0.0521543448202297 0  0.0691133076342685 0.05562446519890137 0  0.07301852672656335 0.05305108220636221 0  -0.01790765899692096 -0.03903371601904028 0  -0.03903823722814383 -0.06823833716137581 0  -0.03353330219481589 -0.07039468763717183 0  -0.05049130330387391 0.06155478550138599 0  0.00445086812848817 -0.092314899881858 0  0.03108134602884142 -0.09190695119661833 0  0.05780863908331801 -0.06898349427870093 0  0.06970005993230434 -0.04344907034486713 0  0.06698078605768619 0.02590843381730426 0  0.03794699743775566 0.08419506907812808 0  -0.05605572498059728 -0.03062290089708036 0  0.04342886336766536 0.02174519977390632 0  -0.07269135689402416 -0.001435702201184918 0  0.04558708623345402 -0.004464380263753706 0  -0.05954776212657262 0.07229370183068229 0  -0.06110790292670686 0.06809335390735448 0  -0.04103234400280492 0.04815312021614646 0  -0.04474476626708219 0.04436285106891844 0  -0.04372472477348736 0.05012042421278545 0  -0.05396623005365644 -0.04743723365171432 0  -0.05644869328284213 -0.05138946948172179 0  0.05072454011248975 -0.07731408855570696 0  0.06073499431354659 0.0508150604362483 0  -0.003458681274742189 -0.06092030747495441 0  0.002612485115641501 -0.0608588495697182 0  -0.000564168318737694 -0.05785756911250623 0  -0.05043706935083059 -0.02859357858278209 0  -0.0336428687993309 -0.0268437044534779 0  -0.0507182357985194 0.07159470051495499 0  0.07990952174880804 0.04021018042743595 0  0.004462423861732291 0.0500294950334797 0  -0.05406321851968383 -0.07288843517477987 0  -0.0221908139829823 -0.05608078918752973 0  0.02400922406771382 0.03548249868552906 0  0.04581208950745346 0.05983421697961409 0  -0.07069617505533562 0.0468832782337413 0  -0.05045762846030615 0.01404196111086921 0  0.08858284542738795 0.02413194008850317 0  0.09066469476656508 0.02011489903169714 0  -0.0608347540735148 -0.05356108718898177 0  -0.06003416006986004 -0.05646411338690661 0  0.01632447756860442 -0.09255643763520158 0  0.01044334418902069 -0.09228774056069587 0  0.01296228131042669 0.04102217437457859 0  0.03167038282576126 0.0919566979623691 0  0.05176863809889935 0.0373798020250161 0  0.05584100552181739 0.03716005714803412 0  -0.04448241160403037 -0.02164640518235997 0  0.0492184155073872 -0.05772336057671471 0  0.01962627410540226 -0.07969427122510146 0  0.03103917074255663 0.05491218928365411 0  -0.0634020733822607 0.01156200995492306 0  0.07815590028330013 0.04838799780044723 0  0.03403900624414995 0.03756615997941317 0  0.03311911963768797 0.06559168002601477 0  -0.04053288569046156 0.02546633043922651 0  -0.06396067632231317 -0.02522883483289972 0  0.08689163588933754 0.005745966568598567 0  0.08286800612906023 -0.05020069290369183 0  0.07738788232332851 0.00550671943760896 0  0.068158545310119 0.02114503995583623 0  -0.01840840543421175 0.09076210768063413 0  -0.01675079386902461 -0.05440122877303805 0  -0.0197077898520634 -0.04951762125126123 0  -0.06844873435996358 0.002563503069789069 0  -0.06818549071905237 0.008534546414606048 0  -0.06538620788143047 0.00611655173862962 0  0.02937426186734436 0.04721673758755629 0  0.08679965752676067 -0.002427977907627497 0  0.02411644062531914 0.08301689584537425 0  0.02553911090201068 0.0780618209397861 0  0.02251996857710101 -0.05016469757922371 0  0.02218930456186418 -0.0546595246474634 0  0.017565331400584 -0.05293384187675106 0  -0.06182710848234178 0.01542461918733972 0  -0.06679571902507893 0.012412573909218 0  0.08152498802825146 -0.04506733268455818 0  0.07712011235848233 -0.04891881691991821 0  0.01605307829827018 -0.06074641692792088 0  0.02011501712285765 -0.06438039796713788 0  0.03111467033325817 -0.06963795532273484 0  0.05925784227136503 -0.06366327393571768 0  0.07916112759130101 0.04458349391124381 0  -0.09343627745987687 0.001912617644179158 0  -0.07872997549428581 0.005702392993362943 0  -0.009235977445817681 0.08191716306854961 0  0.003540993504681 -0.04275558927581354 0  0.04688486564442833 -0.07533405088807676 0  -0.04973556770154034 -0.04418562320006761 0  -0.0251228584333262 0.0936304954203498 0  -0.02153238295966355 0.0944821941360319 0  -0.09267229242650236 -0.003917369203043407 0  -0.02082518286920889 0.08544168360620051 0  0.01512308330213123 0.09047201662522172 0  -0.02330894011302163 -0.0418875112561047 0  -0.02120700714315302 -0.04425074446035791 0  0.02617488128015135 -0.08843681349224461 0  -0.06361371264942492 -0.004136354704706583 0  -0.03558754814896496 0.0603164313006347 0  0.07128115553883717 -0.06584411122425392 0  0.06899454480617204 -0.0620374803738673 0  0.06574406993363119 -0.06382799800131191 0  -0.05587802633179428 0.01502553395264535 0  -0.05420393066150365 0.01069115013516293 0  0.0853737741976974 0.02917265200089971 0  0.06647570359168477 0.01503104892261942 0  0.05805918872721537 0.009603678978459661 0  -0.01636335986343148 0.095918336379267 0  -0.005941085983461549 -0.04216727474193378 0  -0.07912294724353486 0.05609686649399596 0  0.02851196962617777 0.09287050009540321 0  0.02740839542707419 0.08731365390089861 0  0.09126080702156476 -0.0167423560446176 0  -0.06416556713761754 -0.07320530458704089 0  -0.01876651056951629 -0.09551658673883737 0  0.000579961191449116 0.07290593448405752 0  -0.002291918386036154 0.07310558262432183 0  0.06848472322598477 -0.03360833082637177 0  -0.07053487239897957 -0.03259336029478506 0  -0.07006422829341287 0.06169507148309474 0  -0.07017965994299021 0.05841921679544682 0  -0.07515632789792559 -0.05506310420190876 0  0.009807345892482937 -0.04149591581240603 0  -0.03490947386052332 -0.06638817101690626 0  -0.05249903779024694 0.001630303788778509 0  0.01441644587721663 0.06446999513024712 0  -0.04519313082508478 0.01572044014814857 0  0.01033178071401052 0.09687121050122305 0  -0.06230912088625418 -0.06702393215292272 0  -0.06661527854197369 -0.07067271263737972 0  -0.004598265217018262 -0.08828705401531016 0  -0.08459217727851645 -0.01872434961402652 0  -0.001356461409312308 0.08131724530852845 0  -0.003752796927890879 0.08301353391404034 0  0.04434297625830455 0.01709538634164964 0  0.09313243376653145 0.01013815648792045 0  0.008718578713652515 -0.07759411038201804 0  -0.01717700936834255 0.05485442678686337 0  -0.07081022115199957 0.0251954876984326 0  -0.07113768467444131 0.01961065913058336 0  -0.06872741198587329 0.02181705909688574 0  0.0311193865281136 -0.08353195880091638 0  0.03883006365055636 -0.08851377213304462 0  0.05943299567130319 -0.05008909353314495 0  0.06426670104560026 -0.01375517988348298 0  0.06393872210845031 0.05577212995326617 0  -0.05943313291199539 -0.003510687410734849 0  0.08395695277438432 0.04883117913009526 0  0.005095698051316998 -0.0743909907377369 0  0.04621528661596436 0.03934073407269374 0  0.04490773786935191 -0.0600835420781238 0  -0.04184404585629073 -0.08789295745714081 0  0.05236620859631566 0.02195298594325841 0  0.07784746265461073 -0.05821406701314705 0  0.07207896830250898 -0.05697074291247368 0  0.07610994844509517 -0.05418049361748899 0  0.04405819827553253 -0.0705994495022223 0  0.0145564832612636 -0.08923678899437204 0  0.07818062098994676 0.05800640323416465 0  0.03489205917336273 -0.05458058422474738 0  -0.03614953987069183 -0.05053648764788361 0  -0.03850306115075196 0.07082730648748611 0  0.08954945843120626 0.03723065666138833 0  0.08819180521392042 0.04044319076293968 0  0.08412343061435855 0.03646239119001341 0  -0.08523414596088277 -0.03281502810808878 0  -0.0841919158942523 0.006652392862760008 0  -0.07910927352060482 0.01380059865983439 0  0.06938141514928718 0.01112090433318351 0  -0.02657344040928158 -0.06011375415279126 0  -0.03539274655476259 0.06561498109438461 0  0.04194013264858676 0.08750536129458235 0  -0.01251633952135429 0.05182389887376526 0  -0.01695207188980297 0.05025641335369294 0  -0.07476677415437497 0.04552380946517559 0  0.03380461683519193 0.07148731543439077 0  0.0345792453966423 0.07425437550018751 0  -0.04599214327498022 -0.03936293722254103 0  0.04439101062412217 -0.05217784862297738 0  0.03916940523068749 -0.05149976448671375 0  0.04121401186749639 -0.04786065150565671 0  0.04376681004377712 -0.06494947826055215 0  0.09602249444019213 -0.01541010426455366 0  -0.0701459152535865 -0.02757876276961221 0  -0.001227582807300294 -0.06361313219601221 0  0.05107388746447567 0.003780471129530141 0  0.05526339783282348 0.001696935695977213 0  0.05596390796443397 0.006381867087209721 0  0.07251306165062636 0.007957079289209164 0  -0.03630387637648577 0.04664851491993275 0  -0.05955456389015994 0.02261935265551366 0  -0.06171319164650425 -0.03048557516029181 0  -0.06624910682698155 0.01671756314921354 0  -0.0597261066522347 -0.06245031587407317 0  0.06476639503532199 -0.04211242519863066 0  0.09383364689931088 -0.02559451920467881 0  -0.06306290799790119 -0.01160550615483457 0  0.04518239005338998 -0.08639082308962447 0  -0.05736649271914928 0.06617572574058293 0  0.06977948615492706 0.03447071264366183 0  -0.01980020124161887 -0.06169944802461773 0  0.06185892106782592 -0.03123629655573615 0  0.05497257227093912 -0.06131539158149965 0  -0.04698521428793242 -0.01010374557322814 0  0.0380215929547792 0.07846777126859975 0  0.06035558492619164 0.05826594508212982 0  0.06154889180223883 0.06107816102981727 0  0.06457000492221215 0.03529356854201028 0  -0.06231843802481156 0.02315264147498021 0  -0.05198384336081938 -0.04211844149481192 0  0.02005533228369676 0.06587908623079052 0  0.08738577186392932 -0.008334154557673617 0  0.02632882203013006 -0.03395000871667729 0  -0.05451455218655465 0.02067765434937028 0  0.05600610424796804 0.06833821328774425 0  -0.03822120900793867 -0.05609482914080251 0  -0.01003179641857797 -0.08970541924277277 0  0.00166754454195854 0.08533514565898313 0  0.09406504682885193 0.02243661144189054 0  0.0421425748208245 -0.03191944980671158 0  -0.03953892356416492 0.01604555493146083 0  0.08408130677371871 0.01610642903407742 0  0.08517950090207059 0.02146591712462651 0  -0.08282007047411215 0.01348185770098301 0  -0.050873116711012 -0.04957750034305318 0  0.02372381572718184 -0.07582453918467925 0  -0.06698711570570311 -0.06253576464286592 0  0.05322270556477062 0.07623813374298688 0  -0.02197824628096818 0.07988915315338886 0  -0.02404479971825092 0.08311542426475285 0  -0.05025700880839153 -0.02045957658265851 0  0.02378146008024559 -0.03546852684953002 0  0.03669851805680916 -0.06659979485104781 0  0.03494876073913375 -0.06324078584213588 0  0.04057971461087867 -0.06386075586913102 0  0.02332119741317639 -0.07202361775811345 0  0.02565200129357727 0.08970007635788591 0  0.07404315336224691 -0.04858866403274215 0  -0.08756875829081659 -0.01024172131189326 0  -0.04731259995404265 0.04328705396953202 0  -0.01362206444450405 -0.07925780444114652 0  -0.05104937924514271 0.04003122720442262 0  0.07632096336503053 0.03583568528536078 0  0.07960681640841398 0.03626268452889118 0  0.09114175548054575 0.01217023126638963 0  0.0417028513140112 0.08076237896951548 0  -0.01306248822286138 -0.04080841378177004 0  -0.09685215552942739 0.006926766164661242 0  0.05475065172745681 -0.03407955403014831 0  -0.08075359509513426 -0.01894651261908186 0  0.04336648602037629 0.03930910759940158 0  -0.09359863934305553 -0.02666919023134656 0  -0.0607309427288702 -0.04119792337581702 0  0.03932865849099006 -0.07921036340218432 0  0.00454689884710039 0.08158801392156961 0  0.03242874511810256 0.02763956556010527 0  -0.05463217636513878 0.08080147354260944 0  -0.05879940981808136 -0.022772956071712 0  -0.04201305770942763 -0.03022325872022192 0  -0.08868663879595193 0.004620029308259084 0  0.0646803034919681 -0.002377711743999543 0  -0.02733381585916819 0.03269739041090913 0  0.05020902781171617 -0.00349568596652542 0  0.0728074047168334 0.01864013406042222 0  0.07380294587219986 0.02369026379070752 0  0.07627937646302284 -0.004463716880447839 0  -0.01306157833640743 0.08890428608686579 0  -0.08989047342386726 0.01639612676331835 0  -0.02533928693440697 -0.07542744631731774 0  0.04084542906840785 -0.01740634557007105 0  0.08266120571858085 0.007332063511543733 0  0.08400348451598159 0.01069067850345698 0  0.08798611986304931 0.009664334350740413 0  -0.04068251500377017 -0.03907976726893206 0  0.03756752986726542 0.02075147287674542 0  0.03913259427094676 0.01771854112845486 0  -0.01397907145444244 -0.09644739688815412 0  -0.08631396920516655 0.04496528753877462 0  0.09326833512831914 1.615867775593834e-05 0  0.03406070813982329 -0.09139968940571226 0  0.06853870082837443 0.06376089954682869 0  0.07006076057194492 0.06745059782434711 0  -0.04433689972893842 -0.05524567553142778 0  0.06705592079780356 0.005090451032838669 0  0.06432166985028206 0.002971045352768918 0  0.08940373413645686 -0.02755428142618558 0  -0.08011360184935798 -0.03538775422479015 0  0.06342998791225637 -0.0189495603175077 0  0.06089973401279986 -0.03922289951509772 0  -0.04312222705669501 -0.07125241597613194 0  -0.01382689939376171 -0.07405939618042306 0  0.04567096614398991 -0.009120196637881809 0  -0.08035970540102753 -0.05492643383918335 0  -0.01950627038445949 -0.08981644758628805 0  -0.02147023432397727 -0.0950119685769894 0  -0.09728990714977746 -0.007320027194837568 0  -0.03293058757226099 0.05638888894806812 0  -0.04864575382727262 -0.07184129604409362 0  -0.08932463224064255 0.02795791361464236 0  0.068375180910748 0.03054891485317706 0  -0.06422306760107371 0.044486784623355 0  -0.06935746674751271 0.04389629315233065 0  -0.005701576360386201 0.08110600613457385 0  -0.02504764164662448 0.05558223216875396 0  -0.01201094063463915 -0.08454248038147892 0  0.08607091737886445 -0.0457033209020926 0  0.02286570090510571 -0.08793293411737739 0  0.02882004820207198 -0.0739390627466353 0  0.03180776821659743 -0.07538883389504866 0  0.04184729620053483 0.06223314792141102 0  -0.04493676788933798 -0.07625057236705539 0  -0.02841840188501699 0.03668800904011155 0  -0.03249195061216256 0.03566513597680244 0  -0.03203249636251249 0.03261438765574894 0  -0.02514145820178621 0.0776890596894429 0  -0.00943763144560035 -0.05722128135057263 0  -0.01690796720740271 -0.08712299680560898 0  -0.01418622334434069 -0.08868025266711065 0  -0.06750077826574634 0.03333356552547555 0  0.02645799107164143 0.05155108667323832 0  0.06950151295160571 -0.05177509453735862 0  -0.03316249614743253 0.08160777086220845 0  0.0009317630081354836 -0.0883988941528924 0  -0.08783490917867358 0.04144017004735575 0  -0.07295859450801163 -0.06427622206919877 0  0.08194818495736814 0.01994819856245665 0  -0.08228395729231165 0.05175974513581471 0  -0.0609839227417814 0.01282841553295553 0  0.0769991764541483 -0.03554460579088861 0  0.04282552807845582 0.0005552979151868568 0  0.03598703980851303 0.05429782425384523 0  0.07310347348622279 0.001980297988551505 0  -0.02665039788164384 -0.04667176322817533 0  -0.03269466226989844 0.07766994751482605 0  -0.06560275245248319 -0.02903078230679453 0  -0.02852448184638305 -0.0687880265893831 0  -0.02298885590156079 -0.06818138196556586 0  -0.09367884441994469 0.007354524430276406 0  -0.00677415625907281 -0.0475752515347755 0  0.01440468433949998 0.08185513390397027 0  0.01836023390044208 0.07993819009060585 0  0.05951629124993981 -0.05872131740590956 0  0.01221656539726938 -0.07030777809963151 0  0.01056462495692979 -0.07389479071075551 0  0.04536013989097636 0.07257967014367898 0  0.04703146078429068 -0.01230482658020821 0  0.07429388152204934 -0.009296054606436278 0  0.05905142155555537 0.07291376050895357 0  -0.04702168838031502 0.07625716612878559 0  -0.05856779155505026 0.07791353979034497 0  -0.05845828452770618 0.05156518933078009 0  -0.05514000913180555 -0.02802696509097165 0  0.05552845929927107 0.06019176525403284 0  0.05939804411804649 0.06343693719925897 0  -0.02276281615930494 0.08841441112188643 0  -0.05012853351340903 -0.01491536547077407 0  -0.02727674970234704 0.08703572757409425 0  -0.03565896649204671 -0.02373899240040564 0  -0.03746006133443577 -0.02904778196022816 0  -0.04334286083246523 0.07265541308291017 0  0.04666185275654651 -0.04696114656471336 0  -0.02654495679559608 -0.08665495654689619 0  0.0470369717438066 0.004091061068685555 0  -0.01854434769009019 -0.07556986303396994 0  0.04496617717221357 0.02783774441542654 0  0.09253165112267904 0.01539075853871113 0  0.09656829207795858 0.01304061389966544 0  -0.001351461155042616 0.06703093427982849 0  -0.08122559130801263 0.002057021072105123 0  0.01603791859580246 0.03961546369687431 0  -0.05629572372844675 -0.0743900381321928 0  -0.08182789508805549 -0.01140346548687895 0  0.081149565062147 -0.05419920753216566 0  0.01849808721330826 0.04240534101585968 0  0.0244706955234511 -0.03924264944206744 0  -0.05925998475547264 0.04264977888056806 0  0.04624461865110202 0.04389356300791854 0  -0.06477674133867563 -0.001156521402864893 0  -0.03743261755439727 0.03803919278417195 0  -0.08922884791999987 0.008368299241339397 0  0.01617811334039717 0.05920979936423405 0  0.07795806165184986 -0.04480311021941958 0  -0.05084223857197449 -0.0688637157444226 0  -0.06732796149011704 -0.0003363884713255382 0  0.05477833500741234 0.06548850246514874 0  -0.04997862331680034 0.03273411529009133 0  -0.08541457817075078 -0.008542374510981257 0  0.03636679458738469 0.09059081357236465 0  -0.09666029035718722 0.01214538683460964 0  0.01781633909473816 0.06436980335804809 0  -0.001903236125812325 0.06439769468952719 0  0.07868863328274647 -0.008720171178050105 0  0.06750838690014406 -0.05862456810442759 0  -0.0681056913675244 -0.01306628968840567 0  -0.003839265434039638 0.04250569114707068 0  -0.06393144004294921 0.0204886385748467 0  -0.008767914482506323 -0.061428101079039 0  -0.01250674453264649 0.07544060087081922 0  -0.01694730384773392 0.0776441738764327 0  0.03185525940210013 -0.05302689768468676 0  -0.04348768897009107 0.01361699184761201 0  0.07362135766313008 -0.04094107676602324 0  -0.0501851213815298 0.05620938354641735 0  -0.05545608762080981 0.05457891104170747 0  -0.07240253361682795 0.03105308687489572 0  0.05535496726505031 -0.03877608181021273 0  0.08812860304622103 0.01852875522017973 0  0.08168489349849709 0.0454008008396527 0  -0.06209678528148471 -0.05818391156662908 0  -0.0655234519077858 -0.05713362288065969 0  -0.06563289256611773 0.06117534061232364 0  0.02177640603032407 0.07442502401583334 0  -0.04082106458363122 0.0414057583775004 0  0.06267020512993936 -0.05679558074816207 0  0.02074335315721502 -0.04013714793844501 0  0.01952528183896585 -0.03772006810170949 0  -0.05207806191769146 0.0766382496264415 0  -0.07827761751804031 0.01653042043275247 0  0.001022071841198239 0.05026153368084259 0  -0.01375291560889413 0.06819414980624496 0  -0.01011371055969312 0.0675838778904263 0  -0.009955376561101285 0.06459684838256 0  0.0234369955358729 0.0649924198390299 0  0.02179794187190998 0.06063500041956618 0  0.07488092154165069 0.01126579990092039 0  0.07198472956184132 0.01350354561423785 0  0.04297362998381127 0.0763311032194204 0  0.008551589804201298 0.08869042226558946 0  0.01119576250852106 0.08405216818913179 0  0.07179820349356478 0.03966780611842911 0  0.07284220119121658 0.03585117191825458 0  -0.05165310951461768 0.02425127088348544 0  0.07026181633580023 0.01948213821603178 0  -0.08443848761436358 0.0489857244052594 0  -0.07110072225776495 0.03840180084211336 0  -0.07727518046767588 -0.03082274521779487 0  -0.001453105762779105 -0.09278714073762329 0  0.05840986044033203 -0.00148110385097799 0  0.08689759680732465 0.00310534573714341 0  0.07148211575356896 0.02914816130241902 0  -0.09735631453961772 0.004336974885364685 0  -0.006779669453348691 -0.09112102052221396 0  -0.01513846485417618 -0.04698315596649544 0  -0.03635654708228327 -0.08627960336011824 0  0.06010542733334939 0.03726266472768935 0  0.08023394006283836 0.0535102311602412 0  -0.07630061363849987 -0.01701347209798589 0  -0.03801978959883696 0.06145117148809037 0  -0.06857320212362428 0.02983881672606766 0  -0.06369873426485927 0.0319463923933884 0  -0.08470320598602032 0.02881393079641241 0  -0.07500526712371534 -0.0120451059483497 0  -0.07744279186389226 -0.01378417768181857 0  0.07494495461332924 0.04812978166730852 0  -0.03844868965550039 -0.06152968173830852 0  -0.007819707596453541 0.04939413138273576 0  -0.04602026033682893 0.06415120050383086 0  0.08811898815431578 -0.0323889878997305 0  0.09068834314312413 -0.03538477580852444 0  0.08541540489778393 -0.0352384869685481 0  0.07564421964525719 0.0403526616979246 0  -0.01410553585193158 -0.05463613359165642 0  -0.07876822485403873 -0.04563446859068998 0  -0.07784014423489767 -0.04265092537284335 0  -0.07368416760285942 -0.04559521385294378 0  0.07747601448815412 0.02725746578188441 0  -0.0751877444195302 -0.02604132039173015 0  -0.0459561163650263 0.05884532058263599 0  -0.04072858199586499 0.058302740011403 0  -0.07357303464623248 -0.006972657772846636 0  -0.07519292134330349 -0.003639118484864516 0  0.04548628630284945 -0.06694763366838929 0  0.06116263751318542 0.0165463269221982 0  0.03037700247285427 -0.08750724909887347 0  -0.0780919315560107 -0.05360217507107484 0  -0.08124823081985624 0.04661349459145377 0  -0.07879688803061594 0.05072852299903616 0  -0.07692908043962286 -0.008575213954631278 0  0.05383441423934343 -0.05063797129707134 0  0.01278266064793293 0.04750816503264748 0  0.009435600579930788 -0.08068012355587145 0  -0.03033249162522598 0.05844864878659162 0  -0.03187283922003795 0.06158296798156108 0  -0.005372727338217443 -0.08256988424296142 0  -0.02188815577478468 -0.0534511683770306 0  -0.04602058992610148 -0.02792758899770194 0  0.01613269665729826 -0.0838654810293526 0  0.0976427137352701 0.001222189847056334 0  0.02835243756988453 -0.03862014534711346 0  -0.06743703366700726 -0.008721582339478036 0  -0.066499553179872 -0.006230133161406535 0  0.01023729088308381 -0.04762799815497323 0  0.03658843253211241 -0.05809511677695761 0  0.01080434177189995 0.05714135162525934 0  -0.01720791675850612 0.04745279239748584 0  -0.05666106840026583 -0.05947955415489616 0  0.04195070288298457 0.06826570619098492 0  -0.037253365916629 0.02023943215937319 0  0.03614627057169981 0.02924198343003599 0  0.06236866432053133 -0.06611666610377456 0  0.06131415239635463 -0.06853499430848735 0  0.08007041892921375 0.02773887954352688 0  -0.09372357083821937 -0.02121154947555833 0  0.0407807086556716 -0.01193611751605126 0  -0.08648899299169638 -0.0133853461075426 0  -0.04950718751810257 0.03627690256989289 0  -0.04401345732185115 -0.01147076958550855 0  0.06715476895308486 0.04338988672006149 0  -0.02638450259472723 -0.05579671041362213 0  -0.04452143728733645 -0.04753629665962616 0  0.06137450591658946 0.0318618235084359 0  -0.0552540397642195 -0.05380782352462815 0  -0.05026384139337907 -0.05547671153722939 0  0.02894247543171564 -0.04205805223955407 0  0.02537897750193245 -0.04289758071527208 0  0.02610961570575961 -0.04644192995156614 0  -0.0677103500902284 -0.04983931286512444 0  -0.06606982984221553 -0.04167239986787338 0  -0.07097970582592006 -0.04839040827560447 0  -0.06938653139496545 -0.05338586285390843 0  -0.06335164099287313 -0.04388221327690178 0  -0.04210088264624244 0.02880196296643278 0  -0.04547043416660575 0.02781496653817657 0  -0.02343703633548188 0.03542685964562891 0  0.04627660700620469 0.0695821366909649 0  0.07469588523813607 0.04406028270692487 0  -0.0181676877894215 -0.04260518684857831 0  0.03805878728565583 -0.03622122814627819 0  0.09726157844605955 -0.008543360814720624 0  -0.01020093756053631 0.05673507597786247 0  -0.02744222167716481 -0.05160461495624334 0  -0.05627164344743204 0.03802635147813407 0  -0.05974842678737802 0.03538961957596688 0  0.05932297695936267 -0.0413366578284243 0  0.05772236301053043 0.07882389779960386 0  -0.02024932050519601 0.05510524929059402 0  -0.04051506211051483 -0.04703020073779687 0  0.02709158918068759 -0.05526429034034794 0  -0.06848622495282312 -0.04471429924395397 0  0.02817813354924597 -0.06524992972791781 0  -0.06521141197326359 -0.05434495811142358 0  0.03649928687339665 -0.02132592295433234 0  -0.07232768530694872 -0.01574363236622264 0  -0.07510363816201791 0.05394036333156243 0  0.08567744238758937 -0.006302704447705833 0  -0.06262748553841967 0.008093312878982578 0  -0.05826481605283665 0.009194094631964888 0  0.003750815909894878 0.08686221836403536 0  -0.003314611933035217 0.0755439016314019 0  -0.07016109599358361 -0.01853001630696157 0  -0.07189659011989517 -0.02325400911419889 0  -0.07432338603165066 -0.02048209832670332 0  0.06055115452217361 -0.06142128305328729 0  0.02596011191578866 0.08086446770324529 0  0.02069381332298736 -0.08939792414178466 0  0.04976350594876372 -0.02844508606719555 0  0.02721570810820886 0.05892121164537146 0  -0.04327539239953336 0.06160892803326617 0  -0.05373980799782968 -0.0337355710247945 0  0.0301224259863178 -0.02965755437073145 0  0.01111910456592962 0.06655804433016982 0  0.007584510105308728 0.06859768973234658 0  0.01276349191101616 0.06989646941471606 0  -0.03956691735591942 -0.03370372731594209 0  0.03214061916167717 0.03575971179268019 0  -0.02851340707676386 0.04974648918377293 0  -0.02790258946531802 0.0548143209401811 0  -0.0311844056933455 0.05266336503810681 0  0.01526979020479673 0.06924655381112059 0  -0.0354564379697029 0.02392620355559914 0  -0.04269205276090774 -0.02506713809427152 0  0.06944487705027073 -0.04603468567933208 0  0.04663457408503863 0.0005608074004668021 0  -0.06845033805933259 -0.0371373575490879 0  -0.07592647435251643 0.003387502063025962 0  -0.07838962968834744 0.0001463397263938714 0  -0.0734438692183161 -0.05145028634136778 0  -0.05366632589409484 -0.002089594194741489 0  -0.05148548359210704 -0.006772072894858662 0  -0.05585021750461284 -0.0126380525117419 0  0.04047497247145413 0.08342937179617092 0  0.04504217425427275 0.08637761907904967 0  0.0121428597987318 0.08677488169905219 0  0.09114831216877899 -0.02274681119574735 0  0.09540642826170365 -0.02061232318608649 0  0.001732762799585478 -0.07602283236999884 0  0.0009832071413623735 -0.07128114106618273 0  0.003974999941586461 -0.07147907823966859 0  -0.06468738642892953 -0.06375744209814821 0  -0.046530355696669 0.005352010664799043 0  -0.0457778356031158 0.0008450451667906989 0  -0.08487393862829995 0.02048505295134924 0  0.021092896692546 -0.06060547084232618 0  0.04916826708397893 0.01766509909458963 0  0.06509261839593995 -0.03617284459369468 0  0.03786067802223994 -0.04614702090367082 0  0.02061133010229863 0.03753443301661195 0  -0.007342736701593628 0.07472607183638356 0  0.03531959390018793 -0.04654987694128582 0  0.0283262867717078 0.03144389657773969 0  -0.003022929109816988 0.0923152645255447 0  -0.0004408789437216239 0.09356905777507764 0  -0.002009312869965251 0.09748543556345268 0  -0.05172026214605586 0.01135234794484735 0  0.03763863616731096 -0.03037661554785457 0  0.01279212596177139 -0.09677581575483196 0  -0.07122986818193755 0.03459865622167919 0  0.04655341648190087 0.03298809334426244 0  0.04825334667017078 0.03090326089199831 0  -0.02221997474502752 0.0486001141826471 0  -0.03623350438948761 0.09027263783196213 0  0.03549461827505006 -0.08625724107380198 0  -0.0006563534646302489 0.04219920423055296 0  -0.06198407145696602 -0.008575194034778879 0  0.01565866249762382 0.04515882117753012 0  -0.06393878192696885 -0.03398141896847096 0  -0.02365994704861638 0.0630993060793517 0  0.0155191130953724 0.05027205654842982 0  0.01497503422664829 0.05541542411779295 0  0.01764383904102559 -0.08614928796804933 0  0.00548293019965616 -0.082007388788498 0  -0.09146774958235997 0.01373809027396079 0  0.04946072538410264 -0.07191305112072735 0  -0.03605186668098215 0.05268188116965368 0  0.04386414871686884 -0.02508938985500436 0  0.04362130299126173 -0.01498049464780203 0  -0.05868978611947698 -0.07347526702711764 0  -0.0592502570198644 -0.07096174219840019 0  -0.07367645698845553 0.0506413575956469 0  0.05930980867893072 -0.07320527926810091 0  -0.05797798316007129 0.05895989479975399 0  0.0156152137825151 -0.07182101464144829 0  -0.05687036051068659 0.07522328577056273 0  -0.0933951875782033 0.02893056745827144 0  0.04217901949155547 0.01846978159992045 0  -0.04164749886037103 -0.007861137886878117 0  0.06715850608820301 0.01252216103030889 0  0.01718814538388765 -0.06398641749016232 0  0.006227972896425359 0.05866721157332298 0  -0.07390064902783851 0.01833604097560546 0  -0.008979357704975309 -0.09576089671495715 0  0.03500167708497436 0.02390896887120978 0  -0.07145276964862141 0.06669583799967622 0  -0.05576301181834191 0.06934029198924932 0  0.06656034271212471 -0.05477008389406173 0  0.0170548746529235 -0.05840577013445837 0  -0.02160085322076918 0.06669547350982093 0  0.03913492676477322 -0.06166861581316434 0  -0.07220250209365808 -0.0373938287114129 0  -0.0725668523115045 -0.034103532385935 0  0.02563006657257742 0.03946759170642542 0  0.02243142127631588 0.04072673592129315 0  0.05110200944721753 0.04041300631512909 0  -0.09228981357601632 0.004165830465257977 0  0.04073604261250408 -0.0689702658804513 0  0.06639034269024381 0.04772134383637351 0  0.06567728859298862 0.05180023223791735 0  0.06221105880591938 0.04836178000863259 0  0.07423437257751056 -0.01412654343744717 0  0.04262195310624073 0.0529212398581591 0  0.01477120040997516 -0.03951777868974854 0  0.01719161601806446 -0.03873362916510673 0  0.07239855554337017 -0.06043087123500607 0  0.09378384872812182 -0.005834310187687449 0  0.06021212179675717 0.04067915885278384 0  -0.03045185557617032 0.04051336749886984 0  0.05771822422494237 -0.05520504457567246 0  0.01750260896627882 -0.04355002069265364 0  0.08183669861944032 0.003534379762244106 0  0.08417131369494657 0.0007310225355252772 0  -0.0517697540469545 0.06859201410919848 0  -0.04236797407136642 0.0765346867702425 0  0.07555119343229033 0.05340844255261153 0  -0.04211862464356977 -0.01735866527929047 0  -0.08032236288944483 0.03046360483265795 0  -0.0796881302508145 0.02733872772327482 0  0.01920325564806934 -0.06874961841699895 0  -0.08602323359694541 0.02440205825107246 0  0.06912724029439719 -0.03890652785527842 0  0.008688730973389319 -0.05602195305015711 0  -0.03452281719605059 -0.05254334064969918 0  -0.03139214847549768 0.07379050001161575 0  -0.05335235384262483 -0.05758310277507304 0  0.06021239013159999 -0.0135517667480469 0  0.06006821637404534 -0.01007309501680195 0  0.05601722213147516 -0.01071825147508482 0  0.05425968684015729 0.05585898862274781 0  0.006935976366678083 0.08604355227269288 0  -0.0267153829006427 0.06821221465552171 0  0.0486310752826486 -0.06270481246949795 0  0.06888918390223728 0.008577001061892084 0  -0.002256264424713577 -0.0527949681931194 0  -0.03150470087806732 -0.08828584003825167 0  0.048173416229222 -0.08069627684314434 0  0.09376939391160662 0.02772251193340161 0  0.0682937455759955 -0.01876924562962687 0  -0.06488432916826606 0.04697230139764559 0  0.06708712277519241 -0.07097624842396368 0  -0.007898023175586875 -0.07796397138094616 0  -0.00774433913992167 -0.08178226435667001 0  -0.07793063437818455 0.05836327831909888 0  -0.08583607258603146 0.009483069479214609 0  -0.06159006609456681 -0.07007789255815694 0  -0.01611279585583532 -0.05193958313867852 0  -0.04099248304862206 0.07979722844566865 0  0.02205957275064815 0.08748788442318718 0  -0.09628115412136098 -0.01703361108254761 0  0.06963602121180101 0.05866756983090705 0  -0.05890182253182553 -0.03302576508242803 0  0.02478618515358231 -0.09447128929634091 0  0.04155007978025132 -0.05987564638915261 0  -0.06163438435085203 0.07375399473930797 0  0.0200612071842392 0.09553715906406707 0  0.02565408688984311 0.07317156036100678 0  -0.0764687007884185 -0.03474269969782509 0  -0.07913906127739455 -0.03897391114903218 0  -0.008509083768713781 -0.08621991150586331 0  0.04110759625188985 0.02290276995935005 0  -0.08682298589206178 -0.04478192060919678 0  -0.02979088277836222 -0.03496599504825443 0  -0.07181027775072828 0.01034016234325945 0  0.001253755981980352 -0.06301857166948724 0  0.003321055058813836 -0.06459306715314622 0  -0.0004966174003012665 -0.06760122448218636 0  0.03666826145009414 -0.05128586183416989 0  0.07371045053683323 -0.05322726017273441 0  -0.05942604424126584 -0.008427126960673312 0  -0.08487017928290085 0.03933704197827621 0  -0.01009999134315 -0.07663438648337735 0  0.09006030924929122 0.01463936608332021 0  -0.03850733133069732 0.05625268773675835 0  -0.0381270825609596 0.051296685170112 0  0.0352979628812824 -0.079407880365958 0  0.06696379317161127 0.06046346235894792 0  -0.03825646121360601 -0.07227843729018346 0  0.03798675510715059 -0.08336557470199545 0  -0.005485232009741929 0.05677685045585908 0  -0.08866426144789585 0.02002077456613556 0  0.0417890477156861 -0.07406825505281912 0  0.084957654149481 0.02666806504937897 0  0.05288092028117372 0.02991307194859228 0  0.0505437094843236 0.02683444941730593 0  0.05002948105480499 0.05385908491449685 0  -0.05674407122271793 0.005848890769220887 0  0.08598674554748902 0.01373070006576139 0  0.04851233895632977 -0.08454926591431872 0  0.04409823410248796 -0.08239030097491377 0  -0.03798821207011736 0.02614746376220079 0  -0.0399587691417404 0.02148720621379501 0  -0.0420628451583204 0.01888103500312663 0  -0.03547969797457325 0.08259723978077833 0  -0.04199433569296655 -0.08318647877242129 0  -0.04067517156571671 -0.08543774988359482 0  0.04456297400415015 -0.07308539528554631 0  -0.0716369309931386 -0.04105217586599717 0  -0.05053164346505621 0.02735715001040027 0  -0.05402886730090047 0.02892330094710212 0  0.01052102628863355 0.06111465360518412 0  -0.08882192565656687 0.03280788639838406 0  0.05066447091856986 0.05816561560645227 0  -0.04309782712611714 0.0393649924462022 0  0.002635402279836379 0.06790629065250803 0  -0.04200072168624005 -0.05977496595326023 0  -0.05529013203621549 -0.00556988978883647 0  0.03067649538522377 0.0789857386679004 0  0.0343102781317936 0.08253101526009332 0  0.03378865365265744 0.07879830378673068 0  0.06662325814073321 -0.06655976573878859 0  0.01112852777468795 -0.08250619361012951 0  0.007900282406667888 -0.08540465359167219 0  0.01268373132376672 -0.08572159657947567 0  -0.05158494246279837 0.03761731886191599 0  0.0209013842242087 0.05809647397796147 0  0.03040343070425913 0.06785940863293059 0  -0.01125179147724448 -0.05028121982300173 0  -0.05536575493171806 0.02580450144394224 0  -0.02673084782205638 -0.06616796991252691 0  -0.09248977746964422 0.03122649673735934 0  0.09135102871935423 -0.01290339393992009 0  0.005337129051023733 -0.0875471958168131 0  0.005981897770309344 -0.09008105089573354 0  0.08238350397174812 -0.01023227548777183 0  -0.06074567537343562 -0.07673399791739359 0  0.04946219641786339 -0.0497835676313131 0  0.07905270551731775 0.003664515415716371 0  -0.082723975883443 -0.02695478720124127 0  0.06206727223819353 -0.04813359253080888 0  0.01492054527402657 -0.04965867228686761 0  -0.006359071829111856 0.0709538016175789 0  -0.04081685521022926 -0.07356555540266056 0  0.02067346415493293 0.04533710715923835 0  0.02050854369074088 0.05025555690856823 0  0.02325109048563958 0.04789040834449067 0  0.03099571977105096 0.05240355581515968 0  -0.0113943436621919 0.09377557183496517 0  0.08787119398147454 -0.02003655200107968 0  0.08761517280553362 0.03571878071355131 0  0.03088682504424119 0.08963056223070559 0  -0.06523781282056705 0.05289344095445017 0  -0.03755502526070312 0.07884857290864984 0  0.04610373366301947 -0.01761522593600041 0  -0.09344583829153949 0.0215219223254263 0  0.05399286057421664 -0.04742940152922278 0  0.05755875836308688 -0.04608321494824353 0  0.03707865103709329 0.04402914622628961 0  0.06864540462306133 -0.02843188466025374 0  -0.04146267647661029 -0.01304493110065053 0  0.03281019273657877 -0.05954083230476061 0  0.03190120833302239 -0.05624469174883966 0  0.05066989434090886 0.07176928988735512 0  0.02231854656905242 0.05335034955130488 0  -0.01480819998918543 0.0587344697786067 0  0.001466851442805956 -0.05279000180298898 0  -0.02291428374634318 -0.03532498134263475 0  0.02083519925309744 0.07946446184098802 0  0.05579317276539103 -0.02874498919889271 0  0.05464561729890271 -0.02403613832272965 0  0.05168742790248704 -0.02683023391838418 0  0.06612957511585055 0.007471934020239438 0  -0.0972830809395074 -0.004876005620213577 0  -0.001080548029690055 -0.07611286181002735 0  -0.01367613062447103 -0.09392022022180942 0  -0.01506321665212231 -0.09182500381208338 0  -0.05282683974665195 0.01888051051815615 0  0.02469596749757842 -0.05596011036039072 0  -0.02939756815086718 -0.0304912407145643 0  -0.08302405594837715 0.04384190062616709 0  -0.05682784390066659 0.07966802938625378 0  -0.05863958715960439 0.02672400982173929 0  -0.05997884068490621 0.03133839591128171 0  0.03965055960749049 0.05611615965163772 0  0.05250177592110366 -0.03187661313041307 0  -0.00208686884228093 -0.04943351433546249 0  -0.06854635712888929 -0.03402458902340098 0  0.007087725400594077 -0.06779852913669995 0  0.01056488616136067 -0.06797971685449669 0  -0.03548550578844002 0.08725124824131028 0  0.0584372605255566 0.06806160394260856 0  0.04905157992771718 0.02243533698811142 0  -0.05207689408339813 -0.08139035738851579 0  -0.0464188472824314 -0.007713205803425452 0  0.06353928100187232 -0.02139003468713951 0  -0.01564051283709526 -0.06933226177611937 0  0.009040545922541986 -0.09029617902134096 0  -0.02637149457753146 0.06007759960960214 0  0.05449316921371853 0.07180336722107965 0  -0.0122458041123016 0.04400830808590418 0  -0.008777121720786589 0.04142051501493506 0  -0.02040584118544699 0.09225648021171384 0  0.0414083541950739 -0.04097725916905306 0  0.07999490926190579 0.05627593636116222 0  -0.01789567833864978 0.07051225239679551 0  0.01224995571865218 -0.04024183601993522 0  -0.0585478619278688 -0.01249387235914235 0  0.07348773204230036 -0.03847264463704429 0  0.04437150675861488 -0.04971896821925439 0  -0.05234760455389564 0.08176801018995086 0  0.05921970854211372 -0.02215736502200405 0  0.06106390686802651 -0.01820211999694947 0  0.04843243371577527 0.008328080871765188 0  -0.02829301233991202 -0.04845352068566924 0  0.04336665228850716 0.03141996979774401 0  0.04164836840179384 0.03442799425154378 0  0.04018566650561406 0.02976019125455304 0  -0.07512421389565689 -0.001195386931280874 0  -0.07012658133662074 0.05221821829820565 0  0.05463357687265703 -0.08067953812898844 0  0.06648882605997525 -0.01474560036855367 0  0.07575664312151685 0.03163219047957239 0  0.04446732300864439 0.05458971596007043 0  0.06431743568493214 -0.05152966404622904 0  0.06163643957133917 -0.05404005566584245 0  -0.04215585271320779 0.002819294463053412 0  0.03491370993295958 0.03218491997129447 0  -0.07746669121395926 0.05344234926881876 0  -0.001935320595462565 -0.09762688139881122 0  0.055087833764557 -0.07352181366639811 0  -0.04691542472867828 -0.01937976100637962 0  -0.05370521190980302 0.006901529948676226 0  -0.05118383204968103 0.006381286875413973 0  -0.01072164182634529 -0.06712204468659658 0  -0.03659073011710042 -0.03982430978297292 0  -0.03658379224061512 -0.04261034602464839 0  -0.06121903993343018 0.01776025475801273 0  0.07889435744494201 0.02278714938885627 0  0.02970944310576971 -0.04557742868281268 0  -0.01388156290274098 0.07777131841323272 0  0.05128484032579064 0.03498099004189073 0  0.04860285715054507 0.03633974180692335 0  0.03000770439592949 0.07542426490564258 0  0.004268981072971106 0.07122905344699942 0  0.005942094779660618 0.07315853251297265 0  0.002832600021217215 0.07582730302305345 0  -0.02438816593616273 -0.08312774986880585 0  0.0349039783141473 0.06283603442560506 0  -0.004270373075499913 -0.09701792401324567 0  0.01969390963244563 -0.05463207522429136 0  -0.09311100234623507 -0.007289499220099253 0  -0.01550965202932853 0.07269558818112459 0  -0.02668226312102599 0.07207491589311595 0  -0.008215737353217343 -0.04325689431610022 0  -0.09108746481239875 -0.02330832274653957 0  0.08346315965382148 0.04118246744952229 0  0.08376300455513348 0.04359513500052894 0  0.04983310963991051 0.0801242650428821 0  0.0505329085018547 0.08342745524508689 0  -0.08841020359622627 -0.02586193919845411 0  0.01957354446399463 -0.0844868885066736 0  0.01211002814970208 0.0919537268271627 0  0.03494890050425782 -0.04923723967908306 0  0.04807314283284162 0.0409797662225263 0  -0.0910984912485603 -0.03571014170614199 0  -0.06875140171792389 -0.06415461879686246 0  -0.05466060577836167 -0.07047397336516638 0  0.05387236433494848 -0.04317774432434681 0  -0.03114710677627923 -0.03968015954969346 0  -0.01594132822413703 0.09344448179937713 0  0.0255506803103676 -0.08003147187029573 0  -0.03139369296136738 0.08878608257174965 0  -0.03307852844352407 0.08675492611091176 0  -0.03413351822747108 0.091436404944264 0  -0.03194314319195483 -0.07273244254314382 0  0.05914932974026461 0.01919419287470154 0  0.05207024551577903 -0.01348396190761604 0  -0.02583592246801389 0.08475140184737118 0  0.06647075467087821 -0.006789153077889656 0  0.06710265688728433 -0.004446564230817358 0  -0.05245384852928327 -0.01301230768953433 0  0.06405991655071322 0.06115341811449922 0  0.06294385815878743 0.02476212108363252 0  -0.07561578653784524 0.03124246793910296 0  0.005422332101314506 0.0785774688116069 0  -0.02521757718376692 -0.07099183209166655 0  0.08863978449615582 -0.04139127026284353 0  -0.02470205740030726 -0.05159012582540791 0  0.07766323853603557 -0.04072545170895375 0  -0.09499449346881146 -0.003360702180558141 0  0.05525099806871709 -0.003692965526317642 0  0.008174717003209493 0.05359919323585499 0  0.009641297333542586 0.05156867128692804 0  -0.07080904330296019 0.01449998910747211 0  0.01060989181120133 0.07475998575298842 0  0.02443886818599499 0.09462340474417262 0  0.06043955963072349 -0.07661974178916464 0  0.0558824114662987 -0.07596176164481573 0  0.05832380513784351 -0.07809039021894038 0  -0.01517775505096897 -0.0835219495638775 0  0.03614303932879872 -0.07130612163603055 0  0.06759483083238697 0.03959354282798502 0  0.05699659077382069 0.06346257671744074 0  -0.03212341678777213 -0.05113375655689228 0  -0.03109705271616864 -0.04829837154351021 0  -0.03448887193415338 -0.04689377036058225 0  0.03484099985883695 -0.02380701709751583 0  -0.01646286779442507 -0.09650162949737419 0  -0.04903400676827733 0.05139080090361542 0  -0.0463784325642095 0.05305373917491761 0  -0.09028771923208076 -0.01496290062584105 0  -0.03307672136588174 0.06504388524605255 0  -0.09563593172287349 -0.01215953235290029 0  -0.02025236796641906 -0.07065474814501006 0  -0.08099087126825623 -0.03179000269899723 0  -0.01079683968489657 0.07205232695095777 0  -0.06477090056969788 -0.06709800060034003 0  -0.06164194518561857 0.03833789564141404 0  -0.03073109894851288 -0.092993833497866 0  -0.03081344252099145 -0.05859299098972717 0  -0.03340411380141637 -0.06181983343024423 0  -0.03535551841407542 -0.058939879195484 0  0.07194619073323755 -0.009645649409690666 0  -0.08140265263610894 -0.006794264198855647 0  -0.04371727127635505 -0.04333283444020992 0  0.009252765367983768 0.08175345769808741 0  0.06468417087551059 0.03879511322665796 0  -0.05203768451218796 -0.009115743598702068 0  0.03830194700184312 0.07058324889330155 0  -0.06012985649864151 0.004414068028217869 0  0.04553072186031985 -0.04186521924319087 0  -0.06379515446172222 0.06905211404504817 0  -0.06241696392692334 0.0661213828222293 0  -0.06677939819977428 0.06544064307052394 0  -0.0619544617963254 -0.04849239246913339 0  -0.02023670983790963 -0.03858116689403852 0  0.01839268139370719 0.04750815580511206 0  -0.03393119805611009 -0.03416910338721482 0  0.03971740833803238 0.01431550043626932 0  0.06177773416579624 0.07606178034076486 0  -0.06448697660191241 0.003863185987139598 0  -0.04618269592627609 0.04816859693374501 0  -0.04598752704735243 0.02543838747159411 0  -0.0004057771861070434 -0.09489819960941855 0  0.03352444320172401 0.05942239999201072 0  0.04912243175403581 -0.03357199144509794 0  0.001220340871582996 -0.04228601473453127 0  0.05978199110883101 0.05298212051310349 0  -0.07545664975344957 -0.04209615029855679 0  -0.07435595744409737 0.05809828053151733 0  -0.04089300722834695 0.05347202739186422 0  -0.08515788696134449 -0.04125774479050975 0  0.03910836495571823 0.0731396258996575 0  -0.05350253750796234 0.05326480381700396 0  0.0706236786775238 -0.03484823605072702 0  -0.0400317656831306 -0.02849209273063029 0  0.04038879182722974 0.0520033432778121 0  0.05748166002627195 0.0432837690007995 0  0.05941348501034893 0.04568176615799565 0  0.04292187152012664 0.07271191824289604 0  0.03309539914298076 0.08686160292401206 0  0.03421405461890635 0.09171670295581044 0  0.06718024540982054 -0.00974255683360677 0  0.05980031143298801 0.07751393789338246 0  -0.04432064903016408 -0.01635434929891469 0  -0.04241899957857147 -0.0203205477840749 0  -0.02691444088650087 0.0415543046773726 0  -0.06872656560538574 0.03867841682868985 0  -0.06664688729153354 0.03993123228429626 0  0.003559830293818466 -0.06726576060053821 0  -0.02063371320461886 0.03661006577635868 0  -0.06549706408871828 -0.04709490288909459 0  -0.08722316361288258 -0.03411445227125907 0  0.01315030586702636 0.07455180542027695 0  0.01122526890913412 0.07896583993680607 0  0.02183122284343864 -0.09149647441325177 0  -0.06830648594645199 0.06951939688831583 0  0.03050155773399535 0.03243939798532824 0  -0.02712720521344976 0.04518713255516213 0  -0.02298805682703665 0.04355230813502359 0  0.00456039576558082 0.04172395528392191 0  0.01251758467078587 -0.05314245644300357 0  -0.00849728628273348 0.09715413813158462 0  0.01622599202166388 0.08464247089638866 0  0.0865432394995191 0.04474193810548167 0  0.0897262167685824 0.02946203535748478 0  0.09069514092656045 0.02530714081399416 0  -0.039886677656832 0.08948644865901546 0  0.05304997319313225 -0.07766116500005753 0  0.05247640448702608 -0.08226718714699002 0  -0.05409544765633901 -0.0204469743785714 0  0.007386143860183465 -0.05802538484202025 0  0.05280465055873082 0.002006799068746045 0  0.03148194193976332 -0.06726381818508308 0  0.07822223438745751 -0.053151598531797 0  0.0891934858237213 0.006516406896235338 0  -0.01683021992668417 0.04311889708200622 0  -0.06270127760590247 -0.07514504743995029 0  0.06164393889764213 0.05524212896273263 0  0.02796920348081669 -0.07887129520183914 0  0.06067155285515755 -0.02906151081278598 0  -0.02764894511772862 -0.0382816487785586 0  -0.09426128851128619 0.02636597333609915 0  -0.05033379170486796 0.07508495732121519 0  -0.04225247169449026 0.02372112397608422 0  0.02998823643198581 0.04496602284494162 0  0.08367086214072374 -0.00757699069406565 0  -0.07106602552380724 0.04230622540328936 0  -0.008052378739606344 0.07699870557205522 0  0.07587595365204924 -0.02582461313791688 0  -0.07852412439918295 0.02400504317195984 0  0.08056643667739533 -0.04930497534939197 0  -0.0183847820854609 -0.09321767894309164 0  -0.048391581759636 0.04114223470167554 0  -0.003999052200273365 -0.06325732800906668 0  0.05397505595775631 -0.06586812170375587 0  0.05087414405990094 -0.06441583917658041 0  -0.04002439662950601 -0.06455912139508997 0  -0.05500559531567897 0.06450148657096356 0  -0.003258939767141024 -0.04182454277659881 0  0.04061185271995267 0.03846595809465542 0  0.03592204804660866 0.03942309443007528 0  0.03714086843303981 0.03668734925214308 0  0.003404366184302244 -0.0861566539316744 0  0.003341863967481551 -0.08380367260190318 0  -0.004084272366133486 -0.08601532142503046 0  -0.07816187080498535 -0.05092671890387033 0  0.03371478400774174 -0.04478945859935479 0  0.03477645822557222 0.0672418397347251 0  0.08024853685355673 0.01520059709262067 0  0.0176937009668528 0.05215800712393077 0  0.0510033072930338 0.01181114176250155 0  -0.03327639750240727 0.03959220982267994 0  -0.04769242228930796 0.01824902943057347 0  -0.03296157773105651 0.04420050860979915 0  -0.08086117228924053 0.004773227620043542 0  0.04727234349771399 0.05792425066672556 0  -0.06017530350031876 -0.0001082353019931661 0  0.02370923915825749 0.05614984293409914 0  0.002769436393159329 0.04626056858518554 0  0.007399134251629177 0.04641590660713938 0  -0.04817380409742414 0.06095069628451707 0  -0.04490939544134496 0.02081760006179424 0  0.00638391630255867 -0.07758193873081423 0  -0.04927662009717984 0.009081145529104721 0  -0.03423133470550719 -0.07691864142918316 0  0.05961646586637726 -0.03426724266118539 0  -0.075544229804391 -0.04699203511780775 0  0.09734516221352174 0.008238789942784638 0  0.02701372305582017 0.04707399486030211 0  0.02708708259497569 0.04242262654091398 0  0.0358661461885722 0.04908632595225023 0  0.02904510595109621 0.0369528205338553 0  -0.0547778584441795 0.07409076091780925 0  0.01529878608689882 -0.06569688269176106 0  -0.04853048015020521 0.06682912500212687 0  -0.01398612355802406 0.09217910358584137 0  0.03753773500406012 -0.01890634248652003 0  0.03147704227499327 0.04048593669954738 0  0.04565040874831284 -0.03462432894130435 0  -0.02823107499504279 -0.07116792394248653 0  0.009337336160118788 -0.05194795193823097 0  -0.09024692066224506 0.03821130392709435 0  0.08460120856810381 -0.04390335127478058 0  0.03652709733361962 -0.04180817304335614 0  0.07561517496216165 0.01669220598129976 0  0.07792733354196574 0.01361611660752484 0  0.07783991207890159 0.01837806642440325 0  -0.04646899572894812 0.08620605230432062 0  -0.006126536797225598 0.06754321612520856 0  0.02531825832441409 0.06911330650304606 0  0.02533416789201386 0.06658587076541143 0  -0.04587673301485893 -0.01314955425665959 0  0.07148346179001555 0.02351185799335271 0  0.04232135457405304 0.002858864178184851 0  0.03730782272062371 0.06715091815667276 0  0.0376634685677991 0.0635575670934108 0  0.06195572376677074 0.005507850327402994 0  0.04997556981568031 0.06689870990580314 0  0.04707017490224587 0.06485829623203081 0  0.04625164529679808 -0.006735719107030686 0  0.04152187009383772 -0.006510237824344018 0  0.06487413560832325 -0.04559535188943074 0  0.007650159781966537 0.04153305230644099 0  -0.005556361158659642 -0.07761623656665102 0  0.03862711835652834 -0.01653032643684254 0  -0.03783145133525729 0.08312385123170336 0  0.05361352038539801 -0.002058996540898838 0  0.03870854790068684 -0.02204113514936895 0  0.00263832139839803 0.04860463490944728 0  -0.07844902097579716 0.01072720054447953 0  -0.08030115011121701 0.009187887737795691 0  -0.07873911009147642 -0.005989629373439457 0  0.02463440336927835 -0.05115438380814987 0  0.06076803934907848 -0.02673530765581315 0  0.0316492002765783 -0.02750262956452411 0  -0.03683101551204923 -0.02000997282997711 0  -0.03005522659715212 -0.04409580052635617 0  0.02339029219623872 0.06264350819970886 0  0.0005372943878944807 0.05335712931750668 0  -0.04335086880572787 -0.06188145949513609 0  -0.002629711382015407 -0.04603106902917753 0  0.09631957047210862 0.01829898536355116 0  0.01612933729136559 0.073277593171082 0  -0.05233615891564401 0.03259138692364944 0  -0.06090035829461528 -0.03682025473017596 0  -0.06333389386377204 0.04098561233627427 0  -0.01020586887277908 0.06093074044959816 0  0.04009101998078847 -0.05425938235432447 0  -0.02509258977420193 0.09132863120186044 0  -0.06187724478850127 0.0274895724475511 0  0.0495599934873264 0.04551897121676673 0  -0.07554089102576331 -0.0382992560698629 0  0.06177497659160883 -0.02286067053058699 0  -0.03499626801139949 -0.03648762902005054 0  -0.03752969570856265 -0.03259017034805287 0  -0.05766538401710343 -0.02063033446070163 0  0.04587025249241896 -0.08068772360731574 0  0.07195407861994425 0.03373384813923913 0  -0.02441750290325606 -0.07321660745667838 0  -0.01961845892958836 0.09575473750172739 0  -0.01423005268705064 0.09687225086954142 0  0.092996901807814 0.007846393059462475 0  0.09437518598684701 0.004909747334991261 0  -0.02607333936094316 -0.09454053665016286 0  0.06805675863396775 0.0524499927553289 0  0.07003585502283478 0.04940221339533024 0  0.07088504667315006 0.05395488323649539 0  0.05283857988343553 -0.06860554683149517 0  0.04968711076616173 -0.06757061745995438 0  -0.09804159270492338 1.235990476633475e-17 0  -0.08316815969860589 -0.03105713426950022 0  -0.06211701208928802 -0.03936483580607824 0  -0.0492873597766796 -0.006101503048800645 0  0.03149597423094631 0.04835521673301756 0  0.02771112506543774 0.04963232619670964 0  -0.04839624100009703 -0.02415996012133924 0  -0.04870218770538975 -0.07929220356667008 0  -0.05294800396706496 0.06123445208299987 0  0.03019138683059523 0.06294103053645893 0  0.05327628387965923 -0.006866517662784303 0  -0.0174471459431206 0.07530602409299599 0  0.07168833229765746 -0.005122942843931687 0  -0.09366047281353898 -0.02896573483968689 0  -0.05015053452479089 0.08396289789809072 0  -0.01894712440280038 0.04099896308523435 0  -0.0919693619274024 -0.01866481869516059 0  0.05042823899118552 -0.01817648659726574 0  -0.04840483092235585 0.07123676780609467 0  -0.03751220760319661 -0.08422794824282039 0  -0.05537817088113495 -0.01629043363233636 0  0.05259655570000118 -0.05407274230486648 0  0.05170066659226574 -0.05713557506492891 0  0.04827369917112569 -0.05511198019386029 0  0.04657048339359347 0.08080978636760819 0  0.05305513245799926 -0.03884430018981985 0  -0.07161436790927062 -0.01088000137648623 0  0.01924602575978944 -0.07330652882585006 0  -0.06222964636697268 0.06042682047884159 0  0.067149879995187 -0.04647097863302196 0  0.01377340988152506 -0.07864017265920817 0  0.004439155875484381 -0.07949308204553522 0  0.01229417044085684 0.05228611557923168 0  0.05841166511472561 -0.00384841282516003 0  0.06194702288659824 -0.005267953503218151 0  0.06314683905135034 -0.007307997424118708 0  0.06221342386746237 -0.001392304582218859 0  -0.05425459249727601 0.05842115019856557 0  -0.04677831658770314 -0.03227977714814526 0  0.05593552498393484 0.08053801937497429 0  -0.03039825316905654 -0.05507493281895607 0  0.04268691325299977 -0.001716990970056313 0  0.06236923526782327 -0.03629829858834861 0  0.063069713537831 -0.04054971958099475 0  -0.03248927258242296 0.06908919760449626 0  -0.0564513984929145 -0.03975703043041674 0  -0.07365045265791184 0.003291511101404333 0  -0.07486959256486177 0.03527911176832377 0  -0.01783594403988273 -0.07788455062927876 0  -0.002617287420754253 0.05309922529503312 0  0.03876019083969687 0.08967885226464009 0  -0.006534800221908555 0.05317999588073971 0  0.006000876746495775 0.09061417659597906 0  -0.08647779004061651 0.01399580816281961 0  0.09802520728086991 -0.00368247111883585 0  -0.05221815546830579 0.04999848146645747 0  -0.01314814741583462 -0.05737689625975163 0  0.08423158472441686 -0.04065662918929313 0  0.08732364819275328 -0.03725045218454552 0  0.08397601965206436 -0.03744246748871044 0  0.01256739946090274 0.05558170615034219 0  -0.06338287501310326 -0.0230225898415703 0  0.06619201158723331 -0.03816386082138286 0  0.04362363243299492 0.01486547862213103 0  0.08863407442989434 0.001637675935956119 0  0.03297977319375831 -0.06441367064242344 0  0.004814930686286498 -0.0946642746377217 0  -0.02248543985642385 0.04026948375275958 0  -0.02539874142924625 0.03837553914663818 0  0.06896771217777171 -0.05398013018740985 0  -0.05109704457154065 0.04720489347144381 0  0.08629947152767095 0.01135974814601351 0  0.08499795420560452 -0.00380170048545821 0  0.0766643133824892 -0.02821445282886761 0  -0.05907782487086834 -0.05209693249905081 0  -0.05883786515657717 -0.04925534264993109 0  -0.005388285464303611 0.08815317670659592 0  0.0172541169168072 0.0897121502815703 0  0.02043103381778575 0.09042983977448056 0  0.01632221125348738 0.09239055598717641 0  -0.06669090636032865 0.0679021356816191 0  -0.003598632662673328 -0.0738610252994364 0  -0.005885117682294377 -0.07417749210963238 0  0.008676845476315732 -0.07259677095400895 0  0.08106449363415459 -0.04096880381505861 0  -0.07212478859759798 0.00076260581243217 0  0.05746881373644837 0.0486936805578388 0  0.05453830135824976 0.0508337126562327 0  0.09572644604310691 0.02090020169096562 0  -0.06441620461521248 -0.01653067700225301 0  -0.06548934033203126 -0.02055714572906107 0  -0.06805447215705457 -0.01755985464336342 0  -0.02655360137277126 -0.07734175638475203 0  0.065469172233817 0.06502044915033384 0  -0.05955665686597349 0.06310420028121537 0  -0.07409751141388922 0.0232847414687449 0  0.03111148460602959 -0.03168548511178972 0  -0.04976124939916852 0.0451465418994537 0  0.04316587366297209 -0.0367592855846813 0  0.0410240700904457 -0.03426790569282186 0  0.04442643803849326 -0.03246061860880185 0  -0.02200036743531936 -0.0660475016924439 0  0.05605882112929483 0.07621606786849791 0  0.0630694986726239 0.02099508213527797 0  0.05487730009090746 0.04639289349903133 0  0.02274110852100973 -0.05244054209974821 0  -0.03627663780704972 -0.07494653074908726 0  -0.05119415642400229 -0.01690389114161259 0  0.008990349666179575 -0.09711965594900092 0  -0.005307746236294008 -0.09489129379373866 0  -0.002629506740658216 -0.07181791719010271 0  -0.05371699577447034 0.01568488736361145 0  0.006697158741481404 -0.06118258190404942 0  0.06322427133111952 -0.06981086895490782 0  -0.01209589816430517 0.08492390099888243 0  0.08103205102343569 -0.03402484807762386 0  0.09149187722475362 0.00339069635485973 0  0.02058324976826911 -0.0817375734850465 0  -0.0949389940030097 0.01695659310646113 0  0.09718048235853392 -0.01347760318341219 0  0.0476982641867302 -0.02436598853740879 0  0.04754474705729653 -0.02170508802532703 0  0.09035990293670954 -0.004811476484707185 0  -0.001824216907818833 0.04692867873089147 0  0.05247111725783053 0.06364040941583569 0  -0.07422918696474727 0.04332579726996312 0  0.01992857600003444 -0.07571395044325423 0  0.04484868475452684 0.07757083975854479 0  0.07056439505703367 -0.01709049100375872 0  0.05949992358790143 0.004474059684974914 0  0.07720287837443418 0.0250147300655185 0  0.03628553636745534 -0.0910103753398601 0  0.05149651556422723 0.05212934654244345 0  0.01985804613088403 -0.04995997646444827 0  0.02307693508545508 -0.04795631568657246 0  0.01898153115945225 -0.04636432490013407 0  0.0198618918931388 0.07561290721990643 0  0.02870425000286186 0.07214524583212274 0  0.04425504521214049 -0.0447386439271968 0  -0.03827011354035475 -0.02444534494431096 0  0.01187269591639078 0.05911443650309235 0  0.02363331214239478 -0.06477883209800724 0  0.0355188695674697 -0.0685146641007348 0  0.0847257836060252 0.03929277443589167 0  -0.08740706201423788 0.03630818860937522 0  -0.0452762479362173 -0.08654451898063475 0  -0.03990722371601828 -0.08953254409685399 0  0.006536147739442597 -0.05062609894564381 0  0.07680256326382119 -0.03149423184441445 0  0.0007146107396101224 -0.04915144260030661 0  0.03792296979842828 0.05982145085581251 0  0.005524504393117022 0.09798172415134371 0  0.0545110857932315 -0.02163795843155923 0  0.02683860269910183 0.07623521488344008 0  0.05600971131520942 0.03491614807994332 0  -0.02715885305902535 0.09044389482249564 0  0.01281393235842859 -0.09432553631314793 0  -0.007460311277938251 0.04484857026387608 0  0.08615858590351859 -0.02802501565067484 0  -0.003878589171847289 0.07144667700946293 0  0.01474307061913532 -0.04701134441885724 0  -0.02656267410268155 0.0485517973652425 0  -0.05412269316209782 -0.02377725060288505 0  0.04453556873515003 0.05000667993456653 0  0.04733685406203592 0.05315741957628493 0  -0.08533472237763803 0.01829507013278286 0  -0.0518096870836658 -0.05269660191211042 0  -0.04843205796997421 -0.05403417270613487 0  -0.04735484381012571 -0.05118811342862516 0  0.0573100345969686 -0.0667999866892571 0  -0.05809377285260348 -0.02778748398068525 0  -0.04588739560077347 0.03917716151527413 0  -0.04690205229396662 0.0367205982932185 0  0.07593998019181698 0.0612994508061392 0  0.07360317536256901 0.05759429242095854 0  -0.0002590103506147609 -0.08040768791428103 0  -0.07568972113706915 0.04897482799436355 0  -0.07808788252158656 0.04468028345452871 0  -0.0788229907435152 0.04252244463380878 0  -0.07889815515223782 0.04846523958149472 0  -0.0481565176196485 -0.02874011763044439 0  -0.02757136959065924 -0.07517627894890833 0  -0.03126807231524895 0.04739024222365786 0  -0.008406208858152733 -0.04100941792890202 0  0.04098723931151566 -0.02197186206236789 0  0.000542285183263133 0.06871677759630999 0  -0.08224375747416575 -0.05338533203356228 0  0.04722610061217306 0.02883975943535226 0  -0.00560372108230833 -0.0494779146194634 0  0.09166278888734587 -0.001559887595594964 0  -0.02853874640238855 -0.08935596689881529 0  0.09270843905938476 0.01766723051053549 0  0.03334160486067085 -0.03170606700856637 0  0.06271021821765892 -0.02556771574579735 0  0.02628988998961721 -0.0906720021086619 0  -0.05723390923197282 0.04368188754679128 0  0.004597188326449333 0.04497641948462512 0  0.01986483302442553 -0.06659264275090468 0  -0.05522193826387024 0.03354757711895576 0  0.05135830864744492 -0.07309160800376371 0  0.07379679303878167 -0.05870007320722109 0  -0.07203919253281191 0.005682614833941833 0  -0.03854853134055086 0.07569783979957233 0  -0.03557350765574365 0.07386356634551289 0  -0.04933049579632268 0.02124269845321343 0  0.0658006283381397 -0.04986278489805452 0  -0.04351872394307937 0.06990452148266041 0  -0.0575048015377782 0.06113591065154995 0  0.06376085035240789 -0.07460707908258735 0  0.07461680084735106 -0.0629478109256236 0  0.04822231975160214 0.02449703461992761 0  0.05783136967982077 -0.02028286569575294 0  0.05732948665932148 -0.03035871800649307 0  -0.02557479489318962 -0.04205430018274156 0  0.03655175158090126 0.08243834484603382 0  0.003293751850772147 0.06387865693101311 0  -0.08206242820720838 -0.04235983348670019 0  0.05298746844105533 0.01025851684434107 0  0.05542877835557493 0.0115992880209758 0  -0.03704267708782048 -0.06725200068488092 0  -0.03535212855975476 -0.06416267016268522 0  -0.02463350292416864 -0.08778181597756217 0  0.02212683178390452 -0.08582863563236866 0  0.05121854349437787 -0.02461181555245173 0  0.05919607022092066 -0.005978748487687784 0  -0.009410078388748903 -0.05476615674492003 0  -0.02175188132413116 -0.08613962626192614 0  0.0529544848208969 0.07925849388918986 0  -0.01965171502833373 0.06562845286921258 0  -0.002234742851441306 -0.07805686399587529 0  0.004889163726531377 -0.05308539800782274 0  -0.05708823336530664 0.001364367641740351 0  -0.03494014793495853 0.05808489517685865 0  -0.0009017526684255268 -0.08467779516313763 0  0.09800826753092587 -0.001463662021559033 0  0.09332848456178987 -0.019746623925045 0  0.0472210168925907 0.0737744744196458 0  -0.05534986058376237 0.01258084757031812 0  -0.07502062676882237 0.0408395019805712 0  0.07837404858641765 -0.0242248418838085 0  0.08040511467506496 -0.02616801090018802 0  0.08256223521262754 -0.02253246373097499 0  -0.05793987551733482 -0.0671073972416692 0  0.06458780497187885 -0.05930131265218531 0  -0.05078106796509 -0.07686495557550686 0  0.03856892579792764 0.04623504632914349 0  -0.03541609680664145 -0.02818018446896969 0  -0.049389994254085 0.0003799974771625089 0  0.08788560829909114 0.04299262356679959 0  0.07423520346260053 0.06425126161055759 0  0.03813674995957934 0.02581233035171547 0  0.002471767933325043 0.09777044094993223 0  -0.0432753067646956 -0.03494387246695755 0  0.0719215098858549 0.0434856834266267 0  -0.04798412026387867 0.05588078784766214 0  -0.00552805924433096 0.07890655164761533 0  -0.08072239503714129 -0.04985524083502151 0  0.04423683719077524 0.06483034798222531 0  -0.03658202300256781 0.06975479476495032 0  -0.04886469967348649 -0.08487478517514666 0  0.02559495995180281 0.04404084384378286 0  0.06628940101760647 0.0001849857121817463 0  0.04178885952565182 -0.06591580521057606 0  -0.03979683125091014 0.07260465652011105 0  0.04727825263335311 0.06147379139264107 0  -0.03827820454303336 -0.03551538032704035 0  0.0762487970781609 0.00953865507736441 0  0.07518250715199098 0.00534702010926205 0  -0.06021499028589127 0.04699667252841266 0  -0.04684808520573341 0.06908854895433979 0  -0.03797209816029797 -0.0176667533838764 0  0.05267038270903009 0.04787203682267253 0  -0.02140021711710107 -0.04655589179213815 0  -0.02069172853377137 -0.03642369075795623 0  0.07157614601589277 0.06138489709514224 0  0.05124018381451245 0.07515950126724358 0  0.07468892748746737 0.02132399994147154 0  0.02745775567045703 -0.07569673938845672 0  -0.01340816955091241 0.0395834473460821 0  0.01528919617397533 0.09692472682708149 0  -0.005501698874394573 -0.06011554712060929 0  0.06911993068932738 0.06955385296206169 0  0.05407465243562169 0.081752378184998 0  -0.08450804140280653 0.03456904462703182 0  -0.04897250267175585 -0.0462383624563301 0  -0.04886976908299169 0.07957404633897766 0  -0.04770096374721068 0.08205887902602325 0  0.07303425900846647 0.03182918025424559 0  -0.07770023595197097 0.0323039292411758 0  0.07007116568502188 -0.03097287414629937 0  0.07347104627393113 -0.03130042908307785 0  0.07325716447978027 -0.03419698718526829 0  0.001576487420719863 0.09099299440115104 0  0.07801893581476758 -0.05094465813386359 0  -0.07142712892075838 -0.006371024647499455 0  0.04920000519329791 -0.01199897547678654 0  0.04818385556445585 -0.007775064272798659 0  0.03546304497126188 -0.07592387662145557 0  -0.06011382378778354 0.07005522903162702 0  -0.05034973737715698 -0.03744916311191757 0  -0.006582036329912631 0.06112161484645975 0  -0.00318305487004201 0.06007161561045767 0  -0.0540775691786826 -0.03599008915129179 0  -0.02269306517513769 -0.09129031833476159 0  -0.03291706278715453 -0.03128943380779036 0  0.0548858485127553 -0.07026391351577201 0  0.07323704984742271 0.02783807786648394 0  0.05377818843716946 0.06745577140620683 0  -0.06729415554197166 0.04315390961748985 0  0.08268015728063093 -0.05248848553214217 0  0.04810713200694162 0.01958956035521394 0  0.07857452910835583 -0.01270466017835011 0  0.07825964202201592 -0.01569343352651569 0  0.02365246386168627 -0.0780154110701982 0  -0.0761420211218332 -0.06149039129982852 0  0.04465636248591306 -0.05616767391300861 0  -0.001953683773903876 0.07726810239133763 0  0.07046012519994521 -0.02318350091121366 0  0.006500807679323432 0.0492566062136402 0  -0.02607833653734782 -0.03326080878510743 0  -0.07655266050984341 0.005484212393951312 0  -0.02400047175655147 -0.06329612663189195 0  0.01052762003372917 0.04740654242148652 0  -0.04483649392437855 -0.04521415859597398 0  -0.01170074411506293 -0.07460124638858913 0  -0.009586373254608959 -0.07388787102923801 0  -0.01185212007292252 -0.07035961794702976 0  -0.005411703344003749 -0.06649878245700171 0  0.03275816447537198 0.08466322740204091 0  -0.04615175851809549 0.07345077447707239 0  0.09781345362648496 -0.006426279407258135 0  0.03888939506738721 0.04088706229196536 0  -0.01163843079601525 -0.09741843612606234 0  0.06357568871734007 -0.03258847739267293 0  -0.06541042280499329 0.06368097690177306 0  -0.03777211855181462 0.04018863214053487 0  0.0773000163810097 -0.0604107056761559 0  0.06877237370094297 6.572290439156581e-05 0  -0.03308057477246483 0.05159343022571433 0  -0.004008737435076612 0.09660434746916634 0  -0.08495592713148523 -0.04928590919418969 0  -0.07725578379746413 -0.02707172146836741 0  -0.07509756047448664 -0.03073106319585843 0  -0.07339660083275262 -0.02805340068616873 0  0.08956328875738491 -0.007951558852909896 0  -0.02658521477269281 0.05091143932969795 0  0.06746787081265281 0.04564355507958934 0  0.08837270864169199 -0.0009104474001042236 0  -0.0796552032966487 -0.0113709417462131 0  0.02548780100171692 -0.07189517352753419 0  0.02650550261780118 -0.06807396606508258 0  0.02412247176035055 -0.06763410111635405 0  0.09332380287532281 0.02989702011129815 0  -0.02034302322395841 0.07028180761187813 0  -0.039790808429481 -0.05977399533663399 0  -0.04849317191630925 0.028988053208872 0  0.05687273453822296 -0.03712530122856166 0  0.07653730438940798 5.526922095501268e-05 0  0.06346799632275213 -0.06118331330589427 0  -0.04251520129592315 -0.05642209687477696 0  0.09406268435462178 -0.02785196499146163 0  -0.04112950755275777 -0.06883599900516445 0  -0.0661387532534564 -0.0249665833630902 0  -0.06777611159103393 -0.02896905812175216 0  0.06835504714120882 0.01613808794656627 0  0.05910920262881791 0.01224149640412871 0  0.06247694427865609 0.01207549075597937 0  0.02963210448903968 -0.09358379321351169 0  -0.04187188137976141 0.04610302637177984 0  0.03500650156156904 -0.03797901623357536 0  -0.0342478058608255 -0.08565610771319584 0  -0.03485633849486975 -0.08154825548946376 0  -0.05027715375258226 -0.07326932977352868 0  -0.03184389831192257 0.0303736143133542 0  0.04081970940575547 0.08560678112061634 0  0.02014072689644612 -0.09613435528006922 0  0.07594448768431235 0.02881969101538852 0  0.05607902195741412 0.003732818790018788 0  0.05714161061641307 0.0005645137671983732 0  -0.0613636621371563 -0.02206569224774035 0  0.05078786491108431 -0.02123249980933017 0  -0.05076102428524814 -0.06408224813975298 0  -0.04781102640529378 -0.06166854830683106 0  -0.05154050933105111 -0.0602334159580273 0  -0.01051150574317963 -0.04752430974007924 0  -0.07705741082822616 0.01460000577368809 0  -0.07697784879827185 0.036634997299198 0  -0.01876547877442616 0.0864835549640464 0  -0.02129266295166778 0.0900086559035238 0  0.04395246912475198 0.06158804069585189 0  0.04186779223138441 0.05766436239806878 0  -0.09557689224206545 0.02112372281837356 0  0.07263180842356488 -0.001821637683497959 0  0.07450957867976445 -0.005765828252479946 0  -0.07493561335983247 -0.06338094166263504 0  0.05146699021177764 -0.03628018480989406 0  0.0263737941987321 -0.06016417761917982 0  0.02487941039380157 -0.05814976302985176 0  0.02893470369068044 -0.05686815660023722 0  -0.04005327872801582 -0.02107392834604393 0  -0.004704309336835273 -0.09049263049850428 0  -0.006776014355384091 -0.0703966425827366 0  0.06712847759748468 -0.02531221585455004 0  -0.09103876508165928 -0.0114189986396461 0  0.02784676258914118 -0.08325084889911354 0  -0.08049840596558851 -0.02722463055000333 0  -0.04461520209166453 -0.06012927251526628 0  -0.04572086373886043 -0.05691324015727521 0  -0.02002852525018249 0.08081599933337995 0  0.01996062843884613 0.09329439320666297 0  0.07965112106062913 0.04674801284663968 0  0.02821215591118766 -0.08768368509968578 0  -0.02486470226168353 -0.03757576408490575 0  0.06371979054099498 0.07463065615026659 0  0.0814832513785641 -0.03723738067283539 0  -0.03992084227027055 0.03653366429284815 0  -0.04215540351983277 0.03708390117710001 0  0.005708936661623353 -0.09787421239392573 0  0.0754349875179381 -0.01234346025947813 0  -0.09319829102943709 0.009506708639191041 0  -0.09763633215709477 0.00980917374282159 0  -0.04556139728456006 -0.06417774312739241 0  -0.04369101827128404 -0.06643735582248569 0  0.08693595984267244 -0.01410444385134934 0  0.05636416688887417 0.02195094646751372 0  0.04496719261094304 -0.03911946695601377 0  0.04746089925589773 -0.03773631118441018 0  -0.08549444922618817 -0.001655400172019879 0  0.04487160487505122 0.04561667350281763 0  -0.07635939858642812 0.01023302657008881 0  0.008318710217208857 0.09766869975687002 0  0.008740304946572113 0.09358275891244693 0  0.006641039021798629 0.06089539693870027 0  -0.02360556089394661 0.09522804721676527 0  0.06488613951490652 -0.02580949476499002 0  0.00249701674864573 -0.07851651704831397 0  0.05593189419512565 -0.007658940393037699 0  -0.04224886646903468 0.01132777998250195 0  0.08572612567776623 0.03128812839721785 0  0.03100703228681273 -0.08138603945808548 0  -0.03323069234590668 0.02597272153219266 0  0.06285000002708198 0.03672441212622882 0  0.04018918461686636 0.06365215337061639 0  0.00843875123490437 -0.09431049793784001 0  0.008460321031279805 0.0435196761082437 0  -0.05108403578124836 0.003277992059167229 0  0.08503538810531393 -0.01206742966093732 0  -0.08691665008055449 -0.03718312346703088 0  -0.04955596971240275 0.004825394504576483 0  0.01048350599625156 -0.07881034218904488 0  -0.01202545767719434 -0.08885424558792634 0  0.0646044733022593 0.04313584071060587 0  0.07123507374634458 -0.02654924923884909 0  -0.05903333057241845 -0.07825898470815991 0  0.06456074171450325 -0.06571620086063176 0  -0.04572267411267452 0.08418391201210823 0  -0.04743045074911705 -0.003275094895002125 0  -0.05246220372895655 -0.06617161470276403 0  0.04925762232400085 -0.04000615893556585 0  0.09572081100792261 0.002182229969324678 0  -0.03239129999372044 -0.07980029897294123 0  -0.0306895129402953 -0.06412936399262879 0  -0.02836433347019513 -0.06383623539820807 0  0.03322816332928313 -0.07368210488722465 0  0.03743109239255236 -0.07436941800446224 0  0.08965184495321149 -0.03075151368337031 0  -0.05456146813896786 -0.06224643567277451 0  0.04108025992006124 -0.04309239845175999 0  -0.05785746203084499 -0.05626391408191206 0  -0.005441033654651662 -0.05298080074422133 0  -0.02377429330148584 -0.09507069067273628 0  -0.04796759418240772 -0.06621046919794242 0  -0.03465167616018078 0.02872271129386596 0  0.05638196463486716 -0.0515132733982987 0  -0.02156189832376035 0.07433214882210382 0  -0.02487350000731888 0.07547160357990651 0  -0.02139712011083295 0.07779374700808772 0  -0.04510945846567001 0.07733797409737474 0  -0.05076659795618599 0.05415870122147779 0  0.03504982772602289 0.05789049991385044 0  0.04658889219816173 -0.05190914986076337 0  0.0382339109954237 -0.05647671685920833 0  0.07922914709221711 -0.0006868087488264348 0  -0.01474478607894475 -0.03947997919875209 0  -0.01482495835148989 -0.04312224584289361 0  -0.07798594650978952 0.03851315197138298 0  -0.02304478934064901 0.05633675452821489 0  -0.0311077597149921 -0.07575425553107126 0  -0.04531501401571528 -0.00132501316927046 0  -0.06978998929727226 -0.02968692679622165 0  -0.06732677115767335 0.03546887183239091 0  0.06419199708570134 0.04733219620577545 0  -0.05634618793916302 0.05246338857536893 0  -0.0735950483666967 0.06476896457120257 0  0.02092200545478449 -0.0564277622989054 0  -0.06014836846850116 0.05328003967988577 0  0.09764416397415918 -0.011046059374483 0  -0.0147024741344371 -0.06155806482031129 0  0.04896276314233224 0.0492694722940093 0  -0.04375107453056737 0.05527936753491727 0  -0.01398579625196761 0.08153177283645834 0  -0.08117750054814589 0.02059711295026637 0  -0.003446442398205318 0.05618266843181238 0  -0.002125185325633452 -0.05641823732713715 0  -0.005825072662310171 -0.05745773688459587 0  0.05409141604822778 0.04179822796504004 0  0.04248725487265861 0.04256995592953521 0  -0.08621464704984388 -0.04717231473117 0  0.06405337266017881 0.008109294572087086 0  0.01195771956127224 0.04298599029361843 0  -0.0588466556479286 0.04049688531704682 0  -0.0478823297692513 -0.04315177550377423 0  0.08450615330379205 0.006225850406508653 0  0.07321962883776482 -0.06491054199890929 0  0.0702510016157003 -0.06375634097755624 0  0.04318975826569352 0.007322503414586423 0  0.04464114265680659 0.008920590128512516 0  -0.02935007251603803 0.06710288711834338 0  -0.0147858583769256 0.04199541604322846 0  -0.06437290298457775 -0.006125624220600306 0  0.02161469794037674 -0.03570681661371994 0  0.08786596068354414 0.03352221365729469 0  0.04969377450783353 -0.07918982818002168 0  -0.03434342700377499 -0.06843334768079769 0  -0.08485421911774776 -0.02083778909447882 0  -0.08665862833115766 -0.01825513407631863 0  -0.08915495962523615 -0.01963090974092916 0  0.0560213126155981 -0.01439037448982398 0  0.06000443369420969 0.008768357798076869 0  -0.09311630949438894 -0.03141929540492061 0  -0.08317533002480017 -0.03597535153852883 0  -0.02615221632518856 0.08260663358266536 0  -0.01089486060742361 0.04024263498053129 0  -0.02358452224067526 -0.03967191183960394 0  0.06456606706501665 -0.01165837730586552 0  0.06211651937268948 -0.009324613730916585 0  0.01172688123966625 -0.04609228085955198 0  0.01177416834895075 -0.05922520767189095 0  0.06355710530584652 -0.04384692689002349 0  0.03784976985665903 0.0482607637226833 0  0.03427655674277261 0.04597397020280808 0  -0.08597924801531429 0.04717348936297459 0  0.09158757558463888 -0.008969215777478327 0  -0.07583658679454468 -0.05707137661137356 0  -0.07854760032762498 -0.05826803058446278 0  -0.06886358330526558 0.04795245066480678 0  0.03703857110658131 -0.02593740033134108 0  0.0393162012289057 -0.02417070067924167 0  -0.09139531526236803 0.02478312868120985 0  -0.09126509529404417 0.02882398032415145 0  -0.04616768167321331 0.03273390413166605 0  0.09502037888867375 -0.002947850845222043 0  0.03385511014200069 -0.08759399661906962 0  -0.02226941767222262 -0.0770786889475453 0  -0.02261328907394944 -0.0791668465638859 0  0.04857867683840447 0.01043130365672301 0  -0.01527411942174127 0.04640363207187487 0  -0.01275778989606684 0.04964727320695302 0  -0.01487052794267526 0.05060244705037224 0  -0.06553060711071361 -0.03722467445862104 0  -0.06461868633334082 -0.03927105264188782 0  -0.06671789199838021 -0.03288041081403072 0  -0.002030130946782528 -0.05937125960647479 0  -0.005755490775923745 0.04897164917686547 0  0.04808862928874983 -0.003477425007167498 0  -0.05900701683714497 -0.005718535755063504 0  0.01182101393467684 -0.04248386894364947 0  0.04332047950913714 0.01141084536539628 0  -0.04995086948019391 -0.08104684705900236 0  -0.02060041206109828 0.05958835830859934 0  0.01600295212860999 -0.04124549902199764 0  -0.06911939446720967 0.02646152381357446 0  -0.06616934603244763 0.02575023722570673 0  0.06782037299005761 0.03544513217419722 0  -0.07713898121150584 0.04080544022395764 0  0.03006894573138914 -0.03418718453014188 0  0.05400320018819152 0.02060134132892984 0  0.06073908848460133 -0.0443504334572942 0  0.03683411340185843 0.08598666941195603 0  0.07668783959911037 -0.01782795484326741 0  -0.08893968938507826 0.02301427042658543 0  0.04119845111950338 -0.05246766374052727 0  -0.0836495896616074 -0.03834747416660592 0  -0.0414103114852049 -0.005179002349835573 0  0.07099496223939172 -0.06795106631765795 0  -0.05810948045700663 0.003839608201781672 0  0.09255684494032845 -0.0313046909583394 0  0.0417253155208178 -0.01933000441052798 0  0.02105598033858575 -0.0423396042825838 0  0.08553705521981984 -0.0482023554630039 0  0.08152134912460376 -0.04741260785458474 0  -0.04812603531865233 -0.03943171912850284 0  -0.04707181901580024 -0.03534014322780162 0  0.07530343764462551 -0.00260512916399476 0  -0.01203339652405379 0.0870746472002687 0  -0.01585924762083587 0.08536186107524844 0  0.0120891508376795 -0.05535758886928467 0  -0.05914593808818276 -0.02484718263892226 0  -0.08943188053917661 -0.009065799044710162 0  0.02770893648266331 -0.03562110439590738 0  -0.06150581348767259 -0.003820885643635695 0  -0.09571522940722173 -0.02035335596471468 0  0.01403457908451504 -0.08125248643059664 0  -0.06209253618463842 -0.02617334419254255 0  0.07200010246811207 -0.02460101639882334 0  -0.04987870764932191 0.02536598077204876 0  0.04321455611940334 -0.02308512109458938 0  -0.009579016940399939 0.07032067195340636 0  0.09704630912704769 0.006167227229608497 0  0.07023101169183137 0.0216047561688859 0  -0.02055999622513181 -0.07496906532465125 0  0.007313541952893512 0.07656160024184377 0  0.006080048333563108 0.06714466985116643 0  -0.09542716217938717 -0.02242499644385806 0  -0.02523642155270017 0.06447771024915733 0  -0.0283155735692876 0.06268646130023474 0  0.04074951474739703 0.06045113255222177 0  -0.03891710416322976 -0.05412322879832383 0  -0.06656092070891344 0.004341662079325488 0  0.01531048038415696 -0.04368828618752189 0  -0.0552895196364045 -0.04580030485648993 0  -0.0438170841087241 0.08329627509509317 0  -0.04186934918344089 0.08410730090536776 0  -0.04491105499332357 -0.07234523971444366 0  -0.02872767674007735 -0.06006640473703896 0  -0.01437643462702584 0.06619736835137045 0  0.01576748538300414 -0.05402323965070614 0  -0.05419425018239124 -0.03919960061624517 0  0.04016194176353232 -0.0496634837648606 0  -0.04043327895980889 0.01024443621592627 0  0.02121504291853315 -0.07204945952216139 0  -0.05580703510765649 -0.008684182390145536 0  0.02209765981993628 0.06961521253681809 0  -0.07352555358446616 0.007712953395112654 0  0.05512998129196901 -0.059138324769004 0  0.06893623134961901 0.03255768349829955 0  -0.0379820363149127 0.0174566737512898 0  -0.06607967809307086 0.07241467558529573 0  -0.05519522947967541 -0.04971548565059745 0  -0.04590577772782804 -0.03727891747368565 0  0.007261862229298643 -0.0699267547646699 0  0.05803257735896693 -0.0485100070300576 0  0.04507862642324439 0.004806325420196855 0  0.0426704967994597 -0.01302024162758963 0  -0.07255537905299415 -0.03199684027930912 0  0.02842480567021591 0.06417196519466092 0  -0.04121776659531508 -0.05077407745250442 0  -0.03908763226226838 0.08637429832188456 0  -0.0695269242372319 0.06370790920948766 0  -0.0631598251075417 -0.05024769724236508 0  0.05088219935462715 -0.005477525669476466 0  -0.03358779003799323 -0.0551406256370742 0  0.01934038916270402 0.05542744174073131 0  0.09004356798112226 0.03946141136308669 0  0.07466964187265604 -0.04442252744830823 0  -0.04595539584238785 -0.06839124247921102 0  -0.02874169760624099 -0.08172762767537332 0  -0.02468743693770139 -0.08021772765286772 0  -0.027898280841832 -0.07892650987992994 0  -0.04311820607465403 0.08777092075500251 0  0.03899525841275352 0.03307723897499344 0  0.07956458134004449 0.01082228076974823 0  0.08048063418253201 0.007876148716536012 0  0.08218419030955296 0.01172243499963488 0  -0.0618973610140764 0.06410721194096893 0  0.06788299804262884 -0.04226922799052713 0  0.04539953052342705 0.02580814313656686 0  0.02928541703880553 -0.06341170469802898 0  0.04355902161863117 0.08169168027671557 0  -0.04069694954429957 0.06757767961770314 0  -0.06096001315858591 0.0770047496220744 0  -0.08504607374979654 0.004742608232439278 0  -0.01583187153825365 0.03864583508927399 0  -0.05693194640940333 0.03605982396721776 0  0.08418200171683064 -0.01755661612634051 0  -0.08791309072908383 0.01570858346186096 0  -0.09010140127208735 0.01217658754394846 0  0.01403161101893087 -0.06124529909968362 0  0.05381248208461419 9.39440206836604e-05 0  -0.008592961719965177 -0.06667485979554612 0  0.04502391414365123 -0.08428660448613008 0  0.0001755605156802602 0.06385603016099541 0  0.05291021845000464 -0.06162936338491908 0  -0.0763409395227074 0.0004878696923192725 0  0.03920691438600905 0.02204211031067244 0  -0.06491256466779903 -0.02707329381693493 0  0.0218442044691705 0.03573667442246387 0  0.06533436598057281 0.0115282953497684 0  0.03928161497737819 -0.07059173964355048 0  -0.02002826029174019 0.04668362651834523 0  -0.06054695706784286 -0.01629009216820169 0  -0.03549035927415367 -0.09171139077546776 0  0.05564138871579917 0.03924915548529162 0  -0.080597927180865 -0.02107717916775844 0  0.001197615586036523 0.07710187465108877 0  -0.09775867318611868 -0.009821464909266043 0  -0.03630601638539933 0.06275850974048292 0  -0.06242536780167115 -0.03539502984259989 0  0.0009369918863845409 -0.05927585501616136 0  0.004039387492467931 -0.05649405777339483 0  0.0008653764116827206 -0.05636712665146431 0  -0.03373586653515778 0.07287787970826551 0  0.05870732819896055 -0.07122011625720093 0  0.05729766423864786 -0.07371038288126294 0  0.02876912083946334 0.08346491437499533 0  0.003799400570206067 0.0547043435095652 0  0.04113275795349094 0.006449228708707552 0  0.03440113163074602 -0.02818861234014136 0  -0.05430594182049556 -0.07493795460725644 0  -0.04244119823028453 0.03291877117199669 0  0.02931959016159448 0.08811174701658574 0  0.02867638250468492 0.0855256204406481 0  0.08208067172299731 0.03676518619337594 0  0.01353242343532624 0.04950243431131483 0  0.05689423918185556 0.03098510601111062 0  0.06002352230067332 0.03022878605366014 0  0.05972404633299243 0.03387821274302488 0  0.02680517777409848 -0.08508047924082418 0  -0.08495468453451774 -0.01478037505109387 0  -0.05692500924262824 0.01686028053207297 0  -0.06700155068314784 0.01029829743633273 0  -0.009637017470521191 0.09157885229161761 0  -0.06289439490684925 0.07548606270625656 0  0.09243995617704567 0.02116578609360635 0  -0.03086229791629794 0.09339084809814903 0  0.05654612274840683 -0.0330529128864586 0  -0.04475435764226635 0.06825392248361534 0  -0.0384028967955061 -0.07021108467466555 0  0.03286882456885259 0.04251646799080509 0  0.04093229476505547 -0.08508698931861587 0  -0.08815148434577 -0.01474450681976662 0  -0.08104159019354931 0.0550205912772179 0  0.02380577634292897 0.08511530791110666 0  0.04226677649523124 -0.02986392918580834 0  0.03866281024995653 -0.02837556012834545 0  0.03923591263659099 -0.03170403643093118 0  0.02345841432353476 0.07793095433562514 0  -0.04115309993126635 -0.07822445340246348 0  -0.03923498615727004 -0.07676856584646845 0  -0.03940124796455242 -0.08090100260859465 0  -0.03055588723557991 0.02826761184193147 0  0.03302678730824233 0.02566105843788729 0  0.03317391485536334 -0.08360835395288489 0  0.03521855606633715 -0.08146973691971555 0  0.03324024485038447 -0.07948731342007868 0  0.08064850122975405 -0.0217813330051749 0  -0.08222098269258336 -0.04626598100066833 0  -0.0865043133794926 -0.005733339884180561 0  0.03805586797038688 -0.04408410996510269 0  0.05337273473925154 0.06112652377760203 0  0.009146891884204445 0.06716174565797456 0  0.009424177891670448 0.06424938968878229 0  0.006111294754320804 0.06435277417762235 0  -0.03585900561702692 0.02184111858420619 0  0.01394344152733472 0.08799270049172057 0  0.01030116264463943 0.08991742986386735 0  -0.04991801376111957 -0.0225544632867867 0  -0.01059157045107778 -0.062575995120496 0  0.07304584368753936 0.05096757078015067 0  0.004733513396277582 0.0520942003396958 0  -0.01911234673798709 -0.04448998306997656 0  -0.07019953437047816 0.06854463035479386 0  -0.05633263519494605 -0.07644136066893513 0  -0.04700161095473886 0.003334075894956546 0  0.04789469450752554 -0.02744141770555299 0  0.08943832180236629 -0.01217539594169037 0  0.05819691625211488 0.04103887197058425 0  0.0405360600307012 0.06678418482898414 0  0.03728932269073131 0.01868764043438998 0  0.05569850217993284 -0.05553881534680422 0  -0.0009556179334361337 0.05966577095010947 0  -0.0005193865460477789 0.05694929956169967 0  0.002533033828361492 0.05725566678601713 0  0.09280462471466988 0.03261350061841182 0  -0.05487529499738868 0.005001561690142176 0  0.06080673370494608 0.07186633177731465 0  -0.01387199959767267 0.05427016249839767 0  -0.009575570109063682 0.05447043791337595 0  -0.01258741108482032 0.05658580466804768 0  0.07817353306443262 -0.03721769862510323 0  -0.02433258553826169 0.06030292130770253 0  0.04360829088344734 -0.08781647609483544 0  -0.06889309877417164 0.04589789778236682 0  -0.07129938988328896 0.0547994212703766 0  0.009492949647437953 -0.08675565101665329 0  -0.05547586129058148 0.03992283309669081 0  -0.08146406344606365 -0.01501992194768787 0  0.07364066487964718 -0.05542410337027613 0  -0.007305100837600858 0.0577224177278766 0  0.02761528676925819 0.07957964337846395 0  -0.08500677583924754 0.02257318788032005 0  -0.06826177738209818 -0.004743028207038585 0  0.00993141401982257 -0.0618020848225637 0  -0.06294395653656021 0.05227791778200485 0  -0.06192759652641345 0.05640246307332191 0  -0.05762391923584943 -0.06408391545571269 0  -0.04483742791275801 -0.07980014704880338 0  -0.09043181664964385 -0.03774028364030965 0  0.05847563611290788 0.0572655820390482 0  0.08619988214881734 -0.02123888034339305 0  -0.07873014933598697 -0.02025149587456451 0  0.0538003269476133 0.03718662965769436 0  -0.02539699715012201 0.03333293197708308 0  -0.06947446159576147 -0.008672379841074067 0  0.02347168724656685 0.07304482407087495 0  -0.009773198755196858 -0.08159240118664136 0  -0.05941815125653803 0.03333770393027386 0  0.0634097036066216 -0.04968761712024639 0  -0.09176164690967588 -0.01332942607787099 0  -0.05252037134230141 0.03056083353125984 0  -0.03603387556945201 0.03128390708783663 0  -0.03857132739964904 0.03013761541247286 0  -0.03924468063771943 0.03367616680645429 0  -0.01204280490357468 -0.05352106106024383 0  0.07388213808709324 0.009478940964523461 0  0.03614033410675334 0.02221298431581964 0  0.08752367530002822 0.007681464724547275 0  -0.0456006554480597 0.04621398970458436 0  -0.01111310850373074 -0.04022839143082762 0  -0.0731624058713351 0.03856859125114501 0  0.01676233083390603 0.05638179734977765 0  -0.05467066360886302 -0.01434229785010732 0  -0.07211147861984664 0.02675437033198898 0  -0.05126071412273016 -0.02660690591993849 0  0.05077189985177012 -0.05926338405336102 0  0.06222674989379221 -0.0139085095748576 0  0.00253280749038335 0.04182629511122016 0  0.0008178718810426988 0.04549616084362947 0  0.01172655701516097 -0.09058405515016807 0  0.01775827875285663 -0.09677241104231084 0  -0.001075003853710754 -0.06564620082530004 0  -0.06345176116604839 0.03396802463313248 0  -0.06551475791930045 0.03288587973725275 0  -0.06472899922039446 0.03686466402067804 0  -0.05582178684237982 0.02222584256824829 0  0.06700316732047591 0.0280414384608338 0  -0.06270241367995258 -0.07178604722241207 0  -0.02801075489046047 0.03462243413992331 0  0.007113037184694589 -0.06465715528853623 0  0.08753012767767543 -0.04428479017002525 0  -0.03318475983290457 -0.08390527212029866 0  -0.01492848396065787 0.0881111272201424 0  0.04434096989698848 0.03744461268971663 0  -0.09125713245365129 0.008380331361942901 0  0.009766798253092578 -0.0641855965859435 0  -0.02945257765533829 0.03875410489557334 0  -0.02094574418210485 0.0441908606157829 0  0.03097170881312827 -0.08556134516862168 0  -0.01813112761636649 0.03743667414586611 0  0.02397891101444313 -0.0837291614051079 0  0.06715955389560074 0.02388971887128298 0  0.06900736760506793 0.02589680604992509 0  -0.06358542161106501 -0.06545415235478597 0  0.03403769232989978 0.05517595289591126 0  -0.004199065989673616 -0.07913042471583148 0  -0.05899165196916811 -0.0453069164789927 0  -0.001079864661507751 0.04891132757587732 0  -0.02318248642496771 0.07093792983370123 0  -0.024098135231795 0.06831116125741117 0  -0.0480270810747968 0.04907668792260525 0  -0.05933100760245946 0.06713037181059819 0  -0.05731662607906422 0.07063244939720364 0  0.06839046398446486 -0.008080835316283327 0  0.07043417470901049 -0.007897069376141857 0  -0.02380276042832606 0.05180886501601923 0  -0.03745138514143408 0.06621693841338763 0  -0.02434124767805557 -0.0901029219851837 0  -0.03041824846202649 -0.05240917248213046 0  0.04018529562006586 -0.08106184427684171 0  -0.06738939794536138 0.05678135964942835 0  -0.06535685017254056 0.05744904213346475 0  -0.08018264067591724 -0.02394638177528961 0  -0.004747190300687919 0.09472916515197442 0  -0.08899939902669075 0.0397947239910862 0  -0.01928583857781138 0.08308158787512257 0  0.08947496347801934 0.01102932657747311 0  0.04062001029414314 -0.02789605080800893 0  -0.0676579633691213 0.06102459227654107 0  0.06890574941415417 0.004278125601765785 0  -0.01147085410714343 -0.04569821221446659 0  0.0706542812528955 0.00955503811429452 0  0.05079048544518268 0.001772643093903166 0  0.0374093134737296 -0.08702044922206241 0  0.05118921042406724 0.005892216868993487 0  0.07064814382474836 -0.04858946599326363 0  0.0747916592359715 -0.02179893561540305 0  0.0664127820492683 -0.01797223161209363 0  -0.09533256483672287 -0.007789001150428394 0  -0.09365888976376549 -0.009242726320424922 0  0.07368487604395943 -0.02008791128038427 0  0.05192936533050029 0.06825600634835625 0  -0.03713815664537838 -0.07914781437647277 0  0.04118626424394189 0.08937668940207065 0  -0.05985695466940956 0.05527785206715911 0  -0.05806991845042695 0.05631618466727319 0  0.03005126733359712 -0.05211399837733994 0  -0.003632316086936606 0.050607119678939 0  0.02200426736718063 -0.0441899523358301 0  -0.009634803642817082 -0.09767106224361401 0  -0.02814009464766505 -0.0854086485371276 0  -0.06624962612555797 -0.06859821075107367 0  0.02734671889104252 0.09452533476547346 0  0.01642062581356647 -0.08181662609706958 0  0.04928143028536495 0.0617821712634863 0  0.01530865107743281 -0.05729482734587827 0  -0.04025738553844824 0.02347510069591273 0  -0.0525466926098658 -0.06199672805131066 0  0.06362391829611672 0.01905589064038957 0  0.09679238582186332 0.01511594530420782 0  0.06245185222171241 -0.07249913086919482 0  0.05763647331852866 0.005251066063564665 0  -0.01922616120839563 -0.05836005077486633 0  -0.07051396588603913 0.03036364890111505 0  0.04860212289064917 -0.04783648352534318 0  0.04602189243824553 -0.06998581096116675 0  -0.06384585664216168 0.0006506597349082396 0  -0.08903464305673288 -0.005542474734133205 0  0.05888691429331336 -0.02604186064055044 0  -0.007885231270550833 -0.06322810570090312 0  0.09225572220591467 -0.02689495516275816 0  -0.01917490862919871 -0.08500596198725514 0  -0.01477771769566574 -0.08089466730065065 0  -0.0175715364302396 -0.08149613558444817 0  -0.04349187813605387 -0.03160195059086338 0  0.07114417898323294 -0.04489225686310272 0  -0.07547022992979201 0.008221383550277779 0  -0.05323350708444939 0.06555293060732389 0  -0.0506201165710601 0.06355917318384095 0  0.05108887241756804 0.01823416992386667 0  -0.09457110081282383 -0.01598746014649335 0  0.02775915541762528 0.05552189666107406 0  0.07189794125796001 0.06661658040133771 0  -0.04679297729010604 -0.01737963110070912 0  -0.03555668396696626 -0.04860686581049192 0  0.06941263009181553 -0.06666321920038319 0  0.08565617426290678 0.04757302227831309 0  0.08265737238680324 0.04715120150181987 0  -0.01725702688721073 -0.05792938343682617 0  -0.07542310195349054 -0.04996788949634766 0  0.03176221054687702 -0.03572579267383055 0  0.009372493960296879 0.07974650161292286 0  0.08935981411667041 -0.03695571563254034 0  -0.08914664034272138 -0.03354494202947831 0  0.06287137000332778 0.05097428751719354 0  0.06449505268627072 0.05384319816329169 0  -0.0192046169619771 0.04304259607030931 0  -0.03057900679772362 -0.06869899124245227 0  0.00241782060327853 -0.09211532563209353 0  -0.01638936281209274 -0.08515598788651038 0  0.02648818395269826 -0.05038392611431319 0  0.05034771564536306 -0.01616718317877053 0  -0.06485413664752861 0.02803383092236686 0  0.06932451429344509 0.06559552505568553 0  -0.06051497349412865 -0.01829662930264326 0  -0.01192193013173969 -0.08042155010129953 0  -0.01142455478790604 -0.0781291069881986 0  0.04606182805793862 -0.07717675838261234 0  -0.07491179526974226 0.01393093793527144 0  -0.07319570855584165 0.015244223532626 0  -0.07459633825622362 0.01187332618032548 0  0.03903595294172538 -0.07721157374819171 0  -0.05543470208648767 0.06252680421529029 0  0.04994673984319743 0.03206872749510049 0  0.07722602669278573 0.05976568963809921 0  0.01614841869589075 0.06550667205470367 0  0.05814246972854031 -0.02383282703616978 0  0.01624954427863699 -0.09046571822314706 0  -0.07230659440985265 0.06225796498399532 0  -0.004414763653886633 -0.04344562909045283 0  0.07083825353542324 -0.01129959715711201 0  0.01481263521858717 -0.07441209512233191 0  0.0269372013288703 0.0623910456356039 0  0.04957922871186317 0.0001947623053900845 0  0.06318716569944732 -0.003703204867732199 0  -0.07025411632701571 -0.0689473617846435 0  -0.0894355542703829 -0.02982650463850459 0  -0.08271761958612317 0.04796870850797184 0  0.05740665532367525 -0.06292136814740286 0  -0.05573917070761787 0.02993524381091154 0  -0.0554396307026936 0.04282348283344368 0  -0.01719095196156346 0.05982583333169948 0  -0.01354483272067538 0.06039177808520422 0  -0.01637745822395735 0.06292640640340434 0  -0.001073717032772057 -0.08887938904715706 0  -0.02245278874677321 0.08430318617603014 0  0.03930948283600606 0.0769235617311371 0  -0.06986824481709354 0.02344497564919153 0  -0.05813800551582925 0.07369355457200169 0  0.05402258985022475 -0.01473544670179327 0  -0.01815245634948293 -0.06292193664816727 0  -0.0171782214215828 -0.04746036613717058 0  -0.06277679316290546 0.01368115873996789 0  0.01909086253058573 0.06271151668968544 0  0.07456801826329423 0.04614740805666601 0  0.07062752231525701 0.04608765481088922 0  -0.03344644947417257 0.07957733350973513 0  -0.03489691168671068 0.07801542397587413 0  -0.01957118406742544 0.06301938413440075 0  -0.07115740490811724 -0.04301729536343418 0  0.06599079774165172 0.05626614857817085 0  -0.05680934802871129 -0.03571158911109368 0  -0.05796710314348946 -0.03739762077198746 0  0.01747389388938988 0.03809275551966542 0  0.02039513942830653 0.04099730977911847 0  0.01288711137531984 -0.07505709623215258 0  -0.08921938754188091 -0.00151701780686533 0  0.0611758757880267 -0.06443017640885557 0  0.01332407054982782 0.08018949402279342 0  -0.08283319220697381 0.01149150664699483 0  -0.08462635593629107 -0.01673884405473351 0  0.03173486845559199 -0.04590417692089707 0  0.03092435319024263 -0.04197158861234798 0  0.03104651613670369 -0.04837057541561483 0  0.02703472604649812 -0.04820687072723089 0  0.08036812821220692 -0.03019957776887532 0  -0.03709627051666559 0.04483307252442561 0  0.07965886894013204 0.03824404709841701 0  -0.06905163653751871 -0.02578397372248669 0  0.06065029877328761 0.06508647596460425 0  -0.07634231669420548 0.02848540924165981 0  -0.07528465001875576 0.02677315472324787 0  -0.0722977526975061 0.02902851970075031 0  -0.05446772545428016 0.002098844734235424 0  0.03739164966169019 0.03426778139357565 0  -0.05119378771219128 -0.03044269237902226 0  -0.01079596000365098 0.05286938027706911 0  -0.03535175889056801 -0.03251658073061506 0  0.06502391530418615 -0.04013040227882063 0  0.04378159962132547 -0.04073533363523404 0  -0.05253602817744236 -0.07782415218041233 0  0.04052078476370019 0.02748950027038249 0  0.0527992248817386 0.02388286952639768 0  0.0564541577215582 0.02460069607610776 0  -0.06854331412440247 0.01983393906953568 0  0.03313522595105112 -0.05005611910265009 0  0.05032764433406952 0.01377395768376264 0  -0.009577837168404916 0.07835741022292193 0  0.05393468037340225 0.03165922179631828 0  -0.02178531744709282 -0.06162138429358963 0  -0.04880275689295987 -0.01093906994575534 0  0.05409770076085403 0.02539180354567019 0  -0.08661398420629378 -0.02490318754158323 0  0.03106937816323508 0.05689915702287528 0  0.0284727503148425 0.05149832866064846 0  0.03193346971286298 0.06395905568714269 0  0.07718763563305871 0.02034760733514775 0  0.03464274287291709 -0.03017969293667757 0  0.01084085748914166 -0.07184811163532362 0  -0.07355299763476936 -0.05954156748199221 0  -0.0719698872505895 -0.06244370261853856 0  0.07777684407694641 -0.01947882131635549 0  -0.01730073740362141 0.0795931172862433 0  0.03207450882218082 0.0704038984590626 0  -0.0281218540372946 -0.03623747063840928 0  -0.02609908769715402 -0.09146861985794719 0  0.06547986983605324 -0.02191343019248324 0  0.08957079090605985 0.03208584378781706 0  0.0911215629475056 0.03589286133546995 0  -0.03101418438135299 0.08449912904815204 0  -0.08115681560869256 -0.03956501125789385 0  -0.07676458995540056 -0.03278562713703603 0  -0.003918718468937557 0.04458348448262255 0  0.03209509935511937 0.03127918363720333 0  0.08229511737931043 0.01510262760103431 0  0.04736077121136113 0.07658165844267126 0  -0.06930193571679465 0.03415295732976577 0  0.07497178775144489 0.001287846023402546 0  -0.02933190763014907 -0.04226315300826283 0  -0.05856895964014411 -0.04338327262347757 0  -0.07400267701892163 -0.02446293310129437 0  -0.07376366047682782 -0.02244034108181337 0  -0.07685188498969149 -0.02170365776621259 0  -0.076956196163412 -0.02500307035162476 0  -0.03381878861225518 -0.02475099125511089 0  0.02916101519173293 0.05923003242346062 0  -0.07750144661348944 -0.004336505441002372 0  0.04244536239597128 -0.04566323981204729 0  0.06535028041018134 -0.06986241109698867 0  -0.04454272740219475 0.005267162695306216 0  -0.04419324678725264 0.009179191664765211 0  -0.04674937551958659 0.007329356292677692 0  -0.03164968058512699 -0.06088668890322421 0  -0.00676967962788802 0.09818439984529001 0  -0.04650625469476195 0.01129371953380756 0  0.04863667279501935 -0.07623742021624416 0  0.05150324149876555 -0.07544433945892198 0  0.04811803690221927 -0.07335823515919215 0  -0.07201138798890644 -0.05008173190714665 0  -0.05524918567860294 -0.02543751768081255 0  -0.05317805151919148 -0.02792689987406708 0  -0.08572323892936282 0.001023749937308635 0  -0.0843580785558091 0.002503413853317118 0  -0.08798466501221822 0.001606372898872482 0  0.07645757509836705 0.04941351879359986 0  -0.0836171399726859 -0.02875893944661481 0  0.08401436105011466 -0.02091389975563141 0  0.07998678387746919 -0.01961964730001018 0  -0.03371403330884423 0.06090230180994718 0  -0.03611705756512902 0.04869218867798816 0  -0.08275343250823188 -0.004620123133894935 0  -0.07945923521937466 -0.002825631184201901 0  -0.02248793420981618 -0.07283346214386556 0  0.06243695553574404 0.05704149210980706 0  -0.06787497043818624 -0.04086719377731565 0  -0.04278434352991171 0.0420618569424762 0  -0.04000548115092127 0.06941231093884273 0  0.06990000080566902 0.03914710592060833 0  0.06863307379914525 0.03723030742319688 0  0.06647203989580759 0.07189616531441889 0  -0.03184262654274318 -0.06575218521539396 0  0.0573607494021235 0.01837852960216631 0  0.02487948182032798 -0.09245897254662266 0  -0.02783251763734701 -0.06188255282238971 0  -0.02252158253300378 -0.0932956931435197 0  0.04076336702491497 0.01062495443533017 0  0.04066674398735927 -0.08932871376225142 0  -0.003222670410340178 0.06776694687596665 0  -0.0303891875101718 0.03642995519077689 0  -0.03328114488572601 0.03762275239177897 0  0.02913084462156713 -0.09168588232789003 0  -0.02162694948092581 -0.0490136676283511 0  0.05595721783233941 0.05229433922372213 0  0.08252460482465232 -0.003284728162091106 0  0.06276749524712325 0.04394547240833171 0  0.04405350176249492 0.01903036486922082 0  0.06239885713896043 0.065962630181205 0  0.07673695661547877 -0.0215889952348292 0  0.04007677728196534 -0.0731155460485233 0  0.05013853055778567 -0.0439794559632154 0  -0.03580511479919049 -0.0217362273814109 0  0.0008603177740116763 0.06050669517688993 0  0.02876974035976602 -0.05927052256874121 0  -0.04077012705031467 0.007698487827721251 0  -0.0984212178327452 0.002464254787196028 0  -0.007694999082852599 -0.05371169796387227 0  -0.03863627946112402 -0.02705639593777033 0  0.03174496929872771 -0.0773558040504739 0  -0.06139356176050517 0.0586157969539082 0  0.03265600963303222 0.05126299038407039 0  0.04825255839396835 0.0697590406874251 0  -0.03995784839829938 0.06353164834494095 0  0.03572068239478324 -0.0563472932726538 0  0.06522135463689835 0.05958578675087571 0  -0.0433423239200553 0.03553129022076569 0  0.01389389071873093 0.04273756825643039 0  0.03703271373002857 -0.03454386726855537 0  0.03442605570267011 -0.03385394751771492 0  -0.08252333380023724 0.02408460043878228 0  -0.0109958059410085 0.08079935711273489 0  0.01351649137935191 -0.08757757068974507 0  0.0490089990719768 0.01528932863777404 0  0.03281628461722712 -0.06868571328789948 0  -0.05163640253085321 -0.04481265987666373 0  -0.05422981214124294 -0.03168225852526086 0  -0.04017268964776848 -0.02388934741172054 0  -0.06112303774149298 0.04920334857444792 0  0.05901403343731015 0.04988966036649292 0  0.02522182264870561 0.05918274666124389 0  -0.04208129811295602 -0.001248545657746329 0  -0.04171511133790766 -0.003255999645730819 0  -0.0447593804770318 -0.004334067701363779 0  0.01765309403345821 -0.07912293658086851 0  0.04739610525329802 0.0214051424142792 0  0.06041471808728872 0.0207569595594985 0  0.08055130227839236 0.02964025698186631 0  0.05707791924104292 -0.05929040479049653 0  0.05842522428521839 -0.05704961276806649 0  0.08340142804696395 -0.01511348926221485 0  -0.06615123538682499 0.05111216524992288 0  -0.06806628484776503 0.05042681140985302 0  -0.005886209287762682 0.0900371804136977 0  -0.09192823414818677 -0.02798813339118868 0  -0.07253367998449395 -0.0471880057020168 0  0.01999206543323618 0.0838749088082766 0  0.02243260018862539 0.08187589662975954 0  -0.03962592425458629 0.05993530341892726 0  -0.01424583436576398 -0.04990311191788006 0  0.0794713614878394 0.04265401227997576 0  0.07758237126885867 0.0401997366230859 0  0.07667758227878919 0.04391195891668989 0  -0.01328996874780341 -0.04638261580120441 0  0.08229559989298095 0.005423094048049954 0  0.052976223484147 0.01483591493202149 0  0.05512458003020946 0.01364862896121459 0  -0.06745049212641109 -0.04305634866399618 0  -0.07166340284837713 0.05089373342760626 0  0.05999305446919691 0.07461239078528964 0  -0.09041844364329162 -0.03150716261747768 0  -0.06855659282518839 -0.07073605734196889 0  -0.01988490122479619 0.07324930920089551 0  -0.06368860388088218 0.05550294651365649 0  0.08060349875120812 -0.05606332086229217 0  0.07688397122797755 -0.0559773581769668 0  -0.00375049834885881 0.08106196014584106 0  -0.03357213016390721 -0.0287821501454164 0  0.04201967815297839 0.02625852008922674 0  0.06639229492222461 0.02204805376446364 0  -0.08091883094505584 -0.009665363484389063 0  0.08384161402987057 0.03454023472846431 0  -0.08929025476564319 -0.02160207178032362 0  -0.01578734333765415 -0.06515657920405921 0  -0.01849856858646989 -0.06683704619891831 0  -0.01466006783447516 -0.06765795249367182 0  -0.02062178352531977 -0.05492915019837018 0  -0.03622383071857591 0.04210574927755809 0  0.05291672293720176 0.01677556603007083 0  -0.05304906724559916 -0.03763435677446164 0  0.04884281197481082 0.02776746514231035 0  0.06804108342823928 -0.05039648878752191 0  0.07687116795415194 0.05189020353802359 0  0.03099808078260676 -0.06024819368503165 0  -0.01772261417942695 -0.05085920905162695 0  -0.08969779194005921 0.0003607800320476516 0  -0.076068361265513 0.06189326579328408 0  -0.07114392715484805 -0.05253575811384507 0  -0.07288595020424675 -0.05581788753370965 0  -0.07436417704648349 -0.05316884106076542 0  0.07951217272126429 0.01721571386962458 0  0.04896802935487982 0.003942490450067481 0  0.04729567611243179 0.006720527833183301 0  0.01540062987546003 0.0948766219599701 0  -0.07919341112859066 0.04642282353045542 0  -0.06852280969591183 -0.06613993484933924 0  -0.04898399328229147 -0.05009885932125136 0  0.01502470865660955 0.0861586316134459 0  0.01281124168352919 0.08298929074307776 0  -0.0329684924980904 -0.04319137868191184 0  -0.0006462550033972448 -0.04154993969406413 0  0.01040116638380891 0.08791398651554698 0  -0.0715791288070978 0.04862488387111316 0  -0.07293122442035288 0.04613683287422145 0  -0.02719005844523939 0.07014777725146297 0  -0.02830947758083553 -0.05599805737991683 0  -0.02641267650455663 -0.05337055312700867 0  -0.06375201912893032 0.06470286646826209 0  0.02022737762067237 -0.09419891894341219 0  -0.04361931943934224 -0.02337356561363443 0  -0.03387121733005626 0.066803640476631 0  -0.02425515832265307 0.04501558345402563 0  0.04925462520914015 0.07703922952488232 0  -0.09152489664435146 0.0353449990829892 0  -0.07994924598009753 -0.0301637413855106 0  -0.06999774469955244 -0.02176309245260823 0  -0.005686283746295485 0.06464306532993613 0  0.07030465802688146 0.06288895925764247 0  0.0568856660822977 -0.002665920967444233 0  -0.06321776216121341 -0.06248380572724544 0  0.08317233582252427 0.01839217735704167 0  -0.01572344372859254 -0.05991561943950224 0  0.06666822850657043 0.03148961416089981 0  0.06373793972670326 0.03036151334507219 0  0.01289891046866525 -0.05710805059027761 0  -0.02328763924869871 0.07839772878335055 0  -0.05992755250268944 -0.07497225876346805 0  -0.04002580450320419 0.04316130695012774 0  -0.04581075632692368 0.03511389018479714 0  0.08687614322878917 -0.02380518046348428 0  0.08889519020668603 -0.02462838741737301 0  -0.01625422619375226 -0.07147239741136131 0  -0.01805886148892816 -0.07220288534408885 0  -0.08899957574764944 -0.04107227892270949 0  0.01275482551749449 0.06552222016100648 0  0.05845753011155015 0.01477917306197471 0  0.05675542432789658 0.01586961238198734 0  -0.05661010506256613 0.0465972464860429 0  0.01424034010866053 -0.07033569784837752 0  -0.03081185465246186 0.07009145471780029 0  0.03958403102842321 -0.01344219061666555 0  -0.01185959397798728 -0.09328445725358452 0  -0.04494891657554735 0.08008513069993563 0  0.05499931535139535 -0.005938225027282086 0  0.077568236589474 -0.005937588493012657 0  0.07811171041845144 -0.003773781933033597 0  0.08132496963996547 -0.005943430339919539 0  -0.08267966578387063 -0.01895257051346695 0  -0.08183025226407904 0.0331190359792056 0  -0.08229946484960138 0.0303983661174222 0  -0.08528267848066812 0.03277554550998239 0  0.05677820253166831 0.008144527701319603 0  -0.09764528779579661 -0.0122858051402559 0  0.01554913901439565 0.06733903148013676 0  -0.08264775560850693 0.05364757168803724 0  0.04687708839152309 0.01382363463009873 0  0.0465551089845341 0.01191925485917852 0  0.04619267194184359 0.01771647834648747 0  0.06792852806465494 0.006800782270186826 0  0.09103217457788004 -0.01481644159075525 0  -0.08776829670061928 0.04350209913276806 0  -0.0758319398978564 0.01802928033394782 0  -0.07116229303859865 0.01214668603987363 0  -0.04961834395269425 -0.06005988524507206 0  0.03815402054459991 -0.09036973914977181 0  0.02417567129019993 -0.0373465313149497 0  -0.08835449172634337 0.02967957700474936 0  -0.05498628077170244 -0.06417289532697992 0  0.03444805210032091 0.02833763583744347 0  0.03662525170234419 0.0273785544345422 0  0.04739168180250779 0.0378264025011575 0  -0.05415880027865039 -0.01781609492846965 0  0.05750734673743323 -0.0422136881336257 0  0.02177831024769125 0.09190182265591827 0  0.0237765080115927 0.09184803113491619 0  0.02259802865530698 -0.0396524140012972 0  -0.05216768249386149 0.02839160137226399 0  -0.03387530931464637 0.0704151712248408 0  -0.02292992139129294 0.08155455774609024 0  0.01621729832045801 -0.04824212623239286 0  -0.007540217242720786 -0.0450595766608128 0  -0.05935961466546458 0.01163744637656879 0  0.04885909086211681 -0.07004851788373449 0  0.02199524060422659 0.06638570840977752 0  -0.03771009435343218 -0.05172087729715497 0  -0.01987717522915499 0.05091631191131327 0  -0.01722674308365395 0.05292851573703072 0  -0.02098442163827756 0.05332823239894043 0  -0.0007040119970064487 -0.04536060925861379 0  0.02059989399286134 -0.06250861855226159 0  0.02438857322446954 -0.06216106836340998 0  -0.06143452840338378 0.0300499322544921 0  0.02704326626706447 0.08251181422299383 0  0.04105577491328475 -0.06173291723113734 0  -0.08507528831358871 -0.04560974969521744 0  0.07527551056784144 0.04223344625648551 0  0.0006040755186928312 -0.07438723578457314 0  0.0391771180154197 -0.04770874959328583 0  0.009582072397264043 -0.07586374247740685 0  -0.06486434405339808 0.05935890053226318 0  0.07484103659761041 -0.02749096312434308 0  0.07287678682499783 -0.0279642777582192 0  0.05258496582767257 0.07140104845703647 0  -0.07951845163820238 0.007443838150179247 0  -0.05460791467726445 0.07212026732865304 0  -0.05391130915728114 0.008802033392069714 0  0.02404406268555107 -0.07386883185609865 0  -0.05676858599581841 0.0505242737774201 0  -0.03385249586418608 -0.07308984695033401 0  0.0269211705114839 -0.0532362346869551 0  0.06750536442828566 0.04150684946058422 0  -0.008133877913314772 -0.0798857037284159 0  0.07144441280765529 0.04159016240807768 0  -0.08670465340061989 0.01972677778416602 0  0.03695151523677905 -0.08499310712853964 0  0.01094335024241208 -0.09752393316245722 0  -0.04472157701117532 0.0655533768096991 0  0.08251403855836109 -0.02451783159112242 0  0.06366818404280587 -0.03487353721617991 0  -0.09680413627812698 0.01655363929253048 0  0.02206154055554996 -0.04630841655139079 0  -0.0652276452020442 0.0110037352304162 0  -0.01115243732788472 0.07687136210163166 0  0.09210613148930308 0.001559199018930322 0  0.0852031267106175 -0.02474546633762238 0  0.05583997899722663 -0.0469262861476583 0  -0.04611330061138953 0.02966039004524656 0  -0.0485093100636519 0.01405578061620028 0  -0.03179579458321757 -0.0378834948413746 0  -0.05442450812097108 -0.06650049040819329 0  -0.0563510241439768 -0.04263266159935936 0  -0.05709979845459427 -0.04644058725226115 0  0.08011839373419698 0.00205344365575048 0  0.0868275141941144 -0.04058751034405875 0  0.05410470776890631 -0.01090169435224409 0  0.02019275288853314 0.08632427465605766 0  -0.05553641303253625 -0.001688053604108602 0  -0.05456488511494099 -0.003778100066191795 0  -0.0390110894605484 -0.06625928999516914 0  0.0447296485107954 0.000836374714876989 0  -0.02622382581501982 0.07925924000957967 0  -0.04944437280207278 -0.001780368581630059 0  -0.0519022621595271 -0.002828133273871523 0  -0.05309374444012416 -0.0002648993409130111 0  0.04731551026222092 0.03479336625936858 0  0.07019300684255006 -0.01930356818343142 0  0.07138602593354175 -0.02091736557921744 0  0.01642813355976408 -0.05132477619652927 0  -0.02414470013547499 -0.05594843372818526 0  -0.02274272971524247 -0.05799975044854327 0  -0.02663905591545776 -0.05769175193021979 0  -0.003093631119514764 0.08806311006761472 0  -0.001480096315948829 0.08920158366687791 0  0.05119359680547027 0.04444709279705651 0  0.04716075812916465 -0.08603673054866939 0  -0.003716944069764907 0.0466403287095499 0  -0.04845098922913073 -0.07402638247370338 0  -0.05002413756028835 -0.03932232714252337 0  0.01636549210129468 -0.07771184351102342 0  -0.07962269664720432 -0.05668890248802059 0  0.003134019342154191 -0.06269422271871422 0  -0.07015239507765407 0.006284240047449749 0  -0.07012236918518303 0.009414966761030747 0  -0.07068218893797558 0.04039993140934316 0  -0.03961238999115702 -0.01363903632899982 0  -0.050552767076217 -0.01306156850158261 0  0.01427864556898081 0.07726722719694283 0  0.01623688548599223 0.07717121614886105 0  -0.0128327859328365 -0.08706912449369088 0  -0.02049376147188579 -0.05128515075222535 0  -0.02399972532193837 -0.04977783920700338 0  0.075955353575214 -0.03720682445477697 0  -0.08660509021918744 0.0288474134194919 0  0.08645313264679859 0.02005230148200258 0  0.08667738199391919 0.02263928801268042 0  0.08977958868637846 0.02182275915242215 0  0.03825067164385647 0.02992859430609706 0  -0.04084979185058088 0.01741976136263533 0  -0.06982512431831726 0.01618641782002097 0  -0.06937358745625614 0.01317747290234814 0  -0.06648946922346548 0.01482452539015043 0  -0.01120466286913892 0.07397210931987885 0  -0.08108392886079117 0.02283682410081973 0  0.01825476392265724 -0.05991830710929599 0  0.07377448643717666 -0.04614699556916947 0  0.07757939548384885 -0.04666298276448824 0  0.06336823140581556 -0.01544840165376853 0  -0.07213049525049021 0.05835437228795692 0  0.02324587500187823 0.04342604082447121 0  0.02507944945090319 0.04703770312500506 0  0.04074360720829093 0.05393427712665715 0  -0.09481603975506524 -0.02517620553511034 0  0.03255872887767357 -0.03962476757357816 0  -0.06769266395989836 -0.02245099082491393 0  -0.0707836603857797 -0.02496590038012603 0  0.07225982213058546 -0.03581418671833519 0  0.06466249380937879 0.06890159022610777 0  0.06593844574174695 0.06747956097176927 0  0.06775318398389382 0.06817314918012196 0  0.002594461449070727 -0.04956572276151136 0  -0.01348958294364123 0.07007157175143283 0  -0.03299770465439931 0.04967914393753757 0  -0.06046576621257839 -0.03193082427334028 0  0.03525684787624199 -0.06521554040698503 0  0.03658896907486761 -0.06228346004822909 0  -0.08888863202499199 0.006504161632510401 0  0.08319457861184422 -0.03336533639378041 0  0.05488828067103497 0.01809795316411279 0  -0.03703957173664778 -0.04515036345232794 0  -0.0409147795138313 -0.04475090703557181 0  -0.03930915473435075 -0.04302357600054157 0  0.0565309890603455 -0.08020230413636459 0  -0.06718077038606363 -0.06056717760202946 0  -0.0611936823087833 0.06206554826952067 0  -0.05277965526665868 -0.070041646132007 0  -0.02542818198802038 0.08660514236741154 0  0.04096400582270479 0.00833503226268807 0  -0.03869023480454609 -0.01588424147250701 0  0.05524165264413837 0.07006730428965403 0  -0.02584393633316799 -0.04393215633066916 0  -0.0283224448220518 -0.04489695415048173 0  -0.04051488575924817 -0.04101866027451256 0  0.09762171736072604 0.0114715973842956 0  -0.02432325398109454 -0.03402762711113726 0  -0.0345512784268861 0.08551100569185023 0  0.09252510865038381 -0.02420685799094078 0  0.09559034034114218 -0.02249205782236371 0  -0.0332598398683887 -0.09278337273485994 0  0.04112646008402687 -0.02607409394558918 0  -0.07240477793917956 -0.06613831138552556 0  -0.04629025160059052 -0.0483052434328903 0  -0.01866613084932274 -0.05429610544364987 0  -0.07970512470615065 -0.04315581147527667 0  0.02723595266132508 0.0914559688823372 0  -0.06353001898513203 -0.009732010590589098 0  0.04665453783105924 -0.002226358437266406 0  -0.07552002631954595 0.02487610429978096 0  0.01650099057765066 0.08055013102039774 0  0.001073548067588002 0.09472509096720196 0  -0.06625878674601723 -0.01344153244372242 0  0.02198481853650082 -0.09574306807205919 0  0.06408687715321354 0.06306824477665518 0  -0.06472563836956921 -0.07129597960061988 0  0.08189015445796963 0.0546246396565107 0  0.09376966940853505 -0.01257135632485229 0  -0.03266128188778925 -0.04080643600832339 0  0.09361358619182668 -0.02971083384440332 0  -0.005782100709525601 0.04103886560181349 0  0.02258996296580112 0.09580922189046262 0  -0.06709353906542621 0.02291916311650512 0  -0.01676362612651997 0.06896862671230952 0  0.04465924109139165 -0.06865973522980368 0  0.09121779031178197 0.01023116339205957 0  0.07088043486035792 -0.06162378235465678 0  0.0429373167146355 -0.07212126720190329 0  0.09427297171390439 -0.01615843550371591 0  0.09654132999809932 -0.0172731949073135 0  0.02980059496165996 0.09140925063926304 0  -0.01338230783598578 0.0796668287041768 0  -0.05274837495087758 -0.0489824064920056 0  -0.07895207539494274 -0.04921988341188586 0  -0.09045792121104455 0.02083420904341288 0  0.04261847881374498 0.04676012671347199 0  0.07762528708766583 0.03203436267335098 0  0.07636914862502832 0.03395128338464509 0  0.08004185731793981 0.03442855483071253 0  -0.03124315683351862 0.04327665841831822 0  -0.04281467501547272 0.007212962782213624 0  -0.01185458057944066 -0.06554060511467819 0  0.0184994346550777 -0.05128327092252857 0  0.04768584303015661 -0.01864583735437029 0  0.0003753207597600977 0.08045606889371053 0  0.04392013118476798 0.0296227019592541 0  0.06614575538295804 -0.07259954474952265 0  -0.06799121613019937 -0.002223865256224899 0  -0.06210683250389937 -0.0424760803609258 0  0.004496635698171197 -0.04114060192201034 0  -0.02326327590374265 0.09338364382237568 0  0.08730817125563374 -0.01598181824080231 0  0.08616734300866467 -0.01753840526438195 0  -0.06204267736486109 0.0001159670030670293 0  0.04635155332479926 0.05477404701629966 0  0.06348349698405231 0.04025027491890677 0  0.09592788678380895 -0.006924311943687656 0  0.06270660002404611 0.07189309823677389 0  -0.0105588440518656 0.08988368768282082 0  -0.04723501480464022 0.02253829889388972 0  0.007063980889513014 -0.04088766223749071 0  -0.08029183589373255 0.03845094612731296 0  -0.08130127915850478 0.03674290677089819 0  0.03618483959161645 -0.05315138777084589 0  -0.05305151656529633 0.0363980757855856 0  -0.01805773148363031 -0.08861383232075475 0  0.0596634654945661 -0.0695404069606691 0  0.04935383484300176 0.07320079885858215 0  0.04374648616162095 0.07451008790586405 0  0.07593933179389216 -0.05884045930843217 0  0.003040988552093647 0.08025709870414037 0  0.003251777653873887 0.08295154091998357 0  0.0007872678192383748 0.08354620205204545 0  -0.02087363231381085 -0.05743522496431561 0  0.00731089085904828 0.0784541773071655 0  0.04671618498313204 -0.06527286699331086 0  0.03362874758752026 -0.03592954939663892 0  -0.04199957761600171 0.06024290799247471 0  -0.04197607516625746 0.06295615745413576 0  0.003368174053020812 -0.07511199756506463 0  -0.00864131825363877 -0.04743879777795972 0  -0.06618890920880163 -0.07255620124388261 0  0.06836652672302702 -0.01124489572753716 0  -0.03806748408347223 0.08991389646635035 0  -0.08180965891967107 -0.02256128954642682 0  -0.09229671203401706 -0.025300416179542 0  0.07455290849975739 -0.02442724948496282 0  0.08080205694482873 0.02142702939169746 0  0.08124408691870838 0.02435947881074059 0  0.08409183157620605 0.02304411704760952 0  -0.06495539180022025 0.04888521591929397 0  -0.07218755191274398 0.0329486925834973 0  -0.01169203414157353 0.0978671180993404 0  -0.09316179303286939 -0.01722076383009114 0  0.02099724085261444 -0.06811991530025992 0  0.01462739431650698 -0.09712020107449792 0  0.01451060704474942 -0.09347051671796519 0  -0.02678978022684563 -0.06995974725010327 0  0.06267543594457964 -0.01721942598148747 0  -0.04477101639624373 -0.02640750028964603 0  -0.04689525748591082 -0.02528901518229943 0  -0.04669813253606174 -0.02335737399829057 0  0.06305811183920333 0.0157830029531609 0  0.05730163764462459 0.01133652684020745 0  -0.0837126097290718 -0.02250566199152909 0  0.0591950298937229 0.02664519923552004 0  -0.04682713213381188 -0.07657583007835467 0  0.08662271805228246 -0.03381942172811032 0  0.08656725034551742 -0.03133764311667134 0  0.0410400861003473 0.07623364356520845 0  0.04291482174984934 0.07831279475842304 0  0.0401141796289366 0.07977212565744979 0  -0.03000816616574751 -0.08544965316669979 0  0.05506782790229865 -0.06331852017090381 0  -0.05783459863759331 -0.03140287249700453 0  -0.08099373643706304 0.01397959772883351 0  0.05280360694608004 -0.02083385175526093 0  0.05362227004773097 -0.01731378723586 0  0.03658805866051507 0.0620328755352728 0  -0.0003943512510390583 -0.05305879499961644 0  0.06842526323915266 -0.06025534389964511 0  -0.07239254787164601 0.02416554027506175 0  0.01200206398231316 0.06819732586675757 0  0.03743658685003693 -0.03240212680415747 0  0.02824629168705861 -0.04969604861856769 0  -0.05716687165514943 -0.005186691757733181 0  0.01337769763759783 -0.05080742625214166 0  0.03016523686251039 -0.03820421769255925 0  0.01735685155529576 0.04093205387101541 0  0.01711973098846361 0.06889810248347812 0  0.01549057069588009 0.07115005082577021 0  0.01937462235048775 0.07056697647062393 0  -0.07524133918082439 -0.007794287891721543 0  0.05748686493660391 0.03357175030324399 0  0.06004203493380314 -0.05187007980419723 0  0.05970910318756819 -0.05414926255292339 0  0.05657915300503646 -0.05342449027886821 0  0.08467356584408146 0.05054902011806173 0  -0.06994496225808068 -0.01391225409914962 0  0.03044504057755107 0.06108639067615804 0  -0.04012160054657956 -0.05575333092778782 0  -0.04767127607490079 0.001291080376037953 0  -0.07055937246173986 0.001772861913607448 0  -0.06957973961533033 0.00411106432091863 0  -0.07963403637401681 -0.03718292647441884 0  0.08508082065981516 -0.01393018155496531 0  -0.04259484168111349 -0.0386311720977365 0  -0.01785338305588761 0.0661525892164883 0  -0.01128682715796665 -0.0574436389641191 0  0.02243615626414082 -0.08186288817885738 0  0.05568189906949116 -0.03569285987235772 0  -0.0535324796448103 0.0754752736867462 0  0.01429812069802436 0.06252516829094874 0  0.06721064239267256 -0.06264470151974974 0  0.02508306872561317 0.03768787631143564 0  0.0272306498924712 0.03851642055052078 0  0.02790033267280139 0.03520906247050213 0  0.02657634798902717 0.05341528209401818 0  -0.03360926544719794 0.02410054444088579 0  -0.04309247342026797 -0.07588124769205691 0  -0.01833666675561927 -0.07972525907409514 0  0.09218337700474284 -0.02120673470584237 0  0.09282084562346353 -0.01788233467207011 0  0.04223670373914742 -0.08252644474037125 0  0.0538497308562903 -0.04064683880348621 0  0.04903128544468608 0.05716124642302567 0  -0.03522086904245349 -0.05426158874406922 0  -0.07436748932486208 -0.005298361626790233 0  0.02885604159950105 0.06888261448739522 0  0.07695293141857149 0.0565159940065496 0  0.04388153957996481 -0.00982112128352299 0  -0.06345702463236098 -0.05950806192082173 0  -0.09432122842886694 -0.01352466675625326 0  -0.007889832992688851 0.09530914176886617 0  -0.08074108235291823 -0.03363492628895277 0  -0.01133745460196189 -0.0827296002065232 0  0.002269611409289619 -0.09806280364747015 0  0.02793099098267424 -0.04609904641866047 0  -0.01815553343502709 -0.09125657887286925 0  0.08957157647936244 -0.02085036226662948 0  -0.07828976542778306 -0.0350730579829476 0  0.03789234976506225 0.05199702744579809 0  0.01886477417200922 -0.04829744702187905 0  -0.0194042753667988 0.05685953318247957 0  -0.09284703689318397 0.01799149970876313 0  -0.09648500408008945 0.01943354129496411 0  0.04250254225544249 -0.06956988642404106 0  -0.04918941219629474 -0.06994340347539067 0  -0.05768663450401242 0.02270505220830789 0  -0.05600462231597148 0.01955136424777547 0  -0.05903412900475154 0.01995966334460607 0  0.02651231061443085 -0.03883845806885299 0  0.02493286806901684 -0.04110243410192518 0  -0.0670740591970803 0.006991892007034723 0  0.03622059133082053 0.07522760910848059 0  -0.04495504371907162 0.08733417751834148 0  -0.05734622617443038 0.01364596249193366 0  -0.06408773903565712 0.07118812081310941 0  0.00393954571863462 0.09413957584984234 0  0.005847040639110556 0.09490484487803777 0  -0.009252416841967405 -0.08792140993247537 0  -0.01029936090330862 -0.08525488475003855 0  0.04445164827428871 0.03557661690856417 0  0.04382869879540011 0.08786996451931854 0  0.06115933101100361 -0.05786667754417583 0  -0.08141842621048173 0.02667716259849497 0  0.05198357261839398 -0.002948665528452671 0  -0.01627649360574601 0.06518860452821848 0  0.03363835406711258 -0.07563621886600008 0  -0.06063809117398275 0.008126534653887631 0  0.08552664531143338 -0.008163542991613332 0  -0.007522943156611811 -0.08370301501823493 0  -0.02897187806773113 0.04455633802328654 0  -0.03839754878779273 -0.03933149834425428 0  -0.01194149086642399 0.06784024767501411 0  0.0454898736724331 0.01509250531077337 0  0.08085971063445375 -0.004102460008795246 0  0.001757655131864184 0.07432700435724524 0  -0.07207037893006202 -0.01877409790746807 0  -0.02156351504290734 -0.0693548940800882 0  -0.043795493404062 -0.08781776945959742 0  -0.02861149916425327 0.04079035120965557 0  0.06834528056952377 -0.01428393012986044 0  0.04228986540194473 -0.01625807170490143 0  0.09182781702646854 0.03418375304952368 0  -0.04103404276422799 0.02726710333309931 0  -0.07969933770324573 0.05784692532336226 0  0.04402978647212663 -0.08041476108018987 0  0.000616422436907996 0.09849781868619119 0  0.03264156275739494 0.07491299865412458 0  -0.01179030959660641 0.06419867464112361 0  0.08174645128369754 0.04047662415930334 0  -0.03697239016614476 0.08144570361105985 0  0.09123291247850279 -0.03728919776190651 0  -0.08984832017280825 -0.02801248785395305 0  0.08013552916606387 -0.01631229758060107 0  0.01692456034044774 0.04381726412175842 0  0.005364125773065464 -0.04355676895324847 0  0.006556139310225497 -0.04504679929062001 0  0.008502400481556366 -0.04445895564396566 0  0.005949985096397098 -0.04684332154584799 0  0.01359921380019318 -0.06489709606362025 0  0.07117096609607844 0.05757253391563624 0  -0.09635025989703407 -0.0007757029143174987 0  -0.064975682911911 -0.06194007875383718 0  0.05203845988409271 0.05395207572779792 0  0.09459976099970653 0.008901491324001563 0  0.05018289093232836 0.007531235914893101 0  0.07844295297654981 0.05308253139275287 0  0.07961935417760162 0.04957990971073916 0  0.0442452969205532 -0.05403772523768626 0  0.04282533810251506 -0.05599283320929653 0  -0.05061862097793072 -0.01865354271701741 0  0.0700171118743543 -0.01515597165404635 0  -0.0613043431660767 -0.0286565444597265 0  0.003760962906999302 0.09230892340702483 0  0.06341050576936949 0.02296796437424968 0  0.06043985240367892 0.02446264430281123 0  -0.04298877847661595 0.05704124041882896 0  0.03327843663429407 0.04758896551647207 0  0.02120702783580836 0.03930980986541653 0  -0.01026498979726713 0.06277639157278937 0  -0.03846554395799675 -0.06344542252424167 0  0.04808694559273612 -0.01505728145788247 0  0.04484396829275834 -0.01352246234448626 0  0.06283842122274273 0.001868550875336678 0  0.05981309348147608 0.002644288454918603 0  0.009269041576951274 -0.05803953995970384 0  -0.04244417806815478 -0.01547419340766334 0  0.01139240108064839 0.0456902941891715 0  0.01423574337314595 0.04632117310779065 0  0.05646952291812252 -0.01255381142976975 0  -0.0692737027090686 -0.05728258161235123 0  -0.06738822434039363 -0.05746875314103631 0  0.009319751733242973 0.08426322682954203 0  -0.03252233305167693 -0.04694255764028959 0  0.02984216856345182 0.03953357298134331 0  0.03270787881226477 0.03908319727343482 0  0.08391876812731897 0.02009696743280644 0  -0.04739366518985011 0.06537927601278271 0  -0.04836650447257201 -0.01558702352856002 0  -0.01061647065326736 -0.04403210403738925 0  0.03634392316359712 0.02523173082732248 0  0.05208244404287856 -0.0497605973423584 0  -0.07066525337689991 -0.06387217493628412 0  -0.05252725537316254 0.07211782267252409 0  -0.05365564361922583 0.06861644824547683 0  0.09817575012143223 0.003006571823106979 0  -0.03237259796287601 0.06334897079860162 0  -0.0892764655817286 -0.01091081482338979 0  -0.01397906251306599 0.06226329070402669 0  0.04275733025889411 -0.04885000792056568 0  -0.058036171895859 0.02909394829840387 0  0.01888393297653711 -0.03943674531016819 0  0.05038421070697163 0.04216923880656309 0  0.06063080571533702 -0.03273239105108652 0  -0.05750704623324756 0.00752721766657527 0  -0.06087479124991099 0.006087838890653749 0  -0.05660095868179799 0.009958471872643145 0  -0.0405985310369592 0.07603328222625999 0  -0.05306662432080019 -0.04064204077456156 0  0.02715637260081763 -0.04245933587437318 0  -0.0868324760751014 -0.04041986654032249 0  0.0804965168423399 0.01879026606869593 0  0.06554941312056162 0.01343159830101141 0  0.09579272123940254 0.02321982823302369 0  0.07386154202974414 0.01293953706490454 0  0.006023181002397402 -0.0932741471848184 0  -0.07888566461913801 0.03470638538218762 0  0.0004313477252421453 -0.09298493522301761 0  -0.09145214795565858 -0.01638099859826121 0  -0.08811400476473635 -0.0170978511420084 0  -0.04654341172201919 0.04091930730707095 0  0.03800417170714904 0.01626373881899512 0  -0.0339250197982356 -0.05081398692825407 0  0.03407315493751207 0.06116661276373438 0  -0.06831023907595515 0.03167004225105474 0  -0.01050503258938492 0.04203446069211828 0  -0.04613859202042324 -0.08263227737646645 0  -0.04473760310479261 -0.08401596153465035 0  0.03299962246519844 -0.07179699331024701 0  -0.007178851576374545 0.08864795042140654 0  0.07446544327587219 -0.01842274353288214 0  0.06493016684193584 0.07074375500328127 0  0.06769373632154201 0.06213964895384698 0  -0.06196653737500619 -0.01511249310377956 0  -0.05978398485224819 0.0165794761249608 0  0.02560845284528014 -0.07580473748350433 0  -0.06748547337738292 0.07119191937917528 0  0.06993100389368462 -0.001392705349355027 0  -0.0007878753046873387 -0.07178694031680498 0  0.08649590274719181 0.03975618107538468 0  0.0319259723627032 0.0441834808535272 0  -0.06195802671457951 -0.01942307609249787 0  -0.03869314397160122 -0.04737148028818985 0  0.01958827870061174 0.04386936684379455 0  0.02893930664389096 0.04189645323438111 0  0.06639799876735956 -0.04813614976984583 0  -0.05206695945822978 0.01490380145557663 0  0.04564945570789786 -0.02871883599205411 0  0.04596706640993799 -0.02496493706772512 0  0.07154709080931666 0.0153143792201031 0  -0.01878637606890449 -0.03733652451584691 0  0.07547214832567367 0.02443146823715197 0  0.082989940639496 0.002120987490222753 0  -0.06286459314662959 -0.03250732823293393 0  -0.0638854495553156 -0.02967309646685322 0  -0.0661528756007571 -0.03113968479681356 0  0.0570616722266046 0.05916807974282412 0  0.05447282243475551 0.0577512911660555 0  -0.003980603314828479 -0.07045736050746432 0  -0.03787964189504724 -0.09104638675301528 0  0.04469674011512081 0.08451862197846136 0  0.03052257267030782 0.08082153870735202 0  0.06472997778918771 -0.02850602758909506 0  0.06622666160847811 -0.02964604119775173 0  0.09582924415232746 -0.009871716421460994 0  0.04607735094927313 -0.03090392033671824 0  0.0482891585436383 -0.03123288271705398 0  0.01333937464304663 0.05385858200767988 0  0.05092097942937139 -0.0533540240416299 0  0.05305396945557558 -0.05230783878432527 0  -0.02974814763035467 0.04839556152661851 0  -0.03007365942698074 0.05118606311876811 0  -0.01674547469723469 0.09170836715123577 0  -0.05802260879921407 -0.06069267869520926 0  -0.03653681879275558 0.06786794374230412 0  0.05799934900001368 0.05342038224099132 0  -0.05478884809904964 0.04695163622963019 0  -0.08687621968405751 0.004974259748823604 0  0.04274031266099786 0.04860777904772212 0  0.0572760031461027 0.05588285895549418 0  0.01446438270660656 0.03869694126534867 0  0.07253456543064454 0.06357204384750169 0  0.07383260379518253 0.06014505507422902 0  -0.04927065293968862 0.04692753811033674 0  -0.01598417740141689 0.08173069227372896 0  0.02475856402194468 0.05066911909826838 0  -0.01307372607799688 -0.04262801580364926 0  -0.02730502754582147 0.0433540735727066 0  -0.04518121716320538 0.0516566841695385 0  -0.04327356406329946 -0.05370468928483126 0  -0.06751000344898433 0.05487946380546648 0  -0.08930324531356842 0.01813195639266196 0  0.08794531025208062 0.02903778915300194 0  0.08941898900859441 0.02765725726419204 0  0.08654531373307814 0.02577651490148706 0  0.07325011864197163 0.04742502158594808 0  -0.08048268247287042 0.0514393820451671 0  -0.0219907802666887 -0.04059861651479335 0  -0.02151258787409882 -0.04240615863083595 0  -0.003522690922591503 -0.08197193153364284 0  -0.001161257334557337 0.09586751109978096 0  -0.0477886161647982 0.02487192807467942 0  -0.08605662872467792 0.04080575110278136 0  -0.01656396019627914 0.04500371868427917 0  0.05088664972672553 0.06460932746119295 0  0.0192355465437402 -0.04255744765798177 0  -0.03438612872069986 0.04236974169851918 0  0.02539483183503893 -0.064018846716143 0  -0.006804232373152617 0.04735402408740967 0  -0.00490391257660778 0.08454906287758163 0  -0.002932768419816953 0.08474860442573177 0  0.01681174819341899 -0.07594477132539479 0  0.01126490400637564 -0.04918811867868231 0  -0.03987388262677291 0.05501733716193416 0  -0.09051575763271422 0.004611337784632327 0  -0.004412639680424161 0.05251632271651948 0  0.08468505476344507 -0.05055587885384617 0  0.07622798953446029 -0.06198292691106205 0  0.07130450834697043 -0.05212946850479182 0  0.07380256482015192 -0.05043957058716343 0  -0.02710993590677048 -0.04107436419708495 0  0.05630561972503181 0.05017733383768722 0  0.02204421228678622 0.04653104219591063 0  0.04747579950012883 -0.03439305304812935 0  0.001165725095299544 -0.05457849884714739 0  -0.0235137461691587 0.04725472302648009 0  0.0383349985546542 0.04266036709139398 0  -0.007542404007698908 0.08119077403149209 0  -0.06923280536446046 0.06002581345985009 0  0.05990907713287387 -0.01679113524687214 0  0.05978587584817779 -0.01950256084314278 0  0.0566876881340268 -0.01793427963013397 0  0.09497730992906754 -0.01392626790277682 0  0.08889173414102135 0.02592049499274554 0  0.04625685105355182 0.04116608405556009 0  -0.05346202141255325 0.03402626915977384 0  0.02195634798117899 0.04916172527824483 0  -0.03102172126045025 -0.03148821651344179 0  -0.004316637160940602 0.09847441575539063 0  0.04494434843929357 -0.01622076036858389 0  0.06943116243988733 0.001777601361356011 0  -0.05352045039343424 -0.05328758865219026 0  0.02546384409886667 -0.04472756829169045 0  -0.04015393829173534 -0.01174364467249772 0  -0.04452191743592385 0.06029462072767772 0  -0.04717835515706718 0.06275818428894518 0  -0.04460266446869842 0.0628382357156286 0  -0.0500167276691245 0.01586068669027446 0  0.004167843351818258 -0.04716430599747527 0  0.03308388005196298 0.07315289392901107 0  0.06701489914795877 -0.03245215256309499 0  0.06653740583987007 -0.0350805501404112 0  0.006333379581411516 0.0821705818938285 0  0.08358061187798467 0.008912150581880281 0  0.05039139762756865 -0.009480249019780281 0  0.05230162133238623 -0.009375271855187963 0  0.03758812253583584 0.05520778403853828 0  -0.001773125191235197 -0.08244727303331571 0  -0.0237975724608264 0.08999400329958661 0  -0.04934626694429328 -0.05703578631800675 0  -0.05426992829171062 -0.05602402799429568 0  -0.05487947730742566 -0.05855292284339797 0  -0.05189434467505055 -0.05651218433329495 0  -0.01694998396937181 -0.06157013868524985 0  0.08517293942534419 0.002333289581979172 0  -0.08409186642180734 0.05164020704855511 0  0.02361005673608222 -0.04333077779621754 0  -0.06429117392703218 -0.03582073145953508 0  -0.0619625271150837 0.04227666114252063 0  -0.06375772820994335 0.0427414688853984 0  0.09503873432422699 0.0144604638059442 0  0.03889784557854987 0.01950958172437622 0  0.0002316854812569213 0.04378019625711507 0  -0.00382568244213787 0.07734649166430214 0  -0.005291251096335256 -0.06462272706637283 0  -0.02700594253689204 0.09424283153776812 0  0.04832999899830154 -0.04392103945860262 0  0.003389368422127866 0.08866292842060997 0  0.05602599861116773 -0.04335268059593422 0  0.0346043663370976 -0.05914655036812726 0  0.03767563656298998 -0.06041605315075772 0  0.03396492799496746 -0.06096950428859315 0  0.01694416342133937 0.04642834336771173 0  -0.04230532098117147 0.05231493000446373 0  -0.03945697469847147 0.05006991868037729 0  0.08934868332666687 0.04185322402982113 0  0.07587342554415687 0.03854149401196903 0  0.07386920639886312 0.04002234799671942 0  0.07237821036129358 0.03759999170766161 0  -0.05379735947739071 -0.082094016512454 0  -0.0294633821256572 0.09113314983870643 0  0.02932273787001395 -0.04381844249142368 0  -0.08283282818012154 0.01532446812443075 0  -0.08467985346371411 0.01374317798785652 0  -0.08624929667517549 0.01644764168905076 0  0.01799875632548956 0.08718605724081552 0  0.08654620739411258 -0.004723867261209106 0  -0.09216313113826896 0.02026023896224453 0  -0.008290032973112368 -0.09216694752511219 0  -0.0581514531144191 -0.06945355778652255 0  -0.029707869386276 0.07441970438312571 0  -0.0247847471509794 -0.04680467307330896 0  -0.07417533420545266 0.05238374750400349 0  0.07253650505977577 -0.01353314441393664 0  0.0724030500410137 -0.01698795640617163 0  -0.002151886385238175 -0.06836137372009596 0  -0.08720751034048957 -0.03006417207255424 0  -0.08603035338930633 -0.02820691222315517 0  -0.08340283748202858 -0.05196461677204543 0  -0.04710334836421273 0.05745419541159143 0  0.08238912684728347 -0.02994721207727195 0  0.08362538314499735 -0.03145985992119493 0  0.08003204983016783 -0.03253252884235781 0  -0.06334167637303283 0.04605199650716418 0  -0.06396099962873847 -0.0189013142903866 0  -0.07850889790104568 -0.04744518728157057 0  0.01427295907229451 0.05950214952401944 0  0.08167801415031109 -0.01189438878040122 0  0.0663283687740846 -0.06833188337927554 0  0.06872611585094365 -0.07023244591147593 0  -0.05168248045954742 0.04183914495763883 0  0.04190969465007808 0.03033415858818507 0  -0.02423069378571283 -0.06948551601762773 0  0.05282932478942574 -0.02543012201393483 0  0.06900205691219896 -0.04077175127239094 0  -0.07345524378997094 -0.01103930767368468 0  -0.02086990165740807 -0.07977885150784138 0  0.04262910949990129 -0.01120213977168048 0  0.05621648236837844 0.0618478376279646 0  0.05903120612884608 -0.02978917339552603 0  0.04533329047453716 -0.04818775424729332 0  -0.06383945440430296 -0.05775447808989168 0  -0.05217184956913969 -0.08320493616012564 0  -0.04495130060700701 -0.05188810156810265 0  0.05425984951371463 -0.08245645827429023 0  0.06359086948143634 0.02853933999406634 0  -0.01836767194938759 -0.04079542516278668 0  0.09352731592376133 -0.001830582760188269 0  0.02698745701253361 -0.03211527132936937 0  0.02852253945723018 -0.030502763180763 0  -0.05647680972722392 -0.05511954535987128 0  -0.0701506453603005 -0.00502689885123471 0  0.06225713375718024 -0.0761846913487139 0  0.07979006142942455 -0.04427999162220327 0  -0.04163238853039462 0.08902980385782096 0  -0.06911884042993099 -0.04860448362917333 0  0.05066348814674342 0.05052233499342005 0  0.03493067109896617 -0.04261722360562544 0  0.03313577632962159 -0.0429957220190697 0  0.03924594064766707 -0.01820998821033057 0  -0.08371466989261037 -0.02546525566066564 0  0.04065983724438157 0.04264852844408176 0  0.02244789737104751 -0.08980472637340897 0  0.02657443722981093 -0.09460763890650964 0  -0.08987283000363756 -0.02481565372559924 0  -0.08753782874842939 -0.02206370715734669 0  0.04819114132582481 -0.05107020828874589 0  0.07948288933264136 -0.02775884481662597 0  -0.04940574849374108 0.03446064373457886 0  -0.06295052096212608 0.04931213965538516 0  0.01707279811256135 0.09680678885830679 0  0.01816363450882768 0.09340781590005998 0  -0.07538130833694552 0.047208383886349 0  0.02830091344237081 -0.0339363423143651 0  -0.08742178469689217 0.008588846073667604 0  -0.02239539975821904 0.05899500512848503 0  0.007397626261617827 -0.05465411707061547 0  0.08583374482088886 0.03592362287953148 0  0.0098812065586323 -0.08860442970314106 0  -0.01994542554867118 -0.09408401317742285 0  0.03888813760327354 0.03713896026813185 0  0.0407470624968012 0.03597020710199965 0  -0.05764206462022903 0.03917519686388988 0  0.02864178406872199 0.03325770323326437 0  -0.0774230830994575 0.0495331469895185 0  0.08951995192058183 -0.03402246802603441 0  0.09205013465918227 -0.03407556609500066 0  0.09483283608802938 -0.02411171262732137 0  0.06863102357041984 -0.003449134935994952 0  -0.01699719952253131 -0.05616626900395492 0  0.0566424569852644 -0.04004609178004752 0  -0.03192308582714933 -0.0628291705009766 0  -0.04788960945304299 -0.08330829563064804 0  -0.07116935302957512 0.03638073240903423 0  -0.0731396117691652 0.03469579012838973 0  -0.07469682390614839 0.03712458146074882 0  -0.08758897876534798 0.01255996083183521 0  -0.08098910867116496 0.04011725190158436 0  -0.06585592480864574 -0.009722671914041114 0  -0.06749710969686148 -0.01056560266396045 0  -0.06457047824320651 -0.01281946341503827 0  -0.06540534473840649 0.0183784188217705 0  -0.0645006608297464 0.01620633665869982 0  -0.06255973352878384 0.01928455938638975 0  -0.02146868527542094 0.03876591657435664 0  -0.004667124816388934 -0.08432311632631521 0  -0.006136751567188944 -0.08709891989277992 0  -0.02928943647626292 0.06525091722368719 0  0.07411176997995071 0.05445647803676446 0  0.05913324875877238 0.06642223994727005 0  0.06134795889577579 0.06893577323518511 0  0.05828462263920638 -0.06523052848159215 0  0.03427670956309008 -0.08954282105265648 0  0.0306596458467631 -0.08927278898992494 0  0.06772858094979202 -0.02045808953663794 0  0.02136354459947236 -0.0801263745448472 0  0.05832007932036646 0.03721970691381665 0  0.06882421506329006 0.04272319809770146 0  0.04564284176500003 0.06592544565439137 0  -0.04602210784724304 0.01740052936832241 0  -0.06998426943194701 0.0655277395130397 0  -0.03681177398045511 -0.0573244167088148 0  -0.03390414692307761 -0.05789572189850904 0  -0.06251893723890968 0.009938386957054663 0  0.07049725864359162 0.007756637562301025 0  -0.08471876218676376 -0.01301328657467498 0  0.04645277917282579 0.002369589960035451 0  -0.0170681435034889 0.08943310010715709 0  0.05761554987042062 0.02323484992071391 0  0.04499065832165399 0.03214179714798457 0  0.04674151262551401 0.05145642398450932 0  -0.003125092464875569 0.06293231520835664 0  0.04872368057689861 0.06559256733810653 0  0.03808670515303253 -0.03815848288506377 0  -0.02149506349838861 0.08712289481403636 0  0.09445384215657344 0.01798586308686031 0  -0.0002609216250014327 -0.0433075480181001 0  -0.05723430994566505 -0.02383399017260588 0  -0.05589143872220551 -0.02062670552894696 0  -0.05635085629354965 0.06764962809989634 0  0.051556882822313 -0.07125888164609748 0  -0.05020547300112462 -0.05366653070530377 0  -0.008276977526482926 -0.09011742406401568 0  -0.03654410218613451 -0.06028318440427508 0  0.008809013161893675 0.07274021214330012 0  0.08142470286192466 -0.01848841401264131 0  -0.02134617361249368 0.09627768922300338 0  0.07966534590854424 -0.007111177599002792 0  -0.01330169041981692 0.04543275383666245 0  -0.0312663067779194 0.06513632049760716 0  -0.0462178565584841 -0.05507729561003354 0  -0.03757117972753895 -0.03081747626588829 0  0.07151230806619874 0.006278266639251886 0  -0.03007760690960705 -0.0568963031167364 0  -0.01754746231547591 0.03911744986916795 0  0.0320179313799319 0.08826747414529264 0  -0.02483688633950196 0.03662244768857754 0  -0.02662101757589266 0.0370172258286331 0  0.08127452713364026 -0.04331408123627483 0  0.0268089083878089 -0.06990492381901216 0  0.0218953097669423 -0.0643928970408448 0  -0.0416931285658333 0.07817139626406797 0  0.03035897793999032 0.09333921348945431 0  0.04222842582406119 0.08293576913242449 0  0.06237450346515898 -0.02954327722652754 0  0.03193418504324638 0.06693261030076214 0  -0.05099655629192835 -0.004975943456714624 0  -0.07139288819326178 -0.06759140824929279 0  -0.04727380680154843 -0.04100769776087423 0  -0.02127738808588664 -0.08784790446428178 0  -0.07809893137195184 0.02815631330568751 0  0.07417395774268057 -0.007517024517240734 0  -0.05245008875073157 -0.0244038113769926 0  0.02552148678371056 0.08561677762234293 0  0.02348856087788639 0.08854212473700232 0  0.03257959714841883 0.08290221618592215 0  -0.02656920415913752 -0.03155305090257467 0  0.06800896534942644 0.07096577460711236 0  -0.06901126165375146 0.05371528328344566 0  -0.07606717530930721 0.02132061172921043 0  -0.08059449486569054 0.04226418245283217 0  0.08789227206201565 -0.01012951192571512 0  -0.05019508016505637 0.0596418329526414 0  0.02919343938935773 -0.06964888167342384 0  0.02994948360034501 -0.07133351761739479 0  -0.07901220231281739 0.02570468077126321 0  -0.07890323023751203 -0.01496979135145208 0  -0.08072831835191267 -0.01715138646826021 0  -0.07821343874489166 -0.01850844174479092 0  -0.0492569062115469 -0.03600174597784661 0  0.07645157960298932 -0.01577422638170458 0  -0.07109190357539108 -0.01701825601511267 0  0.08530021221335567 -0.0006257980131270115 0  0.08283912369045129 -0.0004268391393021723 0  0.04331867979895235 0.06327725144277399 0  0.07096605024057547 0.01200303852070094 0  0.002545933829491833 -0.0703699791604758 0  0.01912777352741537 0.03655112696498122 0  0.05227571021974891 0.05744542283201006 0  0.05938177089051049 -0.04549638592053763 0  -0.07440474240484278 0.05571890574690626 0  0.09620775967658061 -0.01902225028404559 0  -0.06660370708947333 -0.04846710787710952 0  0.01381152287984065 0.05129382893692448 0  -0.02918538971011002 -0.09386826626875441 0  0.03934759729458352 0.03133155668903444 0  -0.0418506763462263 -0.02662514666130079 0  0.03022256284908655 0.07717559779781494 0  0.03371040294200404 0.07703405034405074 0  -0.0004756830694292867 0.06549747897673293 0  -0.03189409559644463 -0.09167057034406703 0  -0.01764786895232951 -0.0684537447588601 0  -0.01930039982150862 -0.0691510620158428 0  0.0445380742211851 0.02334920439321097 0  0.04536596774642062 0.02151979755092745 0  0.03659657224230003 -0.03721112872692759 0  0.01987097198801621 0.07789658136368564 0  0.02268197961671339 -0.06866262451250818 0  -0.08242695727121356 -0.04830745947036828 0  -0.007320662782223672 0.06385660960425531 0  0.03431976855027354 -0.03960081529976356 0  0.02847877125255336 0.06600437486182852 0  -0.03961608640572754 0.05224952561925845 0  -0.04402162115069804 0.03209466587615756 0  0.09291607105959614 -0.007790938796707225 0  0.09208527256915519 -0.005154578431860411 0  0.04732461522940867 -0.0416460231088513 0  -0.02917496650571771 0.09389393637566762 0  0.08478874185110752 0.01226998290276886 0  0.01510903780140579 -0.06751305200653702 0  -0.03675571037755334 -0.07116585288911557 0  -0.02127011458843621 0.06234738090485197 0  -0.03667356523583063 -0.05525590606704647 0  -0.04299493212217307 0.0658969182395937 0  -0.04190898961191571 0.06917839257640515 0  0.06255626549699354 0.01764125700069121 0  -0.04318925095633545 -0.08043182289521331 0  -0.04870800181036705 0.0757565670556283 0  0.01120787748910919 -0.06308768340789117 0  -0.0827940365136085 0.04993221199724716 0  -0.05884130992015654 -0.0157669448480603 0  0.04066647318106239 -0.05830740509166991 0  -0.04848715739852312 -0.02022621670978299 0  -0.05030452885844668 0.07331543284531214 0  0.02702202574927449 -0.08114653789501038 0  -0.04387015078851762 0.02859691709761389 0  -0.02131869568256374 -0.09007980209852044 0  -0.08066575634359177 0.03456457155672973 0  -0.05283567942728358 -0.0460944426958634 0  -0.05856542192504637 0.0645848271391312 0  0.0916463653737218 0.01386263979192346 0  -0.06674651608412535 -0.0458525004345989 0  -0.06962167370250487 -0.04687319200524734 0  -0.07605587767477616 -0.01011000058076125 0  -0.07872888601347584 -0.009859299792873991 0  0.04230667466074007 0.02029723922980226 0  0.06463565152108813 0.05738620379002533 0  0.001471441741983435 -0.08385621484590823 0  0.05596722911344434 -0.02694643335886166 0  -0.04471220117731037 -0.00713594290413932 0  -0.06090850846885669 0.03672675210576695 0  0.06457276680583386 0.03704611199392381 0  -0.03924137217922356 0.07932231544671417 0  -0.03953145828988342 0.0826344577909477 0  -0.0648264163525793 -0.04291960031827981 0  -0.03199500157308055 -0.02610185261520027 0  0.04453376610077004 -0.0219200028657172 0  0.04348187641933889 -0.01928392495002033 0  -0.009391833681170674 0.08009807754889811 0  -0.06002841405735874 0.03920226967098833 0  0.06474453068979535 0.01530532352631193 0  0.05237919078569446 0.08316849100679093 0  0.05071690734852601 0.08617556969233291 0  0.04928249620666434 0.08497210108053663 0  0.04489784228871228 0.01065204914814834 0  0.03957274593988988 0.0237632713932476 0  -0.06862092588187318 -0.05180236799498997 0  -0.06445920764005925 -0.045248560191832 0  -0.066230371709723 -0.05079705461188596 0  -0.0640235685732311 -0.04805368340761743 0  -0.06704176319693694 -0.05423125203973984 0  -0.06210805077022667 -0.0451260344569902 0  0.04219123342029837 -0.07585140457541699 0  -0.07712713434595722 -0.04624416085050905 0  0.07019170150148377 -0.05741940870310604 0  0.07078310107106298 -0.05571344019126202 0  -0.07383118746858329 -0.04130958891275417 0  -0.07228961245920609 -0.04451595184797236 0  -0.07457460472629002 -0.04407313887013855 0  -0.002477606738771768 -0.06237813677610878 0  0.08939978053136061 -0.01905498828796818 0  0.01781358027838639 -0.08439512660321145 0  0.02955474877540306 0.07367952073293767 0  -0.0527817992771048 0.05744226327584526 0  -0.05448588762075104 0.05666791260978538 0  -0.05616342382738448 0.05897620480810647 0  0.07921592473122374 -0.05712644860467865 0  0.04438731370254704 0.04366673582207633 0  0.05408794419109385 0.033418551872401 0  0.01293485991796421 0.07844531408152092 0  -0.04454562805978229 -0.02892786264903726 0  -0.04699773816364383 -0.03052713353335744 0  -0.03063516329078159 0.06024556028219859 0  -0.05728528295535975 -0.02935652060766016 0  -0.02283818446842852 -0.08407881528494618 0  -0.05477062365075282 -0.05200846957008141 0  -0.07037247044251313 -0.01214046462919086 0  -0.07324185229114712 -0.01422146037261725 0  0.06495903317899382 -0.06220185607338777 0  0.02846059837676652 -0.04037116870430575 0  0.01724654719209767 0.07859461699825519 0  -0.03806667542751848 -0.08589157899921522 0  0.08842690636811532 0.03864940032041789 0  0.04131452974690384 0.001431547465173691 0  -0.03278651740169625 0.09270958795436607 0  -0.0009389428573515279 0.07181234215769162 0  0.02351989949166596 0.06090529150840847 0  0.007335140867849047 0.09247932166194169 0  -0.02375107956385697 -0.07615402686011849 0  -0.06137547541713773 -0.0123503254027957 0  -0.06388829180393853 0.06099648419656245 0  0.02141846075829483 -0.05879486845417128 0  0.019937031222632 -0.07082755278652113 0  -0.06010426338806076 -0.001874909657195318 0  0.0004812283916026327 0.08963940181200587 0  0.008787989121612574 -0.06862445531308134 0  0.06066442026835204 -0.01179070882142957 0  0.07740902270859197 0.002857090054077233 0  0.01202108206969951 0.03948997241634568 0  0.07760808333893042 -0.04302067649926562 0  -0.07081998983423107 0.05656666132522796 0  0.03211832886405956 -0.0874595055955301 0  -0.006264427576602367 0.05490673518004126 0  -0.0344636480882522 -0.06043665933822954 0  0.07458011116129669 0.03551297164543425 0  -0.08843073199283995 0.0345861874477533 0  -0.07019321492398391 -0.03725648817642115 0  0.06639012399823511 0.01694689217240288 0  0.06606354211403964 0.01871489738237376 0  -0.09323780377642139 0.005649760992229326 0  -0.03567874152003829 0.03833754468002556 0  -0.06491971353692971 0.04023634624675401 0  0.03979307370910929 0.01257296106567183 0  -0.08456222241932332 0.04471633615801192 0  -0.007035239471881262 0.05944151617590035 0  -0.0442925153153126 -0.03900159124763389 0  -0.002346347871255341 0.09071143315558827 0  0.07204904530496392 -0.05871832983730027 0  -0.09495306117205984 0.0008025025888159581 0  -0.09587278098866768 0.003397395344974641 0  -0.02344789641898359 0.04180201558642339 0  -0.05563355845642808 -0.06087990943718982 0  0.033928287479343 0.03578178706802736 0  -0.04460554718603788 0.05772435897818063 0  -0.05064927546984024 0.08002695795478552 0  0.03273771903271012 -0.09263237230962697 0  -0.02479549413000993 -0.05965259418536627 0  0.05723123944271483 0.07288109757037743 0  -0.09166871562829611 0.001109521453469741 0  -0.09316969345041066 0.0001526598006413912 0  -0.0001094770280719551 0.08579045504107966 0  -0.009293897194545734 0.04840727357427595 0  0.0680532697237711 -0.02679117360521347 0  0.063231643445758 0.004326134335316193 0  0.07887894579282127 -0.04879354290776444 0  -0.08165972190730678 -0.002817232224131684 0  0.0869710049936141 0.04643048453194991 0  0.0505279006672235 0.05995367487239268 0  0.02010979277822622 0.07387569459849368 0  0.02706283741320905 -0.07261515872249422 0  -0.07082290551099542 -0.001690075367500717 0  -0.06983742765248559 -0.05510958741590836 0  0.04597352776245506 -0.01087386139918283 0  0.05564594771232267 -0.06632187748841015 0  -0.0365897619731141 0.05040524667920934 0  0.03108182264062799 -0.06319299688489528 0  0.03661949384387986 0.05865793768722816 0  -0.01263571331010189 0.09603743579170915 0  0.0610545399111492 -0.0409833466651034 0  0.01921642651060333 0.07232844283072457 0  0.03819060051992747 -0.06765187904663877 0  0.03911856816863027 -0.0649287296839136 0  0.06542439369042972 0.004371853448881535 0  0.04278835800122964 0.02339091610468523 0  -0.01523199267059904 -0.07835664176049263 0  -0.0377472778649027 0.02791503878842745 0  -0.05272846793778999 -0.07955128860584598 0  -0.03003913786219641 -0.0288763701058993 0  0.0818185235188444 -0.01428948605034662 0  -0.006236136391023186 -0.07594613817004357 0  -0.0142619423829398 -0.06357138096395699 0  -0.01157888084323673 -0.06114142634446246 0  -0.05716417075870556 -0.01645922076441645 0  -0.02744113469501316 -0.03435586924908365 0  -0.03000009324388426 -0.03324083997607059 0  -0.01867892753480178 0.07708637152471751 0  0.07170093474665633 -0.03904362733969315 0  0.03979856178951965 0.01608121731902255 0  0.02704422692453977 0.06923604450731452 0  0.08346891213620468 -0.01920383637289576 0  0.03543545701820216 0.0562007517487136 0  -0.06523758203777824 -0.05260426633208555 0  0.01032895365648865 0.04378874758962758 0  0.01202878134574271 0.09749393063630946 0  0.04986247637218583 0.05561055261110626 0  -0.05516602097768018 0.07914221181740268 0  -0.02581754687116081 0.06610450461978615 0  -0.02693426414993809 0.06415912419316938 0  -0.02888303998281533 0.08616887802853349 0  0.08333107224268789 0.02744064488322113 0  0.09253894968995051 0.02650913271461398 0  -0.04283159219595774 0.07486976455030937 0  -0.04154251560481256 0.07258363005022497 0  0.002755044284624793 0.05033524238383405 0  0.06951987943875743 -0.03629884744565698 0  0.04585848269991288 0.07899404934116433 0  0.04430613341125923 -0.003133208774873261 0  -0.08520826284998716 -0.004552591088144358 0  0.06257656089595735 0.06769774074966851 0  -0.02302511336462586 0.06478459345635636 0  0.05112483571403362 -0.08119784869359167 0  0.04836096740863769 -0.08282842257070047 0  0.05143456842975354 -0.08375808604447535 0  -0.06768108482522632 -0.02418156886704766 0  0.04628955203817923 -0.07362566890464807 0  -0.04041219720574436 -0.01707441583758442 0  0.08874819321370844 0.01688832266795941 0  0.08827302764689735 0.01449689857010856 0  0.08657887289747637 0.01763086103107105 0  -0.08431784027815499 0.02415298847468253 0  0.08904984481345871 -0.01594333239469709 0  -0.04517500472388129 0.05429670505476236 0  -0.02599736933759855 -0.0823114616544063 0  -0.008496568910607932 0.06066979876821213 0  -0.0106647366796822 0.05922663265693618 0  0.02754219693883758 -0.06361425615498532 0  -0.033381094167746 0.03397125565489394 0  -0.05617250800631248 -0.08046349685237288 0  0.003132951195473052 -0.04451282720649783 0  0.0009238089321275379 -0.04649646920133736 0  0.006403603416664218 -0.07571848342183292 0  0.05883094794249901 0.0001959195808831596 0  -0.06382739481369477 0.02426064005803028 0  0.04733080730684359 0.04254455542041773 0  0.09522937036905642 0.01190955351081745 0  -0.05048478805529848 0.02252350815757831 0  -0.05344006729417938 0.07784529699635601 0  -0.05108260482330643 0.07806950973785726 0  -0.04917692430213183 0.08539609028534396 0  -0.06509713743655124 0.0127260664071293 0  0.02408240988205495 0.04022841253845275 0  -0.00963647298974951 -0.05087127341990236 0  -0.02607723561891667 0.05713756799165758 0  0.01011842215439272 0.09248578015851008 0  0.01254304321951349 0.09361677577579379 0  0.009507619948198119 0.09516825476969783 0  -0.07586238110035599 0.03300611984204993 0  0.08396594830118186 0.02477708951205236 0  -0.03425187109206233 0.04534464024796551 0  -0.01885626144763377 0.05914112960916919 0  -0.09280487473632701 -0.001973343496030819 0  -0.09126198614925234 -0.002844652589534851 0  -0.07402683826134837 -0.01618945435549693 0  -0.07518095052040177 -0.01897768342363668 0  0.05395957551682044 0.02853677089294469 0  0.05167081375180454 0.02813185897198346 0  0.05219820115486025 0.02552198906069561 0  -0.05009230111833539 0.03855251879559439 0  0.01615736109076511 -0.06252870751392507 0  -0.05970896488850208 0.05901805819130988 0  -0.05065682018248051 0.05792425412685671 0  0.08443702304163372 -0.02767412604111136 0  -0.05882209260874763 -0.05770916170701933 0  0.05301593131543549 -0.07367683470937701 0  -0.03004703598796648 0.06190266228817998 0  -0.03812933029575898 0.08492760121611198 0  -0.03704465230273336 0.0865334560029124 0  0.05071690734852601 -0.08617556969233291 0  0.009061866593607261 0.04055781034293003 0  -0.08236006068144072 0.005618882315618287 0  -0.01438567887027679 0.07402919574282504 0  -0.0258632814281769 -0.07893726595688288 0  -0.04137955299929233 -0.0525754350221666 0  0.0670660887486533 -0.05693652121470077 0  0.08344429480436802 0.05269202799378677 0  0.05985076834203798 -0.07484022942428879 0  0.05748004986506991 -0.05016156107214799 0  0.04761807493232029 -0.06681439570887585 0  -0.07629728170393295 0.04459003028131998 0  -0.07777511247684878 0.004258111959152169 0  -0.06112305272852424 -0.06562637915474924 0  -0.07723822018726466 -0.01552845947280318 0  0.04055052309095553 0.04928972617656796 0  0.04018824421612168 0.04566835545270016 0  -0.009933561620884369 -0.09427794054378809 0  -0.04655315987491805 -0.08023823519666688 0  0.09166911204875224 0.02935107310970171 0  0.04629168576370718 -0.06137910104903131 0  0.04461655902434786 -0.06178154950929295 0  -0.006126312112852177 -0.08953753731319632 0  -0.04624198558854752 -0.0210960110103464 0  0.05463308953148988 0.07524078921808081 0  -0.07769011140028247 0.02200777992181537 0  0.03295583689586527 -0.05462040693677419 0  -0.06323253541823876 -0.007403117173556309 0  0.05933632405531929 0.02313882002413311 0  0.02315876038100335 -0.07031322906277564 0  -0.06860052736213199 0.02811042299130117 0  -0.07754253220586552 0.0180757138346781 0  0.01459007997109256 -0.08469566473439259 0  0.01187392980596291 -0.08404732171913999 0  -0.01497695030102048 0.04028682216217589 0  0.002687132317185918 0.0953162685723912 0  -0.07964114312427721 0.001348762459465631 0  -0.03719458395626116 -0.04915952363179672 0  0.0324290180091111 -0.05787254309513574 0  -0.01681282288324355 -0.0924074884214267 0  0.04360251814309014 0.05803468109055584 0  0.0436078373543075 0.05607594627110882 0  0.001224353182877969 -0.08136819915006802 0  -0.08873802481655556 0.03739250351296951 0  -0.01090551040586536 0.04507112296422106 0  -0.01296399217893355 0.04788320984726714 0  -0.01096557546808923 0.04795690420093206 0  0.06167939915258493 -0.04982548995425936 0  0.06046772999007726 0.03896126335178393 0  -0.03213840882146735 0.07598991532179586 0  -0.0285378816911856 0.07651160285974444 0  -0.02963281394925931 0.0779525930863508 0  0.03786475798640637 -0.04073471848175993 0  0.07434307415145544 0.01785612573528511 0  0.06586288119347504 0.001971656288052866 0  -0.03819975298598186 0.02174428371032552 0  -0.05413984585977682 -0.0127145815439047 0  -0.08398859693694642 0.04097363384290568 0  0.001687187341703608 -0.05105774265432851 0  0.07182988328194791 -0.03052656827506202 0  0.01521482530678373 0.05710791243886323 0  0.05011431772914049 -0.001483731818302477 0  0.02621817782990773 -0.08670759448707481 0  0.02460912974241247 -0.08750409429994248 0  0.07395692107768909 0.04952292585065815 0  -0.0507151553282824 -0.04092281948861921 0  0.008712362029444384 0.06990044231264596 0  0.005914738229338854 0.07049860108617621 0  0.02994663502661488 -0.06648967071496667 0  -0.08149988380242422 0.01768339684640375 0  -0.08286028396913116 0.02029457811690032 0  -0.08355803739001878 0.01691373772039893 0  -0.08498631145654278 0.03106609068391339 0  -0.08709883083660422 0.03245809126600339 0  -0.002308586798635659 -0.05472144562794609 0  0.01921926637791751 -0.05627449006876656 0  -0.02030771941643654 -0.04789602190105761 0  0.035781544585996 0.04515131553701222 0  0.02416237694887668 -0.08157915125607375 0  0.01691449800595484 0.07480008265072703 0  -0.02707998771802014 0.08873504389462468 0  0.07937273696827908 -0.04072314224514618 0  0.04356100337210031 0.05141437330864321 0  -0.05602645865376771 0.0319920315249644 0  0.0752082220222194 0.06284502447739436 0  0.05415956131370244 -0.07900362349542969 0  0.06978571371212576 0.02953150261429006 0  0.01310722848028016 -0.07700031192718314 0  0.06572888843819479 -0.02430539882359658 0  -0.03211379062996153 -0.08993053161173767 0  -0.0287740090819128 -0.09114327732305212 0  -0.0503423378026195 -0.04258934099425034 0  -0.03195808569892351 -0.06971769797174064 0  -0.03577785580494597 0.09192699989765084 0  0.06014641070199608 0.03554433228969044 0  -0.07291237771916201 0.01982570540945778 0  0.00447291488706498 -0.06096444102950142 0  0.004049265578936131 -0.05823605633930299 0  0.005720409589357849 -0.05767341473345025 0  -0.06653577482400375 -0.05896783490896598 0  0.06204014146157089 0.01373509430305619 0  -0.09274542200562697 0.01119416658575872 0  -0.09313163664949532 0.01417231043083748 0  -0.09444573529406083 0.01100344621493617 0  0.008712806426166324 -0.05353719518962249 0  -0.02962607702002939 0.05677128987078467 0  -0.02934022200945293 0.05387207311429364 0  -0.03191391128705342 0.05421978396824558 0  0.02581362700104631 0.03511338382263333 0  0.02459899864016281 0.03377065514060698 0  -0.01334154893679567 0.09059316227008926 0  -0.08176688193435468 0.0003196020431817035 0  -0.08295105506089259 -0.001047731372699235 0  0.04908701539624487 -0.03829517286005244 0  -0.0569813174536895 0.07703390574369652 0  0.07596476510675623 -0.04086858483939605 0  0.07754223114599314 -0.03881590611885143 0  -0.01838095577453473 -0.07387493250187728 0  -0.04177572556807818 -0.06492733654809905 0  -0.04599106649095189 -0.05880421264942262 0  -0.04326851617060413 0.08064365834806846 0  0.04427530336736222 -0.02763063588663933 0  -0.09329117123345884 -0.005551456656138505 0  -0.05695258451494468 0.02644258451205737 0  -0.04591791208343193 -0.04654332198739462 0  -0.07508466305920353 0.01955745656784488 0  -0.05443824228228395 0.04931348234732551 0  -0.007111060986460295 -0.06076228171017298 0  -0.009164803206010343 -0.05894305304730137 0  -0.007535735791148842 -0.05734576756093133 0  -0.0393890705232788 -0.0378353544822162 0  0.04964800185144795 -0.006649771507352008 0  -0.04707494161242749 -0.08637933021064792 0  0.01662167404111254 -0.0943714926840438 0  0.01884996341496347 -0.0932022941080885 0  -0.004426518231959121 -0.0563318552134727 0  -0.05822306973966603 0.04736385828564994 0  -0.005650146008074085 0.07499310974608357 0  0.07691842859000961 -0.008843890205397277 0  0.07843778795750314 -0.01044783197114682 0  -0.07857177452263213 -0.04057980390276135 0  -0.07749380275863568 -0.03853364963009136 0  -0.07523011844764356 -0.03997503845873108 0  0.07234561084025579 -0.04842924091601711 0  -8.285238162579738e-06 0.06216276345297642 0  0.003397253824128514 0.06216326203659762 0  0.0603662334450864 0.0285168199346538 0  0.05707606348803618 0.02927940563636119 0  -0.03120286225783244 -0.02762008364251829 0  -0.008326794989431209 0.06726746160262334 0  -0.06368004982096741 0.006648862093345993 0  -0.08754066653657158 0.02534509989803167 0  -0.03848203172436477 -0.02042115729216082 0  -0.05480289066527943 0.0274091583507008 0  -0.06018111954353385 0.04524453797229986 0  0.04761978038924709 0.04809564565739617 0  0.04089604746722079 -0.008138904264904285 0  0.01852020987681947 -0.06515936260919346 0  -0.004697134617242211 0.060964372122528 0  0.04735925162260916 0.06317741985072999 0  -0.04651520861183678 0.04478478540737642 0  0.01864754994668983 0.08167684092189328 0  -0.007057198885113676 0.09375619147296961 0  -0.007799391079090117 0.0921592605574901 0  -0.007330429480531782 -0.04996719543164755 0  0.0820193822498143 0.0328081130843919 0  0.02444919872088018 -0.04691059755817784 0  -0.02756164120230605 0.07366034630153262 0  -0.03056244559032493 0.07179430251715674 0  -0.02867984355423418 0.07104086298697043 0  -0.01967386526449953 -0.06000212792662275 0  0.04122028817087066 0.04425476042400371 0  0.04248867306344439 0.0329569585336208 0  -0.06853627809863022 -0.03884608269480794 0  -0.06955568080745836 -0.04056698642932113 0  -0.07189628294639665 -0.03937458045957351 0  -0.01942310675738779 -0.08323345199744771 0  -0.06632299418306772 -0.001873857949370488 0  0.08211902038202198 -0.02670903139351146 0  -0.09728121987231204 0.01380764589525727 0  0.01941928381157134 0.04885451956446803 0  0.01697956595316107 0.04850618943944558 0  0.01909404381925651 0.05120152042601172 0  0.0697384727175223 -0.05006121285553913 0  -0.08661094540898311 -0.03171945606658799 0  -0.04055207845469032 -0.03230199978993168 0  -0.04498631969772098 -0.03578556230760329 0  -0.04158030594936394 -0.03469416326862529 0  -0.04209643675752818 -0.0369680191376462 0  -0.04378443114110102 -0.03330797063094888 0  0.04340612188597261 -0.07734598098483632 0  0.04263965441853429 -0.0789458073754999 0  -0.007236862637982726 0.05163243303561699 0  -0.01001516157595793 0.05130275685987511 0  -0.05357157908723393 0.04401739053265196 0  -0.01923544231126684 0.07162993276750342 0  0.007484093482340934 -0.09808163134867445 0  0.06372611765500411 -0.01008757893504756 0  0.05475640816306657 -0.05744899399915299 0  -0.07390402890490125 -0.03785369549899524 0  -0.07477831366805011 -0.03458610741860957 0  -0.07611415205399427 -0.03670144557338476 0  -0.01649547001489728 -0.04285820143552525 0  0.07155822290939884 0.04750269574639731 0  -0.01184247667974373 0.060457598501101 0  0.01475877067434473 0.04088437763100837 0  -0.04100688126779593 0.08562025505662908 0  -0.04253614308066046 0.05403712339754894 0  0.03622401763559324 0.07862650030038924 0  0.03731142124275395 0.08092313355729198 0  0.03402319208371846 0.08047664582699643 0  0.03499536584464061 0.0420183783521469 0  0.02478838551454128 0.03136858972426647 0  -0.03528229968577552 0.05434938661222493 0  -0.03716272986261258 0.05728586331523637 0  -0.03700327865095492 0.05459354280383828 0  0.04689172915856385 -0.03610686685657175 0  -0.06611533017620234 0.02150773220432895 0  -0.04023458320678139 0.02983107576663127 0  -0.004075814504715556 0.05781802649892982 0  -0.02062359261713108 -0.06491109316676499 0  -0.00241372580502003 -0.07506984449304689 0  -0.0765356932057777 0.05488010220687925 0  0.04306535524147222 0.04097687178549431 0  -0.03581007610241017 -0.08802290444764517 0  -0.0348223227878058 -0.08956665630348888 0  -0.06238967859695223 0.02587896611287308 0  -0.05910091315894672 0.02509817118921973 0  0.05024253771885794 0.0817632486752055 0  0.06876484479231465 -0.02357304895972341 0  0.01233162944754634 0.07296709836067193 0  -0.03021214818648475 -0.07827479454069211 0  -0.030477382122067 -0.0818526355854222 0  -0.07194841762525676 -0.002967948077006122 0  0.02835232217621676 -0.05413716221468186 0  -0.02318099993388597 -0.05234811751669317 0  -0.052731112708997 0.06718300080675291 0  0.07139281218630995 0.001627080696708782 0  -0.06156807327295193 -0.04685111407445945 0  -0.005750766749335741 -0.05469762800777588 0  0.009244605464638192 0.07595356623537751 0  0.0713870361199629 0.05041256056868694 0  0.001631769010923547 0.0793332206804509 0  -0.005579594099308674 -0.06915138329382926 0  0.03980670938993742 0.003725367800894798 0  -0.0514687800961677 0.02592746090642909 0  -0.09251781162830576 -0.02240111416536636 0  -0.02058382221190829 0.0403069265272142 0  -0.03643669179178082 0.02536239606129042 0  0.04221547165128212 -0.06428155467220573 0  -0.09602707595528984 -0.01869840747957179 0  0.06996983797266472 -0.0327070954839466 0  -0.008880297959054177 0.07399238972679167 0  -0.006697402266053941 0.07262139842505164 0  -0.05299654570882821 -0.07600377220866639 0  -0.05198843395023134 -0.07309716753534032 0  -0.05018678327163945 -0.07528536971355226 0  0.04336334462932348 0.08625203840365202 0  -0.002045966385916854 -0.05112057070625074 0  -0.06888977865893368 -0.0606977840096774 0  0.0843702968900024 -0.04559190212893503 0  0.06482256663859233 -0.007136789719889527 0  0.04325656836578221 -0.05953287365961438 0  0.01850018628945529 -0.07481845748867696 0  0.02142768361914794 0.08905981994508161 0  0.07898050471301155 0.0290260327559968 0  0.02228717181121939 0.05713573448093046 0  0.02081478307034028 0.05411273866138277 0  -0.07731821621820081 0.06076825067412309 0  -0.07623781099653931 0.05823778601331185 0  -0.07417733319059408 0.05979451595191687 0  0.0246625918719102 0.0637931312236497 0  -0.03667787809133487 -0.03620325123249724 0  -0.03592387260466574 -0.03791879389718571 0  -0.05287406891927491 0.04040319570466847 0  -0.01488462383609428 -0.05312071362993498 0  -0.07871160518505878 0.02014458936370748 0  0.04140408503164687 0.01430209476169996 0  0.0431815756386342 0.01312613619757768 0  -0.07845098369233015 -0.02397846585278203 0  0.01051148278798011 -0.06617037542485397 0  0.01184633612537809 0.06227188320952812 0  0.05293290329334575 -0.07028734006397917 0  -0.06196115327741861 -0.01033583093788338 0  -0.09153981717541575 0.01687679914126806 0  -0.004827233721654599 0.09134507639168589 0  0.07110168118331053 0.03562499443679498 0  -0.0616205465566643 0.0317266322483625 0  0.04674471940397933 0.008315826076042695 0  0.02135841702916303 0.05170869368891438 0  0.02371563777354713 0.05241240429779091 0  -0.005865139694538219 0.04428539195358613 0  -0.008287607075395879 0.04304227395290251 0  -0.04314285769259755 0.04495976788185557 0  -0.01597481567090265 0.05744040797516991 0  0.01345456998772652 0.09088347400561604 0  -0.009010575757554437 0.08923306669498436 0  -0.05241615276928217 -0.02045248777027241 0  -0.02769141697443337 -0.08789505789160848 0  0.03698220043893632 -0.07932534734414902 0  0.03537777310494216 -0.07772351158849258 0  -0.05898923571117068 0.01327956333626214 0  -0.05072881941223824 0.001541507319837991 0  -0.01548518256460795 0.05478472707103315 0  0.01496360818194464 -0.08265112844432031 0  0.06457286286344181 0.02517453696386204 0  0.06528758597880005 0.02811612657944262 0  0.05977483008580893 0.06162049686957864 0  0.06110617367131015 0.06280274239172307 0  0.05980430714795518 0.05989805275208162 0  0.07361099327923944 -0.06159828677317394 0  0.05345145541776802 0.04403792344280542 0  0.009649849116709852 -0.0459081748534324 0  0.008563904913758753 -0.04797617394868927 0  0.01125764382661362 -0.08676104310097325 0  -0.04591395440791473 0.01947312338898299 0  -0.04345527678060154 0.01982833406978086 0  -0.0431260305726811 0.01752534453565853 0  0.08564516708674842 -0.03726509740398545 0  0.080826421722367 -0.00959504864600742 0  -0.0422005371596995 -0.04724311440940515 0  -0.04060403663414504 -0.04920848400902104 0  -0.04396330944699785 -0.04915542957311857 0  0.09029795192360296 0.00213112423841019 0  0.05812943337431471 0.06977516485510118 0  0.0511051186654651 0.03085193226634238 0  -0.03509395005828812 -0.02591193596580015 0  0.06590220636528422 0.07349956884014433 0  -0.01984557504794562 -0.04259705146522379 0  0.01891400771864591 -0.08974055004568451 0  0.05077409011725425 0.02264217552754095 0  -0.0412277893185215 0.02035929980423996 0  0.02607266726722959 0.04566578548917963 0  0.003530014761599742 0.06972596723155244 0  0.000320672118471478 0.07038700934560942 0  0.002744203222586783 0.07192215653268427 0  -0.06714725386697389 -0.0671481012087754 0  0.07491072592257188 -0.03455890771239408 0  -0.06581934649290819 0.04396028693761279 0  -0.0552909220584016 -0.04406478409846263 0  -0.05364711573460013 -0.04274528341519377 0  0.03797802047493209 -0.0205279400140788 0  0.06912177551519672 0.05385858681334526 0  -0.05829101059772263 -0.04762839475280422 0  -0.01665970514170133 0.08328445494944782 0  0.05309385584461956 -0.03486237524677319 0  0.05001512130926555 -0.03498557100182215 0  0.05054515280688935 -0.03264632244834573 0  0.0458605541894399 0.04696719398538275 0  0.04805660535819491 0.04478191446545288 0  0.04367896635949791 0.02670102334014289 0  -0.01232168115628996 0.0713045706827494 0  -0.01619947621583107 -0.03835853798387245 0  -0.06736571610647536 -0.0191266947451284 0  0.07385353520770621 0.003626620112365021 0  0.07375195598559391 0.006726472719806417 0  0.001240182095663622 -0.07963869801215662 0  -0.002513137948647463 -0.08544364560548921 0  -0.0001843004633970834 -0.08698073747932096 0  -0.002809323552893662 -0.08858770327932869 0  -0.03198396702584753 0.0804078816221838 0  0.02301053681827643 0.07631577732664188 0  -0.08692709423839938 -0.02673688087720908 0  0.00643654949790968 -0.08625800864681478 0  -0.08522475582186032 -0.03731892234090762 0  -0.08427908362268154 -0.03428106780209431 0  -0.07347856554650893 0.05432836523652296 0  -0.04175872540607291 -0.02851497635931174 0  -0.06748384750249856 0.04690514109083597 0  0.01070207858787091 0.07737376872777577 0  0.01761107303593906 -0.06947108646740185 0  0.07930628217637206 -0.02281227730887563 0  -0.05161786906745106 0.04352657546065128 0  0.0026386160274199 -0.0877966689190801 0  -0.01476774416937687 -0.04481925960160525 0  -0.01780530250426635 -0.04552871192270446 0  -0.05519553812512239 0.07571883647679319 0  -0.003020730524589601 0.06997114981587557 0  -0.006240089896456922 0.06920869658942298 0  0.09670176587682075 -0.002583105869618668 0  0.02934798211884547 0.05494170705968369 0  -0.05074375353775757 0.009952809127965357 0  -0.05586212420279634 0.02420574066683984 0  -0.05271680941141315 0.02286950196766166 0  -0.05381091123730958 0.02517664256594476 0  -0.02491628276872014 0.048284007456064 0  -0.03949733700112606 0.07428226777663384 0  0.02689317809027334 0.06063665728680034 0  -0.06206858236017909 -0.05151258935096683 0  -0.06259272358707217 -0.05387594414508425 0  -0.01171558597657655 -0.05188446784819706 0  -0.04816235658509184 -0.004801552623493745 0  -0.02786696133098927 0.05916327409672815 0  -0.04200360920905084 0.04964988119221694 0  0.04555026445689116 0.03432111149204235 0  0.08404712936868237 -0.0489939647865262 0  0.04819820447233654 0.08044992995932874 0  -0.07401977377942276 -0.002449270798615937 0  0.06000343565881224 -0.07824955394380274 0  -0.05370554648434839 -0.009308467354342898 0  -0.05364859288947232 -0.005980804791135373 0  0.05813534706722095 -0.07974733004653253 0  -0.04270565259263918 0.0272434077993971 0  0.08816309026659976 -0.003635033292168319 0  -0.04916747000926262 0.01735936360285865 0  -0.06549925362761445 -0.004895373219440056 0  -0.008428315130617306 0.08354796088204776 0  -0.007625444938451981 0.0850958361748522 0  0.05032962462575429 0.03642183278432122 0  0.03663434393093885 0.0707738232330887 0  0.03767330350346672 0.06877662481867684 0  0.03442670624729989 0.06887088601437713 0  -0.01806993032878272 0.05149167447784623 0  -0.05413285636734231 -0.0221119178941196 0  0.01777097879600557 -0.08080566941163997 0  -0.04025694570310152 0.04663863845124111 0  0.06023161532738455 -0.04274929597923069 0  -0.02914852662699801 0.03288388994645975 0  -0.0279629213172342 0.03103522312010835 0  -0.02939693624210628 0.02949965419110755 0  0.01551826295136144 0.08311620686367729 0  0.0223055547371615 0.04484715633088414 0  0.02279026094065386 -0.03284899517433955 0  0.02451961756300239 -0.03381091027406314 0  0.04900194517142292 0.02604319548644828 0  0.01285820202860534 -0.06339151170134313 0  0.08237125662122903 0.04974989497723538 0  0.06063010814613105 0.006635754845831216 0  0.07514979696328818 -0.03119510222805945 0  0.07666905727814595 -0.03315998389215277 0  -0.01349704104936018 -0.08373026176267211 0  -0.03851224355314261 0.04395305342966673 0  -0.03801033420001849 0.0470547454665804 0  -0.04040594758944508 0.04478212896358516 0  0.05100789237384813 0.07340074371463311 0  0.07282042832157726 -0.0665609558420461 0  -0.06026480283502 0.02707978032137158 0  -0.03058558728490644 0.0683503470177626 0  0.0741848332031104 -0.04281243215351162 0  0.07216479731581854 -0.04187266733858778 0  -0.03133160489928757 0.05704044363132072 0  0.06035331676310075 0.01802030236451372 0  0.07869888045373893 -0.03146776545709359 0  -0.01282682322837286 -0.03786720327110189 0  0.07285887432920349 0.06522868661644116 0  0.05243851715993129 -0.04650000504858071 0  0.05084011275592733 -0.04592352456092606 0  0.07688394804142346 -0.05216204466215468 0  0.09817815504164319 0.004899041063465916 0  -0.06491478236009537 0.02975411735751797 0  -0.08648450830265919 -0.01162655561901027 0  -0.07267066913580565 0.0427444600790997 0  -0.03732244604777067 -0.07365396130477521 0  0.0409880137258119 -0.07912636026239965 0  0.09433656690208314 -0.03315185738274536 0  0.009962163315740151 0.06267836910569279 0  0.03005397636907708 -0.07519962152857554 0  0.009085419525644267 0.05500183437726877 0  0.007760185692115013 0.0578079291812018 0  0.006250332535642033 0.05691137271422213 0  0.01543359907202285 0.06071185486118965 0  -0.03280067117576214 0.09041577210313499 0  -0.08346790346003896 -0.04515393850799874 0  0.007047962507971512 -0.04904114382785652 0  0.004829967878520778 -0.05029763392173851 0  0.05167390307128096 -0.03980220143631025 0  -0.07814007447933881 -0.05996179338045854 0  0.06709566286866295 0.06461421188553346 0  -0.0348124093190221 0.07627856504028882 0  -0.03701710242165675 0.07503862320655097 0  0.03065581902048517 0.03651960631792654 0  -0.05351773673977733 0.01735117298663925 0  -0.05511396830701859 -0.03468226081415589 0  -0.02303685973972271 -0.08723416697114313 0  0.01645221713771284 -0.08734096593195097 0  0.01860351608109229 -0.08753459627628699 0  -0.01979375696627414 -0.06341247199065744 0  0.06403940270885074 0.05218535794344747 0  0.01624149355161184 0.06385127156718677 0  0.04069305211953647 0.06951444893013177 0  0.07802799334700138 0.03555589468883882 0  -0.03504468849934711 -0.07119737107555348 0  -0.07087766910877871 0.06024822711925959 0  0.006821090600519401 0.09692795165589357 0  -0.09802516933357948 0.008155514393293499 0  -0.01422853589790979 0.07159226903185895 0  0.02838747559967408 0.07051588803367485 0  0.03099573996734129 0.07171142594082434 0  -0.04788669169587424 -0.05782637281462661 0  -0.04652643046993934 -0.06059550651063308 0  0.01947452002747775 0.06432531655534247 0  0.008508400306478788 0.05021572989593966 0  -0.07213989703016896 -0.03572157487176202 0  0.06293217728878267 -0.06818040245571086 0  0.07636193720940461 -0.04419733724219027 0  0.08907019309728582 0.008366146510622587 0  0.04643509378617908 -0.07903710035428185 0  -0.08091259088805788 -0.02553040385238407 0  -0.06044113248133106 -0.05807280953950624 0  -0.08329900054436132 -0.01216227521141861 0  0.05203679863638055 0.02019607375421635 0  -0.04661356781343221 0.08068429243968206 0  -0.06383988005876756 0.05382813674802719 0  0.03432438271246036 0.05097845683775261 0  -0.00435292089434096 -0.04622236071196838 0  -0.002369236905993597 -0.04766367902835139 0  -0.003946035149611359 -0.04958024612682219 0  -0.08309508314590881 0.03671954829524307 0  -0.03032466645235788 -0.07238814621807993 0  0.02618049336603073 0.0550229083847153 0  -0.05010632193465651 0.007643688859259016 0  -0.006595812080296888 -0.04369350635372705 0  -0.09547465730928256 0.02293986862002635 0  0.06083670960228311 0.01243571752117184 0  -0.03806509942126463 0.07727740684138998 0  -0.04785283610570374 0.07774888531512586 0  -0.007994516483892914 0.05396817527520764 0  0.05465843873170126 -0.07713188523121037 0  -0.05412558916427768 -0.07864824835637035 0  0.08597754295173093 -0.0296673252573382 0  0.0581572950570891 -0.03346791549332004 0  0.07060285826558264 0.06002171605942432 0  -0.08056566541223036 -0.04596322203120781 0  0.01108391390806888 0.07047565996729278 0  -0.0481765063913082 -0.07764972785240888 0  0.01591630513993181 -0.05566723568461523 0  0.01408334295297611 -0.05381636889965737 0  0.06185192798719345 0.04049613208766749 0  -0.06971764084924301 -0.06734064827941502 0  0.06217771081748815 0.02764380340521555 0  0.03964400446406152 -0.03517699711941532 0  0.04179343646329941 -0.03767845167485628 0  -0.04258544087797893 0.03042616262411952 0  -0.03960561240427601 0.03202625728076266 0  0.05146890141661673 -0.02852338190821486 0  -0.03897644123551312 0.06548861477095602 0  0.05262240268792762 0.04105017642643907 0  0.02654577506400876 0.04085280764014212 0  -0.02109886414430431 0.04980907978072844 0  0.01212066346680708 -0.07857456614579778 0  0.04138975982009475 0.004237397599382006 0  0.01936366047256552 0.05890240390582528 0  0.01727359406364381 0.06068719901349244 0  0.02043682446053032 0.06167907120357573 0  0.05752597076243542 0.07711467301961521 0  0.03775225597810979 -0.07606224942979002 0  -0.08247364786056401 0.04544394462686938 0  -0.03874920721924663 -0.009846391094546268 0  -0.04783963046372798 0.03268282237121757 0  -0.04905560964011078 0.03053566937667703 0  0.001118833561234303 -0.06720844510978641 0  0.000123663677227832 -0.06914369290305222 0  0.003377879523100136 -0.06890132397939626 0  0.004770000207430627 -0.05497715746822459 0  0.003249770733558201 -0.05294389412734455 0  -0.04764693334685398 -0.006540412232011982 0  0.0536959011588564 -0.04481578376863865 0  0.05159323538180493 -0.04308657312719745 0  -0.06125256594279423 0.07538610620296959 0  0.08292268594536421 -0.04411425412539154 0  0.005212182032780935 0.08594237439743042 0  0.006151656390349201 0.08454151515962263 0  0.08626679882706893 0.009640573372027625 0  0.07002130279590164 -0.00482668428456504 0  -0.06233219957643141 0.02134065167930826 0  0.05301883211418359 -0.01213874593339979 0  -0.06698589899560388 0.04153948239515819 0  0.06049661678607615 0.05653966253817121 0  -0.07225690294864617 0.01831820008762259 0  -0.08375799645887859 -0.04222402716814899 0  0.04202268559411005 -0.03557573911948719 0  -0.0718409062972927 -0.02733907690506729 0  0.03433699277152467 0.03377333304874405 0  0.03139995021556206 0.03425930839904959 0  0.02953406312384718 -0.08279780541010953 0  0.02630988141313515 0.07467882214699713 0  0.04462738446064972 0.06892790902483747 0  0.04315532978133779 0.06606651351580976 0  0.04601888309997058 0.06782670875679934 0  -0.06692693598130341 0.02944852769200696 0  -0.04996285929208386 -0.04807368272720517 0  0.0653427265861883 -0.05281854758962144 0  0.06500463894277056 -0.05537038774699096 0  0.06284694867479935 -0.05290657699596119 0  0.03363517278437193 0.06397007467590829 0  0.09867142939329235 -0.01619822596093842 0  -0.03923871542124851 0.04094217713663283 0  0.07645016936224855 -0.02986628274483461 0  -0.07369350208723721 0.02753444197637503 0  0.02749606683435492 -0.06675330693051186 0  -0.02315387005221769 -0.05959027759195017 0  0.0467281087802602 0.05637365478363221 0  0.07520785072523699 0.03704149316297101 0  -0.07478133724166147 -0.06637910140357425 0  -0.007975620047586637 0.07067067902423686 0  -0.0180844219064315 -0.04892990259164426 0  -0.05879926687932868 -0.01004321759199466 0  -0.05766239684916022 -0.008760500553130856 0  -0.05554460278457998 -0.01099464411538722 0  -0.02867555931769476 -0.07281144845051815 0  0.04407110557107285 -0.06333317040155412 0  -0.01035428679424007 -0.07105705420465534 0  0.06521681794802782 -0.04371526634873229 0  -0.04165466006407213 0.001221922092798738 0  -0.04370734048524363 0.002147289996260026 0  0.08783026264912711 -0.02812815230954903 0  0.001809813494500331 -0.08985928927617248 0  -0.0009022451289372388 -0.0905219497820208 0  -0.07684301863996905 -0.05477247691549311 0  0.07399491543882201 0.01980908350767151 0  0.07219059731531674 0.003694636234829123 0  0.04828822166765972 -0.01337487964778638 0  -0.0881731439541428 -0.002849947893822413 0  0.06033620410980363 -0.004712517439092932 0  0.0456986328728592 -0.04558979368964362 0  -0.06405006657855335 0.002280142697793641 0  -0.07363636083191855 -0.02978018589912495 0  0.0444037119674966 -0.03568665278006275 0  0.01831288138876816 0.08357759662758737 0  -0.02325977255478195 0.07450806137933577 0  -0.06650027180407148 -0.05579630371256032 0  -0.03161712381031469 -0.08323622817732307 0  0.08169264538027246 0.0275012012042079 0  -0.09296761205206347 0.02532230944746497 0  -0.07844006720161228 -0.01247769429615009 0  -0.04488913069815701 -0.07795272464800983 0  -0.08451061740625586 0.008360110167976696 0  -0.08291688185165516 0.00777394254520797 0  -0.01003294586159365 0.09472132390324889 0  -0.01007088482742995 0.09761716176700079 0  -0.07062569675362897 0.04512138124612711 0  0.06191540350246892 -0.03790175014578332 0  0.0213562253969301 0.06486519810343459 0  -0.06172868849546018 0.01137132229027555 0  0.01032857186379105 -0.05570156568818636 0  0.09489403625483096 0.0006469128894022334 0  0.0004690082303781146 0.09220365697299797 0  -0.03436770177200203 0.04858616922962405 0  0.03452016210114092 0.02016955344616804 0  0.07346929530955464 -0.01572941847905342 0  -0.01540799323706528 -0.07489286826415512 0  0.02847900912994028 0.07604801725551977 0  0.05875830200390023 0.07129514816116288 0  -0.04526640129242513 -0.01028088406007019 0  0.07905712542024218 -0.002402988587881066 0  0.08089053215410784 -0.0005987000807796238 0  -0.02307349115001143 -0.04621403686346762 0  0.009574213449082864 -0.0833023038989812 0  -0.06117426322553689 -0.05953952407425026 0  -0.06844702743681269 -0.01474659335408543 0  0.08482596440601786 -0.04223336289356261 0  -0.07037029865292421 0.02119205783721672 0  0.08044590471791335 0.05103834020485697 0  -0.004852257642339135 -0.08101925459314556 0  -0.04228745549690715 -0.07272583248845543 0  -0.03915412491850603 -0.08460493130049035 0  -0.01503050519294455 -0.09013946478603437 0  -0.08593666786810467 -0.01008893164602404 0  0.0489314762924395 0.0681537319170463 0  0.0549045536269656 -0.07189796530169634 0  -0.05359056062091448 0.04580399354505282 0  -0.02426155473422747 -0.043300233312597 0  -0.02752561939541764 -0.04993672898532001 0  -0.08574883867539976 -0.04279785528049907 0  -0.08810265845101144 -0.04370215598409059 0  -0.0605857115703486 -0.03512018173885654 0  -0.01488289596244194 -0.09505730694387907 0  -0.06165819482470059 0.04605222528164618 0  0.01755676237674821 0.07241532048313253 0  0.01497859374304275 -0.09155797279389184 0  0.003795959498673255 0.04335904295112086 0  -0.01802778477628264 0.09657024010562626 0  -0.02948325076919973 -0.07556850022891859 0  0.002902712315524474 0.06622145822499426 0  0.03612126599511057 -0.04802970716089087 0  -0.05818023579710628 -0.03978323815254819 0  0.01891960839909778 0.08973000140462596 0  -0.05093100642887299 -0.05126028027813258 0  0.03860426524849119 0.05742384303250852 0  -0.06079215270810993 0.002785593601049759 0  -0.03827603987341242 -0.08946255340705195 0  0.05170631669264027 0.0699433547377022 0  0.03770963898849612 0.0882984186214474 0  0.02155725106018353 -0.07576140808441557 0  0.01975974290823294 -0.07793692646786264 0  -0.0450409871208974 0.01283016274941493 0  0.07448418261924244 -0.01096214337473764 0  0.05759362171109094 0.02718886791777341 0  0.06621741896656995 0.03489261517418512 0  0.06505273202117788 0.03369209323974874 0  0.05110595319001838 0.04609431009368477 0  -0.02729194040577138 0.06142047717124807 0  0.05993374210826395 -0.01515956035273571 0  0.05856487705889445 -0.03734772529757308 0  0.05765556917708674 0.02010521210684177 0  -0.02113207367353364 -0.0821974561322298 0  -0.04720068825154383 0.05445623810907384 0  0.01773343625150193 -0.07268766638301291 0  -0.0605143044105671 -0.06102682024074814 0  -0.06147189726855502 -0.06246706044445239 0  -0.01615209895232423 0.07424298956967282 0  -0.03671309150010833 0.03648729722250354 0  -0.0370929609837124 0.03370671485676534 0  -0.01842810336185285 0.08808567797353796 0  0.00888595505656027 0.06085816837635105 0  0.006711241371628799 0.06280660880992889 0  -0.06814605340212784 0.06456300556291394 0  -0.03363937805917319 0.03236592301076743 0  0.08291467080285442 -0.02836164076523249 0  0.02964492677033703 -0.0785177322887924 0  0.0185848080309623 0.09621388363203309 0  0.04256499854430697 -0.007920108286871539 0  0.08026249643917954 -0.01271784837691799 0  -0.0560071038997364 -0.0828350035646841 0  -0.009293670893370088 0.04527280823961782 0  -0.04225110866208634 -0.0581431913733365 0  -0.039210587230259 -0.05825833021306824 0  0.05776902818051343 -0.01665809326385797 0  0.06450820154622686 0.02176231860004664 0  0.09761871390118665 0.009843621445520824 0  0.06051952648841845 -0.04866917599984572 0  -0.02833707723300541 -0.08379721257813544 0  -0.02557953494231323 -0.08523998029192023 0  -0.07509253293318516 -0.05852057747587105 0  0.05446798161705167 0.07984472545204309 0  0.09358811138640498 0.006332106590075744 0  0.004441436473605441 0.06738615923018593 0  0.02891518258572079 0.04361870122388793 0  0.09255930124477624 0.03783132638271965 0  0.06329769614935694 0.03408744222575293 0  0.08089481535343424 -0.0387776861361385 0  0.06363764359707419 0.04579253623429156 0  0.06117315887744867 0.0443730354291633 0  0.06066108428559076 0.04674612885972508 0  -0.04709826442323493 0.02810141933130324 0  0.003226178619854157 -0.09520748357276476 0  -0.01226758969704013 -0.05880752341456511 0  -0.04687163344929954 -0.01178702214594771 0  0.06562240931175606 -0.01035831748286995 0  -0.01345391652700062 0.04292373231931342 0  0.09215535014750886 0.02444766961608884 0  0.09524701681453691 0.02476232427906955 0  0.09477730358268613 0.02642218997280748 0  -0.07497617670223732 -0.06034504412183207 0  0.01462116277689737 0.0738710761407277 0  0.08962183753632569 -0.006295323659821739 0  -0.02590435319015845 0.07420396556259981 0  -0.02308420056780181 0.07256425449369368 0  -0.02461065084526628 0.0717221099137923 0  0.01129835290820413 0.04098911001468097 0  0.05136028691647376 0.07957056432711397 0  0.05693543469989878 -0.07721838626549131 0  0.03508151553276975 0.08940726426043559 0  -0.06322233867366409 0.06753206744598222 0  -0.02449886155502247 -0.03592232365677637 0  0.009427087946220327 -0.04309732119075096 0  0.04043988069032387 -0.01025114169023285 0  -0.06997037791681487 -0.02014104500691459 0  0.03599835021638496 0.03340995358363553 0  0.07291322346312133 -0.000217520613176669 0  -0.07074808688797159 -0.05809676887989975 0  0.006296867404725766 0.0451147348617855 0  -0.06855887620936146 0.05798471140131129 0  -0.02962059472863026 0.08102556375867799 0  -0.02891215998749705 0.07953066335314973 0  -0.02623923859878519 0.08098414242833971 0  -0.02776894399493134 0.0828883110026039 0  0.03240425023467965 -0.05150230409802066 0  -0.04370457662938775 -0.001015261707494127 0  -0.01654157792982471 0.07142787845916392 0  -0.05754261979163131 -0.01890431496954741 0  0.03885202520005545 -0.01490769180029587 0  0.07560627918706644 -0.06543794044959286 0  -0.09560358217718753 0.0246105800103308 0  -0.03467167478357742 -0.07453116047310102 0  0.05073703105585387 -0.0125445013348344 0  0.006990726440793159 -0.05959287020206397 0  0.05975954507345353 0.01574011321426167 0  0.06544417904174876 0.008939551587917448 0  0.04138468741634962 -0.06748516818617206 0  -0.08739007380054747 0.0235161118116947 0  -0.01330814351359267 0.08374534630533213 0  0.04973442192215909 -0.05163889445755803 0  0.03417334460291492 0.08806820483431037 0  0.08067887033936398 0.02623681227462369 0  0.06650356636600317 -0.01636015947229254 0  -0.01175213460334184 -0.06383290555032121 0  0.08558090664611791 -0.02646059216198543 0  0.04890249708959748 0.04704270112022441 0  0.06808924205390664 -0.04515798847611599 0  0.06277403379748173 0.06212912637091317 0  0.08375022063044191 -0.01109093137039132 0  -0.03888471287909068 0.0202845767162854 0  -0.009045941565501758 0.08651047933022449 0  -0.01098282338368951 0.08375368528606926 0  -0.04136142372763774 0.02229287898382848 0  0.02817173052633631 -0.09430016765220181 0  0.08411331737474988 -0.03904879176557605 0  0.03545726217365959 0.03665846256522941 0  -0.003105850809457842 0.03985983151565327 0  -0.002315779109141935 0.04164657271635163 0  -0.0108641560785231 0.0859643872899824 0  0.004951129341141678 -0.06437370429596136 0  0.0051562983989587 -0.06750685279564654 0  0.05239028543504352 0.004767604086710302 0  0.02252399683172533 0.08355398853684108 0  0.07073716884669631 0.004826735667728075 0  0.08030281123784905 -0.05958097020102544 0  -0.02404537283229692 0.0874359321206661 0  0.07659376148330151 0.04772002630070681 0  -0.08347328251466193 0.0275345928792425 0  -0.08510734279919047 0.02719452598537197 0  0.06090791327363446 -0.07297271148095778 0  -0.04840045295708591 -0.03264162964665021 0  -0.05039982645389123 -0.03486636090428792 0  -0.005735967905524634 0.08600362468950702 0  0.03231605320049305 -0.06588351707236061 0  0.06845782239990254 0.05980048864519204 0  0.07084236924348844 0.02751102272409498 0  0.04690580453576142 -0.08444728013790725 0  0.05839203579163819 0.03033037423180939 0  -0.05160917845222832 0.06483505938167787 0  -0.04935014167998503 0.06536056392376643 0  -0.05032402356992526 0.06780521355112466 0  -0.07398889036306951 0.03149169626102821 0  0.02713390400200913 0.07252387909385233 0  -0.0988664373141659 -0.0149619876888467 0  -0.09743751934742945 -0.01389795145102522 0  -0.09713846922530443 -0.01563423487205468 0  0.09695103009835265 0.01676614716730739 0  0.0006257621661996793 -0.09999020914323786 0  -0.0004245589151350592 -0.09833971871047628 0  0.001105475891167759 -0.09548372490794139 0  0.06969268559498819 -0.06892482480017266 0  0.01915363447089108 0.06735122699462806 0  0.0216789583922226 0.06803574765845982 0  -0.0009855395632203164 0.05256208101082747 0  -0.07955080713710681 0.06058137161398654 0  -0.05534409074784435 0.006720047664039215 0  -0.03722774604904451 0.01457900551528555 0  -0.03935910051095036 0.0142030996041462 0  -0.04091353926954201 0.01498138987634169 0  -0.03930328804444955 0.01251059733864351 0  -0.04392129705935246 0.02412403610693158 0  -0.04400731577418297 0.0221500316602119 0  0.02782257108093375 -0.07726644173031529 0  0.0637825704639747 0.06499802359309215 0  0.035049660021318 0.07045705772678849 0  0.002486255550648268 -0.04601457494068624 0  0.01521871501880725 -0.04530739555824396 0  -0.03696924112897101 0.0713179233099932 0  -0.03944781453981562 0.08794047415327277 0  0.01261035476383281 -0.06616871591311196 0  -0.00848848203626091 -0.07053949833074515 0  -0.01132103500304581 -0.06883864500796254 0  -0.008606568922081372 -0.06835301559905076 0  0.05436999645919256 -0.04905622244149387 0  -0.03611581580792423 0.03498946122286126 0  0.01552307082281158 -0.05913486612010125 0  0.005874132003650559 -0.0419664454767884 0  0.09441126880541842 -0.01072699675034627 0  0.009166964424509936 0.05694808638894577 0  -0.04930443469655758 -0.06487496019313682 0  0.0009745108014001568 0.04232305273310851 0  0.06216490738787567 0.000212404973054266 0  0.06009239494738485 -0.001441822835490621 0  0.061101936931571 0.001686468083576419 0  -0.0522837683495745 -0.05879705722803833 0  -0.03888067156889781 0.03891200617580072 0  0.05249350122349312 0.03385371335550343 0  -0.04994472593925774 0.05276379238261261 0  -0.05076465950539148 0.05067822731871327 0  -0.0529033655677192 0.05146031224412109 0  -0.01427392965873333 -0.07611334831598827 0  0.09220247397824187 0.01954204799190937 0  -0.06041240577051257 -0.04894021616310718 0  -0.01701619022934197 -0.07504596366937219 0  0.06728206829594402 0.01978252997405995 0  -0.09391424977676477 -0.03432997511890352 0  -0.0927296431294873 -0.0329947343265727 0  -0.09219919680065426 -0.03453141777422253 0  -0.03735154632899481 -0.0875488062740396 0  0.06293186378544613 -0.05512573982005141 0  0.07955733851987883 0.03288292637826899 0  0.07924538084186829 0.03062963194901104 0  0.08194326788949384 0.03062313085853486 0  0.08991611793996954 -0.02912276259193015 0  -0.05208389611656819 -0.03395634990820474 0  -0.03064174559420545 -0.06698156488928501 0  0.04282287166275898 -0.05263275087893145 0  -0.06284944086074683 0.003670991359770488 0  -0.01710108916323291 0.06145926037123137 0  0.05062411709160067 0.03352103274936136 0  0.06544418976909951 -0.03192501032327171 0  -0.03641866048318582 0.05886563580467553 0  -0.05797702578409437 -0.002483043816989498 0  -0.07917663056084238 0.02934273928469844 0  -0.05729344040128534 -0.04993075874062097 0  -0.07890194462371881 0.03122795637788312 0  0.04786422043060319 -0.06413095490415023 0  -0.09535935036078923 0.007836871406442365 0  0.06967924991443447 -0.02713156177678237 0  -0.06365335129897029 0.02225673260953941 0  -0.04345992310083695 0.004038515131297962 0  0.03948072615994917 0.08470277999474264 0  -0.06444972358354628 -0.02177393148327546 0  0.01774569984448125 0.05879508745629879 0  0.009002255069462284 0.04692353521966417 0  0.01005997125796579 0.04894961268036746 0  0.04952570736035368 -0.06039167733549884 0  0.05197577695728149 -0.06032566777175331 0  0.05176385059949486 -0.06278171885308845 0  -0.02285592461000791 -0.04416640106469661 0  -0.01725173782731796 -0.06438229522895217 0  -0.06351318677538362 -0.002380237813308564 0  -0.06505220114137805 -0.002871202929359468 0  0.02687252594684282 0.06611156307059801 0  0.02764751888980275 -0.0612796634784048 0  -0.08414557708718423 -0.009660045200468537 0  -0.08303916255731447 -0.007168944898689987 0  0.02333217884988196 -0.09205111455685183 0  0.07821776601003021 0.04593476826465508 0  0.01912966354110268 0.03815908158518509 0  0.0553731307540754 -0.02546099286969421 0  -0.04980325039448393 -0.07813135782960638 0  -0.09274683861031849 0.02301028605950375 0  -0.03678809017805886 -0.06327991396972922 0  0.007621695297164349 0.09011034881685555 0  -0.09430440368340499 -0.01071766683989938 0  -0.09241105330407207 -0.01060023758801115 0  -0.04597234656492469 0.04241363693768165 0  0.03430879629403673 -0.08473385277621096 0  0.03650573614223689 -0.08242701764594021 0  0.006007662139995986 -0.09167753280869119 0  -0.003016259135935087 0.05464514334256557 0  -0.05108711177050555 0.031501902261467 0  -0.04062234963073683 0.08140141943984626 0  0.005777892337172747 -0.07051332017092675 0  0.007263660396960224 -0.07333764955851256 0  0.05210930872865963 -0.05559266259272394 0  0.05654081756188035 -0.07006557133822 0  0.00430633336888058 0.07739233404125896 0  0.006383527149634506 0.07479996869406134 0  0.004740040524461975 0.07446397603573768 0  0.04880913807648703 0.02938443671016149 0  0.06906892224293226 0.04571458988319835 0  0.03583221175035387 0.03084002810400365 0  -0.00385492907120777 -0.05278025826946176 0  0.01764335282719163 -0.04725358842662057 0  0.01083213801200986 -0.05250940100104392 0  0.009972424020886926 -0.05047970404155367 0  -0.07332802864339916 -0.01262900801598564 0  0.07880690625036164 0.0065479666168856 0  0.07783422986980452 0.009757599878084191 0  0.07681379431965908 0.008041219910260156 0  -0.02686433635432842 -0.06452345207451173 0  0.03996131194267188 -0.001243392748629604 0  0.04156722872672709 -0.0005083152964087962 0  -0.01266236619365806 -0.07174148207321575 0  -0.01513924803174561 -0.07266071994487974 0  -0.01339840262499003 -0.06994121920351069 0  0.06763830953980268 0.05636504329107629 0  -0.08352246973408538 -0.01554702653893441 0  -0.04527868379642283 -0.04367751278822399 0  -0.02657043531166371 0.09192487294732335 0  0.06553884171266348 -0.003825031133455658 0  0.05194976179345633 0.01356213736180519 0  0.07203443028684713 -0.003308376721810035 0  0.03910813964726678 -0.08223481401970849 0  0.02593965282934821 -0.05695842842506089 0  -0.02768292772688095 -0.09445235429654124 0  0.0584407769391169 -0.01028549307707029 0  0.05746086761814525 -0.007211189597681798 0  0.05911405339728579 -0.007661066038076543 0  0.03956124564160726 -0.04356746063863645 0  0.08264508790216506 -0.04078277504408702 0  0.04357480050565923 -0.08619767087962361 0  0.08981377462875116 -0.04028988434541873 0  0.09049705441737288 -0.03872240142833174 0  0.0873121893098197 -0.03906771321021643 0  0.09122444274799318 -0.003089264685621294 0  0.0899638160750869 -0.001073984005218787 0  -0.02575195375353857 0.03058250080654763 0  -0.01996524344933601 0.09420074984759857 0  -0.04435415804245947 -0.0417817571937492 0  -0.04271629506241523 -0.04201552983970117 0  0.03465580516187641 -0.0720925090959454 0  -0.05179854060314934 0.07028755504828609 0  -0.05779531852152693 -0.03444603331234043 0  0.04689456045526204 0.08236757868016706 0  -0.07299784272988942 0.01148011511111127 0  0.04175936145313033 0.02465191370745118 0  -0.0775645106740022 0.001512175502390815 0  -0.04769124569002769 -0.07054106088322136 0  -0.04696159215310697 -0.07207717444735397 0  0.0180469491100962 -0.04505970922676151 0  0.07317749341608308 0.02624364202155378 0  0.07050732113175114 0.02477718286984944 0  0.007028559892523475 -0.08148838255815417 0  0.006867912710350929 -0.08414996047893589 0  0.09084308462621572 -0.01136126574698437 0  -0.08769611167701463 -0.004665275394892051 0  0.002462388183923202 -0.05618037862982649 0  0.06034920849492705 -0.0307000382510811 0  -0.003493694776555625 0.06448175279013464 0  0.01322095916833532 -0.04343527389619487 0  0.02478838551454127 -0.03136858972426648 0  -0.02721468015624543 -0.06776071861211493 0  -0.05955622248629597 -0.05477040152881166 0  0.08564037219452066 0.01540488064858021 0  -0.07524392131463321 -0.02180433011210179 0  0.03767426435417156 0.07686893208831684 0  0.05231511810771503 -0.06509070563544403 0  0.05031379221756967 -0.06590508622007882 0  0.05119561666202074 -0.06806600453203759 0  -0.07393227287062193 0.01670255804697666 0  0.04041750066120275 -0.07643178452033612 0  -0.07908753670189124 -0.004367871704719568 0  -0.03406363770109634 0.03540983579320636 0  0.08163770228913766 -0.05125128200031132 0  -0.04063270199068476 -0.009185736737793654 0  -0.04261247430880621 -0.009240080625658528 0  0.008933866631990322 -0.07917039421942343 0  0.01067919416621848 -0.06038950503363876 0  0.0247016406972824 -0.08912936622259193 0  0.02460041216204617 0.05746348788807306 0  0.027507500539831 0.0570960220309765 0  0.04780237193130264 -0.05675906646340732 0  -0.05893215923523468 -0.01417829114589441 0  -0.02955330008008244 0.08764438408662428 0  0.08503360676347298 0.04086511678749375 0  0.03914392883386652 -0.06900520580886246 0  -0.08889395475353232 0.04578535039806997 0  0.005284088732056237 -0.09634879148245055 0  0.004187560036287198 -0.09832805642462139 0  -0.007395250915077456 -0.09539483961173705 0  -0.005556047799057834 -0.09813791224180222 0  -0.007959504252129938 -0.09797484536079096 0  0.08382320090086845 0.03005374513823562 0  -0.04509482554454727 -0.03225068400433358 0  -0.06996674993757185 -0.05951847107348079 0  0.01263509782531184 -0.08200345413873791 0  -0.07012737421633961 -0.04434676487774486 0  0.04124996666570408 -0.0393845181390519 0  0.04854404356232973 0.08741801494781112 0  0.04675961138377505 0.08645127971794866 0  -0.03466111505182445 0.05187860981058483 0  -0.006742571201454065 0.07788958461061356 0  -0.08276247614379778 0.002486237885185935 0  0.0928916257353357 0.004128144031255509 0  0.09162781452067613 0.00703335268182775 0  0.09077081318909093 0.004798954720633613 0  0.06368815547785858 -0.04666783122670366 0  0.06125484049604478 -0.04673549979276685 0  -0.088328857903341 0.02672237305993612 0  0.02674604842116459 0.03192631615428016 0  -0.0003840374618760505 0.07704135707390793 0  -0.001784957689793707 0.07884131837552467 0  -0.01939805304354833 0.0846904546708252 0  -0.08865085857708335 0.03123437051679168 0  -0.05391048297496968 0.0822788829652913 0  -0.08396415963895935 0.03804082193765698 0  -0.0230852066574048 -0.06458569260375252 0  -0.02528149591003595 -0.06687383000847406 0  -0.02529111636508427 -0.06434989231167833 0  0.06205190806134735 0.009591002660474487 0  0.06312695644589296 0.006826112303261343 0  -0.01020993848845482 0.0465648283776266 0  -0.02041825650724016 -0.05286559384964114 0  0.05790827896593662 0.04491722212205664 0  0.02399584742448101 0.04928463535295494 0  0.07701553659574051 -0.01243037562844864 0  -0.05183669646528414 0.08345366523245275 0  -0.04694849668438531 0.0720081538811337 0  -0.07877412331245924 -0.001393741644995972 0  0.09655797082886657 -0.02598060376913613 0  -0.09671692286409077 -0.01100831208513296 0  -0.05565172258050552 -0.007109917315778938 0  0.03557442374870184 -0.02667624986232693 0  0.03242413719338484 -0.02606841415579746 0  0.03345447208798211 -0.02458718977926714 0  0.05423543529075907 0.005963762923790235 0  0.05475674703834632 0.007590489914074055 0  0.05362502836434713 0.008760654864154697 0  -0.07754521150203063 -0.007080189572417833 0  0.07881590442836814 0.01228514512998008 0  0.0818483749571166 0.0132769578954436 0  0.06333528251631731 -0.05827322824404235 0  0.06191106028716938 0.0585287778406164 0  0.03983545141796011 -0.08712480690272395 0  0.0423848245173579 -0.08882348362830446 0  0.04908634794565744 -0.02987072415003173 0  -0.02682391025404269 0.04699480242051829 0  0.03510009657785734 0.07261660779676025 0  0.01321190220092443 -0.04662753616677844 0  -0.03010577546756206 -0.08905386079598467 0  -0.01327659082298282 -0.0668993999620123 0  0.06908201988898106 0.05068552495363789 0  0.06853763635809974 0.04884361617827732 0  0.06596714929696842 0.05020772705544928 0  0.01621126909135164 -0.09711224009750495 0  0.002414521189108352 -0.07194028550324026 0  -0.05840629779515634 0.0763343348893461 0  -0.04322215971911462 -0.007677342841119645 0  -0.01876714408048308 0.07435983454202887 0  -0.02122705837142093 0.07619633686959662 0  0.01970466713552746 0.04660289895877423 0  -0.09539997566170955 0.006224163683485642 0  0.05335007469954311 -0.03325998065563278 0  -0.004016099476459326 -0.09860774402849699 0  -0.03097343289090038 -0.03620744288797233 0  -0.06110985454940223 -0.07160686236473011 0  -0.05433632408935195 0.0373042471034567 0  0.04938480707034625 0.07085605992110403 0  0.04512091163083437 -0.04340316622587698 0  -0.06713298633534258 0.01821135461743571 0  -0.0793020009209917 0.01215157589560642 0  0.04038206761966966 0.0879652043480654 0  0.03765886874692965 0.07378216122316282 0  0.03957373785883934 0.07465280968422167 0  0.02536347052621015 0.08402257057729015 0  0.02431341270012133 0.08131979686384214 0  -0.02949655948728328 0.0460475202867756 0  -0.0321172090337424 0.04606714915020559 0  0.02051856216896437 -0.0925445841469066 0  -0.06234415674477712 0.03975362153869284 0  -0.05137902237677556 -0.06735326853585409 0  -0.003636666919547107 -0.0448173539750826 0  -0.06458429040534254 -0.05108601479143093 0  0.007166530911385938 -0.06622837521663126 0  0.003581747115924742 -0.09365247536051124 0  0.07223674788273365 0.06913961063040108 0  0.07321625475081137 -0.02971360128784106 0  -0.04229547184454133 -0.04400125140972631 0  -0.08963669291190765 0.01067514595550441 0  -0.08645045177820332 0.01099361726298281 0  0.09464921936050716 -0.004496938050468062 0  0.06506117205680703 0.03129418622964122 0  -0.0914782636005123 0.01530803066479637 0  0.04570994118257897 0.06140089511919385 0  0.03389755438339 -0.05331720840910865 0  -0.08164289051995401 -0.05112639905495892 0  0.06501114927766762 -0.01873485539834523 0  0.04919330932041834 0.07864748150448456 0  -0.04536873212079666 0.04966715494433362 0  0.07686223277667238 0.01477642424083689 0  0.07668028923382379 0.01265401789238096 0  0.07415569624686907 0.01454497987689284 0  -0.05689140297255641 0.05525436256188553 0  0.04129201806858633 0.07275042491454724 0  0.04197699533165612 0.07048353210587738 0  -0.09122932814518472 0.03693126915521799 0  0.04720691086298018 -0.02598832250148866 0  0.04505060905672212 0.08120243674502843 0  0.04080495424030378 0.0174893400140828 0  -0.02719384948782649 0.05326378702550091 0  -0.02607753371070746 0.05438300794966047 0  -0.02434341078313935 0.05407228565039239 0  -0.06071291041424273 -0.06717652628382458 0  -0.07282934975427989 0.00913195640926931 0  -0.06251579780379084 -0.06868422512669181 0  -0.04494270847975673 -0.07391407906744943 0  0.05037873956139256 -0.04125550137769686 0  0.04815168319235887 0.03255582711178442 0  -0.01644094588406824 -0.08258738542818525 0  -0.04301903819836168 -0.004260218780619314 0  -0.01586210800898669 -0.08845219834108226 0  0.005471354680835625 0.0802242797498538 0  -0.03159409121486937 -0.07426232457356922 0  -0.02645475187510498 -0.0371480121608944 0  0.04519406445549327 0.07089002692805478 0  0.04398176368765527 -0.005141592778132769 0  0.04151231966185568 -0.002847192673319351 0  0.04131682274530749 -0.004895749199481391 0  0.03773002972090437 -0.05255640104296988 0  0.0321110054448314 0.02965428061324795 0  0.02891528062153904 0.02992310185551743 0  0.03075775292419871 0.02828893625396479 0  0.07040811685811409 0.04278986224960482 0  -0.01340760216328361 0.06495584172424548 0  0.01296481648266573 -0.08953925687194034 0  0.0501938976787825 -0.06288849633235478 0  0.07256118898217204 0.02466734987719531 0  0.001162106595659671 0.05186921990289956 0  -0.04758136127599636 0.05202288156765363 0  -0.06281965224170598 -0.005886825600809926 0  0.02556644013706048 -0.08404007349742695 0  0.04634076213275022 0.08860568417292966 0  0.05880831653002399 -0.03561723984224419 0  0.06110498889583154 -0.03536550883637027 0  -0.0334416933050446 -0.06575363429528314 0  -0.04259625731354257 -0.06965629623349048 0  0.003880808990756408 0.05809802512439638 0  0.004966810547330261 0.06086269245185306 0  0.002155526728385518 0.05951631550724687 0  0.05683842612112165 -0.04469209936626386 0  -0.06966742423173077 0.007845096174241305 0  0.03204103873597038 0.04982304788491314 0  -0.02736879014837684 -0.09041910655153543 0  0.0004572456250577465 -0.0727931277813708 0  0.03729645947530856 0.04972715633869602 0  -0.07880081453412581 0.05445389782779693 0  -0.07936315669749218 0.00424598886675719 0  0.03463430445186155 0.08657159120123431 0  0.09110648813571973 0.0326967311852332 0  -0.0008765532594630461 -0.09642733769007317 0  -0.009451225723708424 0.06612128316767786 0  -0.07716274687218869 0.02492571881701069 0  -0.08264326335875791 -0.04381820470597947 0  0.01127381724883925 -0.09371940528209682 0  0.02335907290007866 0.05457862260338344 0  0.04017832740412058 -0.03295225933851471 0  0.02258453952066678 -0.05993911185121108 0  -0.09430212130561486 0.003233303930565202 0  -0.07844934892162804 -0.0440975411937674 0  -0.05880008689873025 0.005250806991560876 0  0.01666223748386588 0.08622209692905888 0  -0.05867272290090269 -0.02633625153144536 0  -0.01383791213395816 -0.07762579305555406 0  -0.05306841977829232 -0.07162420938333425 0  -0.06506653926033611 -0.01508572659403173 0  -0.06659882112835604 -0.0168896372535893 0  0.007217908421545096 0.09407502703491966 0  -0.04486298204356542 -0.05374529694704974 0  -0.02074610848526797 -0.07656564038734393 0  0.03554809717137467 -0.04057983157771024 0  -0.02110848285797231 -0.07201260145124523 0  0.01309082678350106 0.06357463417087929 0  0.05776641565237473 0.06209484951090052 0  0.07363930285625304 -0.05713865256746564 0  -0.04447797502851896 -0.06305229063166899 0  -0.04231946576783697 -0.06306000300741008 0  -0.07264467123587712 -0.009690096803640403 0  0.06634648956406027 -0.04175766971837615 0  0.005064245196658931 -0.07273147996149457 0  -0.05994377775048058 0.05024855767474092 0  -0.09163519075065682 0.002707598065474924 0  0.04992441629961319 -0.03687122624077639 0  0.0291202171113028 0.07915035773075652 0  0.001734507739376531 0.06388780056772835 0  0.03220557835243362 0.07844377839087324 0  0.03749143010727499 0.04019736346020696 0  -0.08173719922291085 -0.03519835783056919 0  0.0001658221068565835 0.08205652225887232 0  0.06513660957618196 -0.07382107610769673 0  0.04535512832477682 -0.05094068367682866 0  0.01754308683572171 -0.0914660590232418 0  -0.06520400959016151 0.06532492962655573 0  -0.06537111233559503 0.06879964699770114 0  -0.0798868578272497 0.01709718124302483 0  -0.02668720755686154 -0.07151702784934662 0  -0.01727558515177198 0.08601799738844146 0  -0.06076461342466265 -0.007472270151810398 0  -0.08420859460433483 0.01076083849586257 0  -0.08168024501855688 0.01010513818698035 0  -0.06887597203934889 -0.03559262180670923 0  -0.03451659733118703 0.05654820595925275 0  -0.0346427868070503 0.02528389708623909 0  0.02227591778556962 -0.07881924130295569 0  0.03641104148344955 0.0844824269478797 0  0.03813601854786835 0.08261250626929342 0  0.006619060847026409 -0.06273863698059719 0  0.00843091146901419 -0.06134065491062991 0  -0.03540526990616081 0.08887439701553865 0  -0.05607012491841319 -0.02676915546653465 0  0.04661885059497745 0.02473905640339893 0  -0.0898590456091209 0.03396821204013054 0  -0.05567637271325165 -0.02392236671250226 0  0.002523198615774971 -0.06601135936382878 0  0.08498961001798014 0.03271441226338387 0  -0.07943922397264505 -0.03163712475320585 0  0.04644124264698861 -0.05930733994134852 0  0.04792774065356859 -0.05868701750338751 0  0.04620669194970523 -0.05604163590553404 0  0.04479867627516456 -0.05838460553599876 0  -0.0378704867228 -0.04376269051082991 0  0.05779646910250832 -0.01345349352687716 0  0.04013961064264505 -0.01594698087687334 0  -0.09986687687679849 0.005004038935846311 0  -0.09815644902364094 0.005836706786337638 0  0.07981743838498817 -0.05330784494997336 0  -0.06852628280184273 0.0008670032152213554 0  -0.01522000903589267 0.06873012774855725 0  -0.05717827429067224 -0.05790675989790894 0  0.05200790521682293 -0.01744734125215617 0  0.05115851407852851 -0.01482717233515713 0  0.06100257209905318 0.04213476869818927 0  0.04501268080460007 -0.01879504389369646 0  0.03484694610963313 0.0474424227015329 0  -0.02516070322719373 0.09518575240845324 0  0.05378338103023325 -0.03084067224723482 0  0.05171658994621025 -0.03049764185805174 0  0.05302964101436713 -0.02779688089893978 0  0.001187775464904413 0.0672757582217518 0  0.05165071431919927 0.008090255306054039 0  0.05206237350706309 0.03903421530270204 0  -0.0602235265939156 0.02402270087439264 0  -0.05110861760770777 0.004830453593306411 0  0.04237942774697331 -0.0440503991497627 0  -0.02451972686425792 -0.0409131735953243 0  -0.09058413605660984 0.02611109429209466 0  0.05599426895597565 0.06665397097981646 0  0.07764918034019949 -0.02284873646634946 0  -0.04888228887190051 0.08306680124448143 0  0.03606464693906267 0.02035158371862899 0  -0.05377065736196315 0.05990645700693699 0  -0.05277780553165699 -0.01703068174867706 0  -0.01782247805344684 -0.08583001504891885 0  0.007334934661965721 0.08761654278514588 0  0.01274164373264172 0.07145908031035438 0  0.05310911992970863 0.05144246554474963 0  0.05384118557271838 0.04944548745241037 0  0.0514549265425372 0.04883452176113934 0  0.0551204059946595 -0.03719226572456606 0  -0.06012125436880254 0.01885466408499805 0  0.02616401939599357 -0.03549156307817889 0  0.08850322567491581 -0.04299843543747172 0  -0.0249475494656498 -0.06206989956845424 0  -0.04935443383072224 0.03992125280117165 0  0.02986098162766776 -0.04948663371741387 0  0.07043370896798627 -0.006334180201301057 0  0.07252009608987794 0.03033704192260215 0  0.01644341558336547 0.05320006423538975 0  0.01894153211207498 0.05388069807410408 0  0.008009230145182742 -0.05113341297917895 0  -0.01048947850640964 -0.09637776327093631 0  -0.09433487308047941 0.01517253470786314 0  -0.09536774606605319 0.01325863577658344 0  -0.04792726085692749 -0.008063345528646428 0  -0.004954602499284562 0.04761502927700439 0  0.03053536624211845 -0.04689866142935319 0  0.05058380474511238 0.06302261495651977 0  0.05209689890500515 0.06024394848556074 0  -0.08437736690958321 -0.05074005260776463 0  0.08206017032961528 -0.04887161797903464 0  0.04701181041765456 -0.01627215282705225 0  -0.05800371398904193 0.03250335392675261 0  0.006075791090025049 0.04115126192283732 0  0.06418208962817111 0.04163940738072856 0  0.07565637041812082 -0.04805720135876689 0  0.0752940127351355 -0.04967142446245144 0  -0.08870717272850426 0.003026662413209078 0  0.08700464396074044 0.03220537057226215 0  0.07944496583867733 -0.03431019008275489 0  0.08126815341803018 -0.03570588983617125 0  0.07971747146618689 -0.03745936293150001 0  -0.04014681804762022 0.05670468765603057 0  0.0257746148197616 -0.05219879359951914 0  -0.09254069450595569 -0.02014880224538848 0  0.01999012379876897 0.05683843510453954 0  -0.04749036793847485 0.07474540628847856 0  -0.05573217041607662 0.070957439906788 0  -0.04993656258168727 -0.009870959670366412 0  -0.05230638233820212 -0.01068668474289152 0  -0.01380096538190975 0.05755351463341339 0  0.03776343995854171 -0.07092266580878637 0  -0.03244319252706726 -0.03464993780141936 0  -0.03371193208943644 -0.03736579474893765 0  -0.0897085212635632 -0.007462998467215194 0  -0.08254089480737317 0.03993887528962848 0  0.03507261130953255 0.05286569573730453 0  0.06967215830053923 0.05709491704094453 0  -0.0378663094417136 -0.08260135156859379 0  0.05418228424151376 0.07376075620344368 0  0.05720040762221826 0.07446064550305531 0  0.03842424213464792 -0.01104672322839779 0  0.04759085232886842 -0.04535472296955675 0  0.0908097543752706 0.03812160228173737 0  0.08958244894942624 0.03567680168137245 0  -0.003026269179484543 -0.09345707526474063 0  -0.002761994097868598 -0.09189560952375508 0  -0.004598250326120427 -0.07505695380896565 0  0.07965520702791729 0.009234977336244652 0  -0.03178187542346095 0.03421210405366584 0  0.05440802341332423 -0.05466615098716449 0  0.05321061104184183 -0.05752525143350946 0  0.01465708262617331 0.0660331032679591 0  0.007831800485045639 0.04493191057962865 0  0.05417797637491929 -0.02013037426350557 0  -0.08694085803138016 -0.0356358978572445 0  -0.05912478378273457 -0.01900309444245053 0  0.00107153310805897 -0.06081164788891903 0  0.002864743646679986 -0.05929210346184356 0  0.01652637601165651 -0.07057235659422265 0  0.01867774271400608 0.06915078215920047 0  -0.02899880171829569 -0.0517532683704531 0  -0.02022518115147877 -0.04555737968088379 0  -0.01867655156404264 0.05542831323976818 0  -0.006365427857261902 0.09156192240356871 0  0.04961238679917883 0.04082897888202602 0  0.05640136478759324 -0.02090836722155678 0  0.05510163248045911 -0.01805503049371952 0  -0.03024548263547661 -0.04097391155124925 0  -0.06038588669068189 -0.06403617431277761 0  0.04407893102858698 0.005979460640420533 0  0.04376390985339187 0.004001864440419892 0  0.02052026864187743 -0.04626655939855415 0  0.0550367599659826 0.05353093035426165 0  0.01386065164084054 0.09471361839276041 0  0.01205224744423087 0.0950760007782883 0  0.01357717802439817 0.09761529762438659 0  -0.01250853737157648 0.08109315897763456 0  0.05052833245585113 -0.01971387444442352 0  -0.02308373831049268 -0.05477429186304789 0  -0.0449784982548408 -0.02014454332955065 0  0.02358068597409901 -0.09553711375920304 0  0.08172852509642856 0.05307692771774465 0  -0.04801493965405066 0.008202449478600429 0  -0.03113223597891537 0.07747001342064409 0  -0.04880876605156021 0.04385882613955202 0  -0.05754960565212808 -0.05253719721927881 0  -0.04684145740859466 -0.03381797878861369 0  -0.05944043180157256 -0.04208331883676299 0  -0.02476876584205781 -0.04840553731560545 0  -0.0459491149718451 0.03120053319278658 0  -0.07641937696612004 0.0644865282590646 0  0.03140717383284782 -0.0545131922686892 0  0.08601730957331072 -0.01088526566104163 0  0.0881762031206587 -0.01305257925403341 0  -0.03618087918008331 -0.05211548478691191 0  -0.04726168079483146 -0.04958451445295294 0  0.06135883247433931 -0.06282288950840238 0  0.05820798917295381 0.06444929424917076 0  0.00784305321171647 0.06395043249270632 0  -0.07220065571229309 -0.05748696468230367 0  -0.02633026113294115 -0.0930066238237047 0  -0.02185302211403391 0.0927732556405437 0  0.08284267272185769 0.02122536473547742 0  -0.04796199306846689 0.004622351555052528 0  -0.0009983220140236402 -0.07902338009863855 0  0.09333966826480397 -0.009326323218145765 0  0.0160106605510456 0.05172678070602942 0  -0.0474922559239712 -0.04686209834708258 0  0.06743649876887745 -0.05337696939386222 0  -0.0522535104180183 0.03899914942376389 0  -0.08719631217590423 -0.03892762301454236 0  -0.09027118887288252 -0.03929724345822785 0  -0.08890593677272765 -0.03749571506194946 0  0.004469589405858445 -0.09068613996098356 0  -0.04520050023695647 -0.01454227307861777 0  -0.04755187210321839 -0.01426198861693518 0  -0.01539311071675682 0.07719360885820288 0  0.09268431286472355 -0.01602442338689191 0  0.001048105208195504 0.0566911836407669 0  0.02831943493895707 -0.03705866853321176 0  0.007481726229454172 -0.09060797767131173 0  -0.03530076908269861 -0.0780666430877897 0  -0.03803919257950131 -0.07777222543890909 0  -0.03779067539276141 -0.07617592660236158 0  0.02845064806610686 0.06263862034337794 0  -0.005872383214366266 -0.09344499844227316 0  -0.002496362713991078 0.04954809023850692 0  -0.03574258410897797 -0.08029874368278025 0  -0.03610623878542107 -0.08243395312819114 0  -0.006660634005763303 -0.07193472590143954 0  -0.008060071603287111 -0.0737566599267407 0  0.06809947510320941 -0.02195851826636694 0  0.08785632645731303 0.01122188298450326 0  -0.07341214798975625 -7.776862530693858e-05 0  -0.02251639701073391 0.05268164762780497 0  -0.0231109254752892 0.05043001026916673 0  0.0360251623839908 -0.02478413919693548 0  0.05632438494932401 -0.009178838836162212 0  0.06675650441356075 0.003558820990976481 0  0.003964992682511401 0.09835495787669693 0  -0.04576136564859296 -0.002963260927131544 0  -0.05248259532783992 -0.03130940415256238 0  -0.05013465315510592 -0.03156076946364941 0  -0.05018522461459834 -0.03335128793552663 0  0.009680391719450699 0.07108579223402876 0  -0.008678403674445547 0.05700990228734661 0  -0.08161805335521581 -0.01348927497370861 0  0.001864713184187144 -0.03993714214171558 0  0.002602154826117664 -0.04142620290513063 0  -0.0351226767184461 0.08408827644604003 0  -0.03393153695163972 0.08301480219131541 0  -0.04675892058407356 0.06022037387671772 0  -0.06081944713903423 0.02171078742667795 0  -0.03210566327547575 0.0855727541820805 0  -0.04217351753306262 0.04062420259473969 0  0.01833012868326058 0.07541704978908602 0  -0.05987581934939953 -0.07250997719793596 0  0.03115530726552268 -0.09343556138521285 0  0.03162359380917245 -0.09046930746858868 0  -0.05758186192462266 0.01929187682759228 0  -0.06702295838380545 0.001165661527304187 0  -0.06679680096694257 0.002754369032241945 0  -0.0432056245205274 0.04863619598119975 0  0.06283322240463469 0.06015424177344375 0  -0.02153692641806584 0.0559709893181601 0  -0.08634459339630327 0.03743675452591969 0  -0.08578271366612548 0.03541152573034684 0  -0.07657935492260814 0.007077381234870127 0  -0.03395051503823803 0.02736577401755297 0  -0.03331311252630406 0.02945764663488973 0  -0.03149221445122783 0.02705255608355185 0  -0.08135066036026484 0.03163552888873006 0  -0.01509269513434079 -0.04856558070268796 0  -0.03378136481728335 -0.03260346110816343 0  0.04749150793203138 -0.02017385125555534 0  -0.09107386673271597 0.04127934472770353 0  -0.08941424171891348 0.04132309057542323 0  0.07846517713072264 0.05628517242162422 0  -0.005709650155183162 -0.0514790984009741 0  -0.008608491267282796 -0.05244746093078768 0  -0.01250174856401423 -0.07330197749359706 0  -0.0115325872893147 0.08868455485239046 0  -0.05871362205028145 0.04408193724464517 0  -0.04652860730378897 0.02401222105695816 0  -0.04788166097220662 0.04755818126527352 0  -0.04712561614624441 0.01478638947938055 0  -0.04778871323396021 0.01215436368277582 0  0.03926398418294111 -0.03717268853044391 0  -0.09391424977676477 0.03432997511890354 0  -0.09278705075816671 0.03279619025359375 0  -0.06510824636272544 -0.06560533541428043 0  -0.06061072086380281 -0.05204371739441551 0  -0.03266951785464445 -0.03921439069202266 0  0.01209746883285752 -0.04455209269183417 0  0.01033510248647303 0.05867120775352229 0  -0.002267679235758789 -0.06674430718849923 0  0.04376881111874067 0.08324966075568979 0  -0.03456318281028701 -0.06283737731564037 0  -0.08910888121899797 -0.015936725024381 0  0.02756397413006454 -0.08906236217553117 0  -0.01357129894475989 -0.09234406786413497 0  0.03684075030513852 -0.07296544419049748 0  -0.09622523496233773 -0.02718708625873676 0  -0.08319743434887715 0.03379180061357943 0  0.03933623843602215 -0.05754347908169703 0  0.03110459394250969 0.06921990404370366 0  -0.01287372760880867 0.0932752302974305 0  -0.06272432745832084 -0.01312233105264695 0  -0.0477816040437165 -0.05265347634116559 0  -0.05649136329916558 -5.513173548640164e-05 0  -0.05846380041273613 0.0007081907507869069 0  -0.02179634884029974 0.03545214810160896 0  -0.04906984372590577 -0.08234777713746813 0  -0.05179150638429542 -0.08553404801155259 0  -0.05038276184829962 -0.08469102681890311 0  -0.03100573696167486 -0.04677531721299082 0  0.04955260227525003 -0.05401968302581248 0  0.04713725205543023 -0.0533701265742285 0  0.09496219193753971 0.003503655849678535 0  0.004747766005747891 0.08934998151690469 0  -0.03711075966610274 0.0602255723460533 0  0.0880297401951281 0.03718168059119335 0  -0.05642047964652246 -0.06720562870148365 0  -0.05622055985021727 -0.0702851694976966 0  -0.05501489697487569 -0.06798696166921138 0  0.03014468317696795 0.08486965548446446 0  -0.05776027023965275 -0.06559791640191776 0  0.03864726312948681 -0.05003115845718627 0  0.05692968121291239 -0.00418501216609928 0  0.05987964047741624 0.06854187190179081 0  0.06817795690121689 -0.01276316888754611 0  -0.05602690045206372 0.03483776249456137 0  -0.03062558853853589 0.09012167788800832 0  0.02206257723773155 0.07855362517661761 0  -0.04133815244689391 0.004164350836486321 0  -0.04109367948389217 0.006155044494423474 0  -0.01638084745497767 -0.0460890118609548 0  0.01837034906630218 -0.05757703287815253 0  0.06646539784914671 -0.00835236164120785 0  0.0565274119378528 -0.06160639933708568 0  0.05377093010971977 -0.06035266017931018 0  -0.09105232073730728 0.03184625438585081 0  -0.0674181670874328 -0.03602194771495202 0  -0.0983100378277932 -0.003616227589050921 0  -0.09845169300088101 -0.001506624392465028 0  -0.04945602876520787 -0.05855019988455044 0  0.06439530327270364 -0.02012901452598236 0  -0.03344056272122716 -0.07826221013624017 0  -0.03252994551522174 -0.07628440867140272 0  0.05538586800835685 0.03119663795631014 0  0.05602284412534329 0.0281376149975983 0  0.05456202598653248 0.02711342987350268 0  -0.03030016584201956 -0.06007940887652562 0  -0.06763749406492353 0.02613439937387247 0  -0.03950051089874212 0.0267033809426356 0  -0.03925600477766981 0.02462832205157838 0  -0.04208093248113791 0.02527187710407046 0  -0.03161790371243276 0.0510886867939233 0  0.0811602659380295 0.04690472676705702 0  -0.01497037459989965 -0.05853914912197513 0  -0.01309582397494963 -0.06095012344968898 0  0.0536406072925642 0.07779733482313719 0  -0.05574255164848487 -0.0321863681233927 0  -0.05459626203339179 -0.03021061898057314 0  -0.09986687687679849 -0.005004038935846286 0  -0.04561273489965828 0.008545435974504922 0  -0.04786808834899436 0.01057872354092411 0  0.03036482305687511 -0.05630361255693845 0  -0.06829001389884826 0.01641600664104195 0  -0.07038068268772643 0.01763577282307561 0  0.04523651229135214 -0.07165441143607892 0  -0.02908148155120716 -0.03885435462460373 0  -0.02963935106676942 0.0837709112972248 0  -0.03218207699621557 0.08292729207104126 0  0.07943193607557865 -0.05034116289353251 0  0.04292730631713979 0.03530176694223872 0  0.01293365106147357 -0.06020087769106652 0  0.03003834277669196 -0.08022229106289912 0  -0.07055270396156893 -0.009784742121667037 0  0.005582868089055059 0.05549328022058456 0  0.0010965065989048 0.08680186132757323 0  -0.06610175483261967 0.02416178569476507 0  0.06778084301123756 -0.03805611043038395 0  -0.07758049865660042 0.05601756349374406 0  -0.08061976204051639 0.05651690181090481 0  -0.05011636043804128 0.04129469198294783 0  -0.06805663902141021 0.004047128697946649 0  0.05011651385623255 -0.0846820698899145 0  -0.04458699210972414 -0.07086522810888338 0  -0.01816985144201962 0.09227720379257767 0  -0.01913512857016627 0.08942916886162304 0  -0.09019075865460408 0.02386641384204214 0  -0.06341207788648372 0.02750798108974956 0  -0.0834067260271837 0.04237427359866967 0  0.02997293795715205 0.05354349948745946 0  0.088287309040292 -0.007077299842111587 0  0.06597547395604446 -0.001404420513532434 0  -0.001913335536346669 0.05630032633791385 0  -0.03893182697585793 -0.05076317904991424 0  -0.07389220659154748 0.04184941579952096 0  0.09979642406704956 0.006253578673584236 0  0.02217878060836661 0.0372877435918841 0  0.04796144979125069 0.05056278637245282 0  0.04574041875726439 0.0484986678472229 0  0.08689084120357474 -0.01887507195234427 0  0.07883119387409986 0.04127803983977076 0  -0.008648579607274462 -0.06514099312963337 0  -0.006924884586857052 -0.06658253451184586 0  -0.02072802820099367 0.0688193387437091 0  -0.04349080026304142 0.0434455900690082 0  0.07156287631196884 0.05258493491282903 0  0.07412989059573032 0.05202371853108664 0  0.07234069708774456 0.05442103053002856 0  -0.04737303347564212 -0.07513166166185244 0  -0.07771614144652948 0.05188170390301833 0  -0.04199365581507433 0.06476240483296521 0  -0.03360115882327511 -0.08070623386727355 0  0.007894156560548196 -0.07130161389439771 0  -0.02172710969959379 -0.09760310551872269 0  -0.02081488746678322 -0.09638523844069143 0  0.01660243457485962 -0.06781627610457459 0  -0.02788566736954686 -0.03076185042129716 0  0.02457177988387669 0.07683545901783549 0  0.02702127389542755 0.07774071959778706 0  0.02443002315107936 0.07908930178236949 0  0.05759266559930593 -0.02682532170144861 0  0.05626436011978728 -0.02398898150555124 0  -0.002493661875855013 0.08627701625463899 0  -0.01780782159234021 0.06775383485244529 0  -0.03807744237151167 -0.03400838177962712 0  -0.01443136814635755 0.08486889697372467 0  -0.00725872852097964 0.0413935687415118 0  0.05351973748330729 0.05447377195182663 0  -0.07371612523817406 0.0612836554813453 0  -0.07496559808129895 0.06407859295345959 0  0.04602502474062657 -0.0216131557973192 0  -0.08440179629577525 -0.0006021775321971728 0  0.06603392648605616 0.03957919738159748 0  -0.07043656520189598 -0.007509628242771343 0  -0.01281587935004594 -0.05062323057634564 0  -0.06630598051303283 0.05396416775239517 0  -0.07403713515019519 -0.04706206503723206 0  0.0764008325400729 0.05507136833177539 0  0.07511155591098613 0.05744429450137437 0  0.0736050650788314 0.05587819284499504 0  0.02760123856890423 -0.0914847276395642 0  0.05576936889644682 0.05567835946787482 0  0.05238582406827928 -0.03748496790870428 0  0.07284487955112502 -0.05171519123238349 0  -0.003962284656702076 -0.06700478466541833 0  -0.06328906893889802 -0.0007794847534430863 0  -0.0319947219042972 -0.0495768858443213 0  -0.06959032237424648 0.07180264991381269 0  -0.03224271667243299 -0.07122651805491198 0  0.05281013996557394 -0.04840855291823455 0  -0.04222738177961147 0.08653376508620456 0  0.02380574471244734 0.06934902036397997 0  0.02528404352899814 0.07064369462322856 0  0.02249699190788927 0.071806391866545 0  -0.02412458981166026 0.03920386828565346 0  -0.02543206082349564 0.04196954369983116 0  -0.02605283014147476 0.03974731152705487 0  -0.08554576799883942 -0.006977375289103245 0  -0.009439787143205251 -0.09112700357254855 0  -0.01105437794319925 -0.09096532778585496 0  0.030178312717247 0.02622445269680425 0  -0.04193491381803981 -0.07470330324005199 0  -0.04227525452399221 -0.07721813616734773 0  -0.04011050254494178 -0.0749957970270826 0  -0.06124743247608333 -0.055236801927717 0  -0.06179712572150592 -0.05667432707094848 0  3.919319631100573e-05 0.08814564714793809 0  -0.06590981158396088 0.07519528070141018 0  -0.06420875920942208 0.07467661835018739 0  -0.06261406689469726 0.07242193470818099 0  -0.06109653641429198 0.07198426728465185 0  -0.09183377831997999 -0.005169177970693889 0  -0.05182813356981504 0.0485332496673174 0  0.0325851650385752 0.05451279456365216 0  -0.0486053047408755 0.0199173720933822 0  -0.05061482244813846 0.02041176291547951 0  -0.05062778769344677 0.01776996534416046 0  0.01012592877765326 0.08298593125563837 0  0.08689071915444586 0.04121826180430863 0  -0.0393137163514513 0.04781894596212597 0  -0.08434183906806443 -0.03968317443761877 0  0.04013575987457586 -0.06049364506884281 0  -0.04674700690677992 -0.0651118666671455 0  -0.04666328792532298 -0.06314619381707311 0  -0.04921079367042951 -0.06331611543178368 0  0.07663949950115587 -0.05034437002078394 0  0.08532081028641859 0.04376200403170485 0  -0.04267136431183864 -0.05038848916545616 0  0.0325608394103878 0.09454218761848085 0  0.03302751575397508 0.09274075115804409 0  0.03285763947844411 0.09094025748699329 0  -0.05802163758440421 0.07201447131354496 0  -0.06005724154975361 0.07378664392662718 0  -0.0884857617490216 0.02154661693383395 0  0.02551615988032931 -0.03268462719756608 0  -0.04840788497723535 -0.00948815438014986 0  0.02997706919085463 0.08223858348818018 0  0.07162771954697925 -0.06437507260200513 0  0.06990079294336139 -0.06523603507444761 0  -0.04936953015647726 -0.02532731914568402 0  -0.05146746633002423 -0.02325976825182316 0  0.057049415702464 0.04006152906042205 0  0.0553952657260105 0.0426127931160891 0  -0.0007901662134680381 0.04568309806346374 0  0.07830118257579932 -0.01418683570412069 0  -0.07131313744128531 -0.01459789901534332 0  -0.0340791891406938 -0.0402332151637146 0  -0.03366457142700125 -0.04454848899257041 0  -0.03151185954762126 -0.043643589604134 0  -0.03449217493741055 -0.04325968750035326 0  -0.05166784107785233 -0.01442405909192321 0  0.002439660332008033 -0.08500495861474007 0  0.0003620078269779079 0.05487194913492813 0  0.002486297509608171 0.05393442096455126 0  -0.04600110861149196 0.07494589820323276 0  0.05555627228177062 0.06411290760506136 0  -0.06469678960089492 -0.01067818476150859 0  -0.06043662406447224 -0.04581746615658445 0  0.04342505902218431 -0.02888580060860779 0  0.04671332816662714 0.07104556749567832 0  -0.04211809954505352 -0.07937709712285516 0  0.04125074243511177 0.05903450887831388 0  -0.04272673783617608 -0.0818676870952296 0  0.03612291652164497 -0.03054854476073665 0  0.09775422457655317 0.01396232171199529 0  0.07125025434282155 0.01820145653693515 0  0.07200343327754768 0.01682144706154022 0  0.01421424373660747 0.07033353556454378 0  -0.06031039452712832 -0.004728717388648145 0  -0.07271246131772559 0.0213715476459883 0  0.002695995132060998 -0.08000428480729238 0  0.0690766265356125 0.01745587032666269 0  0.07003405283834842 0.0153459840396568 0  -0.06958856349861756 -0.03128721867778545 0  -0.03840983202277953 0.09232073606064325 0  0.07817767135336146 -0.007309054973048955 0  -0.06426487315323089 -0.05631412570682919 0  0.04506735767252618 -0.07450250294347038 0  -0.05813375275543959 -0.07948822960770244 0  -0.05564508902365328 -0.07777685122403499 0  -0.05773524529667714 -0.07749087120362076 0  0.07063679833478301 0.05546630966535147 0  0.06788822212068549 0.05473563107539379 0  -0.03531800281158612 0.06401685325422873 0  0.05392122762554821 0.02216917498829667 0  -0.05411395014795004 0.06327376380079409 0  0.04884325984730373 0.02092486503356365 0  -0.06047077328515592 0.01443009963105851 0  0.06593331558328959 -0.0584675903603564 0  -0.04299125269934308 -0.01266811414574617 0  -0.05738477416656631 0.0153818201485359 0  -0.0551069793429663 0.01636949286207444 0  -0.0545053664088579 0.01439770669601121 0  0.07099991771025753 -0.01391469300057002 0  0.01449300168926542 0.04415466450714862 0  -0.0179877621702933 0.04215787848324441 0  0.03627729090103663 0.0379419860263929 0  0.06875082251421862 0.01942283537912801 0  0.02349202844274311 -0.08648258048507587 0  0.05955606713736857 -0.03850475412347679 0  0.04305698892520764 0.01627925169855637 0  0.09369029894675918 -0.02120946757997214 0  -0.07656233762456893 -0.01244046100777601 0  -0.07875317787602573 -0.0271423325792303 0  -0.0772668948814854 -0.02922043769598284 0  0.04969001519642461 -0.08070645665246161 0  -0.03580429050796229 -0.04121537812522378 0  0.06383155234153497 -0.07308430684078697 0  -0.08033458565059404 0.04787110420143859 0  -0.09001211148729862 0.04354599049734911 0  -0.00352500822534088 -0.05942590300669234 0  -0.001963799138658807 -0.06086566855440409 0  -0.004854620046932358 -0.0614684798681796 0  0.08900936427307872 0.01994105808395942 0  0.0896890511008491 0.01853639360718781 0  -0.0338060681074816 0.04099104213744545 0  0.04902981536575972 0.08348911643116104 0  0.03724005741281925 0.04552645664892391 0  -0.03241115054354202 -0.05807981857053891 0  -0.0320920601114711 -0.05510981905980155 0  -0.08030691683724067 -0.02870971113180855 0  -0.09019974825497938 0.01453158758374563 0  0.04065722284221146 -0.05107406548675809 0  -0.05945433164850769 -0.03721359888122577 0  -0.06334102461781602 0.01520964144377297 0  -0.06244421577937909 0.01683225059161275 0  -0.01868985638765969 0.08014829072920167 0  -0.06510608781187378 -0.03286992462895164 0  -0.08017109020481071 0.006099120021637088 0  -0.04905074769709887 -0.06724419465809575 0  -0.03737484076867879 0.09124018530220206 0  -0.03401451533881806 0.05514063299229661 0  0.06925367610906806 0.03587019970373189 0  0.02070574584730884 0.05959315609870419 0  -0.06874949608766073 -0.0008971361616662094 0  -0.04275346754109709 -0.06760132941423452 0  -0.04482386576486749 -0.06741486753699118 0  -0.06869244458519012 -0.02723395634225156 0  -0.07099729515028563 -0.02880663099807102 0  -0.0687168428976937 0.009936325123775356 0  -0.06665200807493478 0.008467667938752702 0  0.03727588756484685 0.05342583002924151 0  -0.09661043927471868 0.008680717096050655 0  -0.08248288275483079 -0.05652439787604935 0  0.09840306432520853 0.006793292465726052 0  0.005105334528833889 0.04865066261865728 0  0.005690492461262651 0.05091840262628074 0  -0.07072353646475328 -0.06080582368788102 0  -0.07257455056634594 -0.06068520828504404 0  -0.02705171604621462 0.07693828549492603 0  -0.08717452806014243 -0.02351553456214467 0  0.00765473639713517 0.06710615126413545 0  0.03422564431801162 0.03907244480486965 0  0.0324709533111611 0.03731329202900065 0  -0.006877993398655821 -0.09975533424135846 0  -0.06373038300135857 -0.06102753186137876 0  -0.04190086388859009 -0.03997314648082834 0  -0.06044841302253436 -0.02562313655216191 0  -0.0597991783520665 -0.02856873062032277 0  0.06557144062558797 0.06105922401070038 0  0.03338752609351429 -0.0560552187499088 0  0.03516611563864665 -0.02222959339520932 0  0.05485677109591187 0.04051783538709399 0  -0.0362342797077144 0.02790845188182263 0  -0.01908103522646411 -0.07699986102343875 0  0.06263142671603976 0.02622174375780779 0  0.08434629573122257 0.01461217366566765 0  0.08612712844274126 0.02776062609828446 0  0.08657268047080216 0.03006004529818156 0  -0.06490889418780904 0.007587107792693558 0  -0.05662433717342662 0.04507587408026083 0  -0.01994143200029712 0.0907333439207187 0  0.05828649623877947 0.04742725073171655 0  0.05600145968218459 0.04739700783974139 0  0.05640658516717172 0.0451134932171916 0  -0.03998065129167953 4.87890977618477e-18 0  0.07793851464293934 0.04994701938400822 0  0.06143126080705231 0.07046641460145042 0  0.0913619677897145 -0.01824135007026765 0  0.08995104743617299 -0.01758365664965265 0  0.05655054843468897 0.009976158643151467 0  0.00784657814517086 -0.07630393710337949 0  0.007131967114345875 0.04789380983005187 0  -0.07506499114400911 -0.0484629207571839 0  -0.09670649780184942 -0.008723999232730645 0  0.03964560619490225 -0.08433503050327415 0  0.03641324306959124 -0.0549447926674519 0  0.07821629750212185 0.0214447365010229 0  -0.009662962896797049 0.07687036998287149 0  0.04010768602736652 0.03417319871309174 0  -0.04272534944618673 -0.01879330747284432 0  -0.0713839327498797 -0.05491897772398505 0  0.03252809805076157 -0.07016721232134158 0  0.03014736074605908 -0.06846636115073394 0  -0.08104223543299338 -0.0585712350802027 0  -0.04500530434803327 0.06972957590086705 0  0.04767576820435405 0.0174185155677039 0  0.039357740210955 -0.04076493182033671 0  -0.01659422949016952 -0.03985824042922385 0  -0.09066262317122913 -0.01944052979729212 0  0.03023475815430142 0.05814173643649077 0  0.03229149307536273 0.06042644661486161 0  0.03235721356848258 0.05843500267032747 0  0.09211990407868509 0.009048146891357047 0  0.00802830337499888 0.08502008230363346 0  -0.07662720190074976 -0.001000429710462266 0  0.05807664822151756 -0.04049627855945241 0  0.08805613883729557 0.04451318632992528 0  0.04478155646217837 0.04016532118866007 0  0.04772559183331501 0.03929989949921159 0  0.04587316423351105 0.03786085738136227 0  0.01903192552184917 -0.05267422483956887 0  0.01723646274706874 -0.05441930820142385 0  -0.04976993878628549 -0.029945984371779 0  -0.04978000927907827 -0.02715709957137728 0  -0.05195580568686586 -0.02886973460688274 0  -0.02299788383241889 0.06727395951754241 0  0.04266551559842778 0.08882151838285432 0  0.08985722770811636 0.02332769513788325 0  0.08850520640565006 0.02262700410304208 0  0.08709349744940266 0.0240706381631632 0  -0.08167308414738361 0.003514390289896882 0  -0.08167937613025356 0.008611078089463769 0  -0.07808675818182613 0.007042845449734546 0  0.06315411293127506 0.05450114521925978 0  -0.03070938157926644 -0.08682302518899263 0  -0.03258642456173509 -0.08715833561864807 0  -0.04092567506030809 0.03278301082947381 0  0.06743224767845998 0.008217083617164809 0  -0.06851004783853615 -0.06264683647256231 0  -0.06721364743715427 -0.064059700681947 0  0.05094851975164775 -0.02311710475150198 0  0.04919716427020999 -0.02441013231359132 0  0.04931466117633287 -0.02144717554921824 0  0.05443655009510547 -0.0294555194003079 0  0.03624043588312533 -0.03328551564860207 0  0.03998442874608969 0.03984284708938648 0  -0.05173783012479265 0.01300177224920531 0  -0.05045897819777238 0.01219058756019271 0  -0.03199415683392871 0.04045150000888038 0  -0.05135386668475218 0.01911602709535756 0  0.003873892092646734 -0.04868785201687759 0  -0.03579108266122515 -0.04600370749416433 0  -0.05756123618616111 0.04920189521281992 0  0.02550699636999299 0.08234216592780495 0  0.0604155741056762 0.04934615398494996 0  0.05934017375857488 0.05134606946382134 0  0.06172661323899077 0.05192201164520709 0  -0.06151962377290751 0.05270494446821453 0  0.08871083876504554 -0.026167570700391 0  -0.06577941921800047 0.0001025661089385642 0  0.05741377524963106 0.0067240182453432 0  0.05268207227539766 0.03620611686776381 0  0.0506409440641543 0.03843330273296125 0  0.04394606984262125 -0.0380313153125155 0  -0.05918917576461822 0.03005892913089447 0  -0.03431241908333668 0.05952731123867927 0  -0.0349852729032715 0.06167898400056503 0  0.04044144877452491 0.06530185230230719 0  0.03905971555934329 0.06695190010787819 0  0.03751497204709843 0.06505793644901672 0  -0.03671049093242866 0.06492957253136708 0  -0.08707906916362966 -0.008647428030806752 0  0.04807333974325689 0.0001077976721680382 0  -0.04696986404699504 -0.06730857794232259 0  0.0267347355729398 -0.06486965086384955 0  0.04529893942160366 -0.06458729004475747 0  -0.09799379518640081 -0.01989094285756277 0  0.002304054729876479 -0.09640677555955102 0  -0.004106538574534673 0.0933640113838534 0  0.07697417743491931 -0.02478921141392049 0  0.02462140247253957 0.07210055661754086 0  0.08100495505092579 0.03912333708181968 0  0.08050890053301246 0.04157883974412342 0  -0.06271006997612806 0.05079450377155066 0  0.08046833196083336 0.02297687419480703 0  -0.01568817541219819 0.09727076404415012 0  -0.01490523713828394 0.09551982320465831 0  -0.01764526824141004 0.09509613543279717 0  0.088339710742635 0.005243389947515611 0  0.08617772385133306 0.007050041181225456 0  0.08552455108649659 0.005119254155159714 0  0.06793314091215527 0.01470559369436748 0  0.07118382226958693 -0.04340846860854005 0  0.06996601760329349 -0.04195008499239685 0  0.05315626786958252 -0.06713281529902938 0  -0.07722764497294837 -0.05758916205387149 0  0.03918942547033962 0.04759584529741871 0  -0.05525716082366863 -0.07190270711149759 0  0.02714911602868951 0.0889623852149701 0  0.02579466333090293 0.0881015903935146 0  -0.01706955670683269 0.0563769070359783 0  0.06557573927724851 -0.04690193296011107 0  -0.09115513493660758 -0.007798878674849518 0  0.02825134543406977 0.04619691918135624 0  0.03087387220442386 0.04696829848822041 0  0.02906942909943323 0.04878719025741441 0  0.006185508187481899 0.05249960023985881 0  0.007067753011991924 0.05467985509796353 0  0.00293413461736546 0.08445869618668979 0  -0.002408708017809823 0.0716290433372052 0  0.06116591213539736 0.03337474846044865 0  0.06801893343510905 -0.03501620313020241 0  0.068499404149891 -0.03207730059506683 0  0.03344074759376808 0.03193014967058778 0  -0.04033919994005795 -0.07975487182235984 0  -0.0405123002914719 -0.0818802535541427 0  -0.01485502755881713 -0.08732329368674149 0  0.05988705805969222 -0.06804974578527166 0  0.005448740450967756 -0.05167900533193513 0  0.0387152201096827 -0.08061810054361011 0  -0.05309701352492974 -0.07408072941758058 0  -0.08367445824122724 -0.02398548610026069 0  0.05637628476248583 -0.06858903203218958 0  0.02765110435796119 -0.0863050976823507 0  -0.06049766820907816 0.001335707673698219 0  0.03438374173196797 -0.08271831224438095 0  0.00599642016472668 -0.05410477785723809 0  0.02152389889618867 -0.05331595434222415 0  0.0234227580271602 -0.05378815183084732 0  0.0223755650871758 -0.05613127450228659 0  0.02425888967894128 0.09037645042716329 0  0.09377874119730302 0.0114999232316936 0  0.04641644909907894 0.08376793599626102 0  0.05192846438632865 0.0007637753049318378 0  0.08507662085945054 -0.03092465402746141 0  0.09106229157348084 -0.03124894481455637 0  0.01067199425480507 -0.04017420497043784 0  -0.02367095154256083 -0.07192598563112582 0  -0.06509524651273027 -0.05856641681039493 0  0.05330484906308618 0.064963800579979 0  0.06150437375126962 -0.05551331862502869 0  0.03314161845091264 0.0450257482553553 0  -0.0264840788694368 0.05858158982716762 0  -0.01733499683498166 -0.07649155728604977 0  -0.02671552033037054 0.0557603570281493 0  -0.002041449406868626 -0.05789358294959995 0  -0.05484568162849189 0.05258491317307732 0  0.02314141612915014 0.03422599820298553 0  0.0236072922828075 0.03690557585310043 0  0.08604912372068048 -0.04422110867367345 0  0.04710646393968737 -0.004651713559933634 0  -0.07308814843757777 0.001906081972004288 0  0.01427731197430546 -0.0688020781585211 0  -0.08511026325626481 -0.02490534449687639 0  0.0187335881412021 -0.06357418047903746 0  0.04148411038102897 -0.05537474498579511 0  0.04178775457402047 -0.05732726172103732 0  -0.06297730362878856 0.03761816832609936 0  -0.06395619645277122 0.03560391387847372 0  -0.06136008645886537 0.03505039080186143 0  -0.07578749626292862 -0.05368639554366302 0  0.09581016168927509 0.005327313019824343 0  0.002412613275600298 0.08977325391049261 0  -0.02472727781081773 0.06187695018353667 0  0.08348356120054388 -0.009125898295167034 0  -0.03972030926472803 -0.06954668657441192 0  -0.03771514412946238 -0.06890090576568322 0  -0.04015359009012989 -0.06723332741834151 0  -0.01324769533420252 -0.03931352742604276 0  -0.08612525768443416 -0.02160565977308429 0  0.06136780674922694 0.03643311835499819 0  0.007818468519696 0.08213976266860919 0  -0.06602689110661641 0.03616491779481058 0  -0.0653546282758741 0.03820231298280917 0  -0.06796389992947195 0.03680709683846024 0  -0.08575101597019483 -0.03419585791443177 0  0.05861574985048737 0.05884640468669954 0  0.06840650974552631 0.03393354851496584 0  0.07030920775901976 0.03309484762699554 0  0.03130792916308057 -0.03718679404301731 0  -0.0517915063842954 0.08553404801155259 0  -0.002683680156149277 0.06639060391315506 0  -0.001849506742556841 0.06851137334050916 0  -0.01738775950368737 -0.05292264342932382 0  -0.01557639368009994 -0.05546489870789994 0  0.01360290563417042 0.08655617652777421 0  -0.08599204930583251 0.007955253949159148 0  -0.04947414269329844 0.06262648695914017 0  -0.05146545449558373 0.06042452540895989 0  -0.05163727718163558 0.06248747172608678 0  0.03950131793089646 0.07842459045314379 0  0.0383805278928091 0.07990197076344023 0  -0.0357527671277082 -0.06797911668484991 0  0.03100485637900158 -0.06172159329676991 0  0.02269425331346425 0.08612611941771983 0  -0.06816678295853155 -0.03259808386377207 0  0.06567522946004378 0.02666028136326573 0  0.06600112288611962 0.02480555992804075 0  -0.006456185883774754 -0.06367979500014205 0  0.06141402335669626 0.01508222576212156 0  -0.02762840649099313 -0.05908223546792542 0  -0.0263925900185772 -0.06157500960992731 0  0.04988891301632018 -0.04707630932120538 0  0.01746731438833674 -0.06116557696082268 0  0.04336558438938835 -0.07411185876655287 0  0.05593981127571723 0.07214506501276211 0  0.003691853660692102 0.04748786396613042 0  0.05114963292352167 -0.07876877312280327 0  0.05012638418371608 -0.07596794343803791 0  0.04927116063707084 -0.07756974869935476 0  0.03831190557037484 0.0856631820843948 0  0.06898044009597842 -0.0583123178067205 0  -0.005444221050924079 0.09749256576272833 0  -0.04409428949081114 0.06691146294375648 0  -0.03716227060762175 0.04328430186017245 0  0.03815398673591416 -0.06611971571085307 0  0.01389518727800095 0.07583442520140167 0  -0.07007731244017959 -0.03405464968873523 0  -0.07106686159265412 -0.03121205576036831 0  0.04397279187719813 -0.008351534934123453 0  -0.06460151752915069 -0.0238822189505622 0  -0.06351172833849661 -0.02662838264550919 0  -0.06256093408462346 -0.02478003895800766 0  0.02157446086225717 -0.08720445264892655 0  -0.009950275840383107 -0.07810130724104707 0  -0.08575446572174751 0.02586033972971365 0  -0.01862688221442678 0.0501150822255309 0  -0.01805879931153413 0.04870857306486225 0  -0.04370595339139549 0.05159678420850496 0  -0.08156822129421115 -0.04097583750725701 0  0.0751889212155107 -0.05542500449969923 0  0.07554082297260112 -0.05280463089931892 0  0.07751770180770677 -0.05463922801517952 0  -0.07889245047645045 0.00877243173015747 0  -0.03973632229921845 0.03506857887663694 0  0.04048434658873288 0.08181753457205956 0  -0.002644059802390036 0.08203905155566116 0  -0.005240136427507473 0.08309777748573813 0  0.08061684559577419 -0.04623856402861413 0  0.08242949155708104 -0.04624137651052879 0  -0.05526026685680412 -0.04820978444606538 0  0.08978427428741736 -0.02340322899328767 0  0.002208401119334691 -0.04337214651174694 0  0.06800016868378285 0.02696435734823312 0  0.02112809372829298 -0.05085437719662662 0  0.02372897002093462 -0.04929518862733827 0  0.02186793364162146 -0.0488258246384579 0  -0.06755453610799762 0.02092583488076424 0  -0.06148961455719382 0.06951955336478934 0  -0.05971098517654683 0.06855009226635034 0  -0.06072792535261949 0.06667363345160233 0  -0.04471764813284482 0.0483431719017248 0  0.04934071666132042 -0.06409410054379475 0  0.07649052750642768 0.001606340088475403 0  -0.07450788648213816 0.03936334289456983 0  -0.005586816214842827 0.06614165622505838 0  0.05980199661685617 -0.06508430170972281 0  0.05873485360238197 -0.06228775041874535 0  0.07642614815013481 0.006621146055335781 0  0.07635596887793952 0.004449511049629775 0  -0.04448845111862455 -0.06519352233876277 0  -0.009745599000239255 -0.0724115000019345 0  -0.0869264614841976 -0.002044879100512984 0  0.07609665729035126 -0.001356689820518279 0  -0.04970532620547023 0.07048636654303314 0  0.03760709333481934 0.02221770603001156 0  0.01399549000862173 0.08948822701631312 0  0.01921937139332007 -0.08111926780430316 0  -0.0005280890180219172 -0.05932296309065645 0  -0.000600247619453471 -0.05639217513435601 0  -0.081435080238421 0.01915091959467461 0  -0.002315658521385533 0.08020820643157066 0  -0.00111997894843548 0.0827672369576664 0  0.03215868279249916 -0.08047789418167832 0  -0.05417433216940891 0.003620011821288143 0  -0.06746865026547567 0.0137234354781783 0  -0.06797736071823915 0.01146045312723903 0  -0.01764635688310047 -0.09452143926922206 0  -0.01796353921296188 -0.09682493651389738 0  -0.001120933395228246 0.06314018262398204 0  0.007576125451825573 -0.07855298984306024 0  0.01015432377555552 -0.07722994480800119 0  -0.04081481512011509 0.01166806888058138 0  0.03791903747439176 -0.02711094935786211 0  0.06326582881295041 -0.06482783052466819 0  -0.07569921044688101 0.00187558019013876 0  0.04643369660480708 0.005477875182919352 0  0.02038268320015696 -0.08322398220321177 0  -0.04295735137674679 -0.02175127626352455 0  -0.04505564514430718 -0.02301209128452591 0  0.07255897736183728 -0.03728881790479592 0  0.0611763298495062 0.05373037344355184 0  -0.04201230575303867 -0.0863070099480262 0  -0.0429818319109345 -0.09028286453351637 0  -0.04142189015017939 -0.08935803505637592 0  -0.04032937942212962 -0.08806746649761887 0  0.03881422333911325 -0.07386969148963296 0  -0.0178883892133775 0.0627596041958683 0  0.008962366871227565 -0.09282473697710311 0  0.01188862627815686 -0.09204122494763579 0  -0.06590981158396089 -0.07519528070141018 0  -0.06416505231230522 -0.07472747502644096 0  -0.06270191841295954 -0.07325039009444775 0  0.09095936755991522 -0.02778538768968179 0  0.0450390912107517 0.05852706182459869 0  0.04727580020689452 0.06000065079751641 0  0.04434697926844895 0.05981848605151126 0  0.06202610126936916 -0.06150485872173658 0  -0.01066659328889911 0.08222526241339959 0  0.0497069787278021 -0.008147143217523845 0  0.08514163182052406 0.01717740682393416 0  0.03144130487846586 0.0819704095055889 0  0.009240038223895857 0.06570123592668999 0  -0.01261565313577525 0.05336763048213748 0  -0.01403129923755462 0.05186436447521099 0  -0.01166038329850647 0.05062724398776636 0  -0.02466855244417769 -0.08168618538838357 0  -0.02826549503653644 -0.08034347698132488 0  -0.0002133678409530534 -0.06237076706441479 0  -0.002706352154784222 -0.0641599059135205 0  -0.0001044639994256767 -0.06455110343530192 0  -0.004083298486067412 -0.0776612290692997 0  0.0839145706180919 -0.02397025334841558 0  0.04320726677085132 -0.06631163535098376 0  0.07676263992137804 0.05837562840331843 0  0.07866236060317681 0.05940642277823558 0  0.07971280769863304 0.05779648855980157 0  0.07885773745818246 -0.05928803018808747 0  0.07656086757279512 -0.05751430355891746 0  0.002841410975604452 0.06080928646926195 0  -0.02515990629916278 0.05125448362955848 0  0.01409017615213281 -0.07185367588412614 0  -0.01847137522683855 0.04653024760433103 0  -0.02211320365858684 0.03693293919919267 0  0.03461721094480881 0.06574442560377598 0  0.03166791979696329 0.06539873974055152 0  -0.01306473325025862 0.0634346005783186 0  -0.0471039861524329 0.07054127711815106 0  -0.04488786626073996 -0.0403791572905316 0  -0.06699838750338517 -0.0374456775937012 0  0.06960097215019558 0.01259085849530078 0  0.06826733045221685 0.01001689992426356 0  0.06816606287551163 0.02270191899798071 0  0.01973526489827653 -0.06000815101407335 0  0.02099697698712778 -0.06555267715504198 0  -0.09612673335438678 0.0179362069508563 0  0.05706172747768672 0.03797184039413262 0  0.05709935736449712 0.03640792366771815 0  0.05496249362265753 0.03596571070131093 0  0.03523766265787275 -0.0666783823025902 0  0.03677364706070384 -0.06507868874850727 0  -0.04458112280000798 0.07363999922041235 0  0.01757939992555886 0.06286876804070819 0  0.06311485748477003 0.07329827274287004 0  -0.09557839395932877 -0.002018910997089736 0  0.09140095377479679 0.01832005604686126 0  -0.0707693448202346 0.004959628736279104 0  0.02791100808641465 -0.06893718493313426 0  -0.0001445686613158975 0.05117309375813411 0  -0.0596151606054294 -0.04020287030917759 0  -0.08060680007162714 0.02902684914798353 0  0.04079559718107893 0.01895553416544086 0  0.03237087697131218 -0.04174773555615199 0  -0.08980975588364183 -0.03490952893656468 0  0.04941070416198411 -0.05617722180284514 0  0.0394115722740824 0.02653321120067934 0  0.04070691498601672 -0.03157329750149718 0  -0.02174995456145497 0.07066526370038048 0  0.07250289232996705 -0.04542831223020609 0  0.00424531399264855 0.07943664163514447 0  0.06250628423255153 0.03278870924359385 0  0.008307580378825338 -0.04176947318096554 0  0.009179201198158073 -0.04014131358435399 0  0.06901333660985429 -0.02989593164164006 0  -0.04231961053571125 0.01452369616167081 0  -0.04369801126500061 0.01526219583979074 0  0.06075176512683282 -0.006120833783477212 0  -0.03942381199022293 -0.02251086787415893 0  -0.004650287337221816 0.067339473615297 0  0.04409788390173208 0.07185075418160232 0  -0.01061813610479544 -0.05391459929796515 0  0.03395020217784033 0.07558337996204113 0  0.02345202667179729 0.06645057173889676 0  0.02248617023596658 0.06383640494972312 0  -0.08099510516579987 -0.008201901678394005 0  0.0391270116912513 -0.06324601528872589 0  -0.02146092403402692 0.04725669505192979 0  -0.08519920913528596 -0.003088966461475835 0  -0.040974572307033 -0.01987588140515885 0  -0.09746522355514861 0.02233749538650204 0  0.03896175361704522 -0.05333686882997867 0  -0.06404493443650175 0.0100346485536396 0  -0.05492188424631856 0.0413664647797458 0  -0.03537830428220264 0.02998413558544432 0  0.07700795604380233 0.0533420487310028 0  0.02355761598569588 -0.05882081903786077 0  -0.0157465811231302 0.04943857465800792 0  -0.01642975666641065 0.05166027148250289 0  0.0009121312353527377 -0.05782122130682886 0  0.02587521802064355 0.09405324205883604 0  -0.07286335501787528 0.04938811328947822 0  0.0425877256001377 -0.0258386926637228 0  0.06388568422323258 0.01169760617353465 0  -0.00914220745656793 0.05008989235269919 0  0.06342605860031517 -0.01256538722452202 0  0.06500844353449488 -0.01507900308720871 0  0.06540670951030174 -0.01284816996482649 0  -0.01179110601328605 -0.04151554702494234 0  -0.01440807021710531 -0.04161163188970731 0  -0.04032832060199524 -0.05363568862571016 0  0.03842424213464792 0.01104672322839777 0  -0.03839141390910009 0.03681487962052422 0  0.05970222495012503 0.07605024694591615 0  -0.02333381059917064 -0.06672569534010481 0  0.05622823049546938 0.01732428998075038 0  0.05458456306354333 0.06874326515292925 0  0.05664460322633773 0.06965403329911841 0  -0.05139798327486747 -0.05453411024300484 0  -0.05035495927842108 -0.04550263218784774 0  -0.0483178478912433 -0.04454902893646773 0  -0.0880049784938156 -0.01175430109758937 0  -0.05514956250686751 0.009577451403939757 0  -0.05319447944605273 0.01189465339202169 0  -0.05273551212930658 0.01017062669755032 0  0.07115347027520541 0.04472647176438899 0  -0.05401214090115249 0.02209875280950793 0  0.07044463188125666 0.06888436544767559 0  0.06866009441064198 0.06702343184741767 0  -0.05564273545302854 0.01111094560819707 0  -0.06694988838068465 -0.02108653543736611 0  0.08456853262989833 -0.03398945495147543 0  -0.03960346824585301 -0.06247746676165532 0  0.07811296067856204 0.04353171214712102 0  0.08038763022208291 0.04379101705997981 0  0.07316665544621401 -0.03273412843511968 0  0.0853253753319846 -0.002362757433754662 0  0.08691181507789902 -0.0009701721146687292 0  0.03028423230721272 0.0413280347030083 0  -0.04659330057669258 0.08301106140600863 0  -0.01414921282837445 -0.05618898681456105 0  -0.03638938630883839 0.07265544878654619 0  0.02032140695288803 0.09188273804459127 0  -0.01561234741142207 0.08681046106912969 0  0.05824920784832837 0.008144998205765365 0  0.05942503302859953 0.01010172935085456 0  0.07740614659683037 0.06122276918903607 0  -0.07690063762079612 -0.05013838454317512 0  -0.04505353034579834 0.08588641751211024 0  0.02017839379244149 -0.03630703153637282 0  -0.01997079888678106 0.05820221740725729 0  0.01593785151534714 -0.08872235838564252 0  -0.08311845997975889 -0.01070686750454826 0  -0.06419135747618737 0.00528726328776413 0  -0.0111491501174962 0.05784751384796063 0  0.06334470442084703 -0.04241003403211584 0  -0.02563605969284689 -0.04559402557040622 0  -0.02813672982654416 -0.04694955109619438 0  -0.02677734219455186 -0.04820277990649621 0  -0.08027908067573183 -0.02249568498561638 0  0.03314071846529323 -0.02738206327841847 0  -0.07434876051881999 -0.06471554715017802 0  -0.07335258802739014 -0.06288066851039258 0  0.07394468036189136 0.06730986368263432 0  0.03556156281083534 -0.0290579974123776 0  0.04824328855968713 -0.07480914795173943 0  -0.04332020421498665 0.01034321013929931 0  -0.01923179400154248 -0.039628874568668 0  0.007332464249260319 0.07265406106992871 0  -0.05362260033985786 0.07319782016931618 0  -0.08191187754141924 0.04289504237531658 0  0.0242041394667415 -0.06615057446218436 0  0.05009703164792079 0.004850248333978215 0  -0.03062315488409828 0.033098458826109 0  0.06824889930103029 -0.04369484702156977 0  0.03937443057575165 0.05996487024597765 0  0.04024741816236348 -0.04190763337075137 0  0.0359190830204603 0.04314594062979458 0  -0.05824851429566078 0.03533947624766996 0  0.08656300316972777 -0.009535396054104018 0  0.002938814919326343 -0.09076496858595119 0  -0.05657758556064461 0.06478648108933262 0  -0.05557090780737532 0.06586123862092426 0  -0.04556671515788257 0.01425163162469838 0  0.05521499762882485 0.004896029464639762 0  0.07907711940962263 0.005118798730693892 0  0.01675805149892062 0.09377689028229513 0  0.08499258486992665 0.0377567076264298 0  0.07299255914937974 -0.005911296576853123 0  -0.08666091491928628 0.04243428363516699 0  -0.08732662299590806 0.04005542419634667 0  -0.04597299418436567 0.02181203853260148 0  0.02185180075561802 0.08052583557806509 0  0.03892312475850256 -0.05516759188668335 0  -0.0536179897528514 -0.06529406398106927 0  -0.02222775541483239 -0.03917235816914098 0  0.05941752318729158 -0.06030748191481093 0  0.06084230089460457 -0.05999114522567399 0  0.004861720863833972 -0.08344109860827718 0  0.005074652606739493 0.08300008520475069 0  -0.045599519702103 0.01006912449628251 0  0.05765937365534773 -0.03206596162127729 0  -0.03409254272749834 -0.08277782110467152 0  0.05482154450504459 0.07696362173022975 0  -0.05239248092531773 -0.04752634612625967 0  0.06414728001131753 -0.0271194941357768 0  0.06235085904840037 -0.03928750488235944 0  0.06718308100237941 -0.06411102202483615 0  0.06428405768339913 -0.0637803996979821 0  0.06882952016667544 -0.06347676467143508 0  -0.06380126092534198 0.04797031337921591 0  0.0164829298491422 0.05779842356618898 0  -0.06275442317515943 0.03075216785282904 0  0.03319945237572056 0.02227664336607152 0  0.03469529852442281 0.02247304081146481 0  -0.08185126660650416 -0.05482770933386725 0  -0.0796829401367932 -0.05348149027591445 0  -0.07889084326560802 -0.0522228962136842 0  -0.07742043668257638 -0.05229221505049735 0  -0.07897492318201881 -0.05538269285046021 0  -0.0222223889224981 0.08585902814804641 0  -0.0210383931149041 0.08401382232741 0  0.09740763179399119 -0.01492690872485208 0  -0.0445291401462679 0.01704613715877804 0  -0.004867316106351772 -0.05875618080611596 0  0.01075729023881101 0.05270554485390017 0  0.01109455682281494 0.05125828809758442 0  -0.04648953892540833 0.02679215826211865 0  -0.006873291344142563 -0.0409488763881801 0  -0.004693563238818172 -0.04126380385245672 0  -0.0192772972190836 -0.09811635600002788 0  0.02202253778994797 0.05900415271452314 0  -0.06813606804369457 0.044667599778486 0  -0.0686756857686296 0.04255269265260156 0  0.02072790721093148 0.07006753703596219 0  -0.03706423478042234 0.02263524750790228 0  0.02069032895664595 -0.08546196721893499 0  -0.05247228016982161 -0.04361413781192629 0  -0.06534280629911848 -0.06999096011540407 0  -0.06762116655099053 -0.06962467064645241 0  -0.06747580457604264 -0.07185751512207032 0  -0.07257811114407065 0.004307337797022695 0  0.01203854386184533 -0.06868414286923964 0  0.01070341326294447 -0.06958357582705277 0  0.01265905194582831 -0.07167983586142825 0  0.01235157859091477 0.08517619786627038 0  0.01095073039169726 0.0858062745586574 0  0.04609847119333766 -0.06854396426437384 0  0.03824115942633738 -0.02513626702387142 0  0.04590075136891918 0.0533907187642691 0  -0.05284770210972038 0.003036871604451635 0  -0.05167236808180373 0.000420874515068308 0  -0.07291066425333335 0.06616239192191226 0  0.01587484174091442 0.08921215287631168 0  0.01456684882025259 0.09180516147886897 0  -0.05513829704790291 -0.08150215823939939 0  -0.06977973779694428 0.01901628801468948 0  0.07965824489826534 0.0006883556798691447 0  0.02694287951821234 0.08593375325398699 0  0.04180865216584395 0.03947729622768825 0  0.09487548326582879 -0.0266291576804007 0  -0.05831635373206788 -0.06211231345341686 0  0.07477658237844413 0.02781638233574293 0  0.02900321249957346 0.0673862156592714 0  0.04346142510041825 0.001901430954680391 0  0.04393436036851733 -0.0003661969422364323 0  -0.002604934808224829 0.045697206839126 0  -0.08380735917257696 0.03007041599646186 0  -0.003663098432383281 0.07396410599408158 0  -0.0008374056809038479 0.07327292447521064 0  -0.002012063877268195 0.07465659224402912 0  -0.05205298807603632 0.05346206278252481 0  0.0754996951377261 0.01525326521149879 0  -0.0442886401132128 -0.05669380750480679 0  -0.05623192772087233 -0.04118893714483692 0  -0.03901636726535509 0.05760568058390578 0  -0.02570094897854667 0.04493783696980672 0  0.08536141121919294 0.04925368779270553 0  0.08407540354410292 0.04739690211097843 0  -0.02120523328329738 -0.07361352516542703 0  -0.009400770336013433 0.09602335973796101 0  -0.03806905621287153 0.01896624111619245 0  -0.05121215773823302 0.03356736638579286 0  0.07826466140576267 0.02602341874325334 0  0.07758210223829606 0.02869142448594391 0  0.07630769099124457 0.02626175235063554 0  -0.04542625471279765 -0.0117761250675048 0  -0.04953908118316809 0.05491841628552856 0  -0.04933030930233923 0.05736682031667276 0  -0.0516830563087523 0.05640543652709599 0  -0.02011429590828457 0.06709721762455162 0  0.08252257687197476 -0.001838253618057763 0  0.0270393998420174 0.09307126365987152 0  0.02876421599876948 0.09428579181242902 0  0.05171793065379759 0.07664265404630775 0  0.05315450105400131 0.07478718696884226 0  0.02511286595978449 0.05206469109918541 0  0.01038176657110008 0.08081376094987749 0  -0.03040529717899204 0.04202164477853923 0  -0.04383190452306508 -0.03019127715233989 0  -0.08028473430952204 0.003143303250634337 0  0.03938167743317636 -0.04620061595139063 0  -0.01264634730603989 0.07692909374313089 0  0.04175286694619686 -0.08389248797563963 0  0.009836960523428702 -0.09396811093841985 0  -0.09825381223239758 -0.006095314664866573 0  -0.0997103375631071 -0.007502138751604781 0  -0.05833162258413319 0.01648698478761852 0  -0.07348361456237672 -0.03521079171288897 0  0.02486160241476474 0.06522239216310774 0  -0.01827884188326729 0.05391928225737356 0  -0.0795240359555229 0.01555937464528557 0  0.07220899682577266 -0.05554026743567813 0  -0.04693815926497348 -0.0382799331624753 0  -0.07292225027396304 -0.008267627895363078 0  -0.003518907243367057 -0.08733725185396425 0  0.03319945237572054 -0.02227664336607154 0  -0.001439959435576531 0.09234093317236444 0  -0.03527382561268038 0.06716095555978641 0  0.03316346220646699 -0.04612590443292555 0  0.06594698045971378 -0.06527005577285692 0  -0.09687558032386459 -0.02477005126582414 0  0.04170169872674951 0.045628928719863 0  -0.03260851126141862 0.04817528379244619 0  -0.0008962057717657578 0.09850972973936169 0  0.04144748794769196 0.02148051349897291 0  -0.02470966737036303 0.03465382302050258 0  -0.0198906318486769 -0.06623768411541364 0  0.06363319013386437 -0.06683870278083552 0  0.0610585521092579 -0.06698446576764278 0  -0.0992099610140979 0.0124826735268639 0  0.03546847119306303 0.08339065835369952 0  -0.07679875884566555 0.01677442184231659 0  -0.0491187581037957 -0.03820007051468235 0  0.03029644899067797 -0.07372806192649704 0  0.04206346184781086 -0.08609457744204226 0  0.001330276365839993 0.07168409608568672 0  0.0001868293148973722 0.074308133907311 0  0.0009567244852347676 0.0756093064138818 0  -0.05900227259507752 0.07096495043829182 0  -0.04328151876738724 -0.08388051548772515 0  0.01061796980876348 0.09942681841403396 0  -0.03982556364616569 -0.07234729249269646 0  0.01060265988933499 0.06513645865503297 0  -0.08103186508915894 -0.05624284102538987 0  0.05851311789145123 -0.06760102105535971 0  0.06169687963151698 -0.02440273006200362 0  0.06188219081512411 0.04983460195614382 0  0.05663422613206409 -0.01572534186274779 0  0.06575611328368419 0.005830141244214805 0  0.05869459296723462 -0.05133623211859466 0  -0.04238942521290465 0.0474482339597922 0  0.009128543200893914 -0.09563378648174256 0  -0.01189124171955706 -0.04708411239829983 0  -0.03810244647925708 -0.0802403095579793 0  0.06212282924314754 -0.04395726261684207 0  -0.0945440537277845 -0.02779284008176103 0  0.02312258020544601 -0.06134560681488978 0  0.03738864860539176 -0.08846262344320081 0  0.05794179577093369 -0.07243088889760299 0  -0.05806291675444016 -0.08140719379000882 0  -0.08793406458557573 0.02830850636498705 0  -0.003357479234149176 0.06150608673549057 0  0.04721081791844137 -0.008977073231268038 0  0.03618987909257062 -0.06983013733634599 0  -0.08581898713363005 0.005981555425138067 0  -0.0348061982058322 0.09017367013709317 0  -0.05246862361304348 0.04672661727160304 0  0.07918885126905585 -0.04564396768732396 0  0.08502945910548507 -0.04686325709086669 0  0.0732376392523517 -0.01026061138103722 0  0.03336453370923024 0.06700255250490551 0  0.09267246138745054 -0.0282924936649918 0  -0.08465300406704272 -0.02773651632957319 0  -0.07247174336753071 -0.01739987246830172 0  -0.02820679196893429 0.0680709592667198 0  0.08263987764870276 -0.006556344756243936 0  -0.05669009698788707 -0.02805701763112289 0  -0.06882313337566048 -0.01910817218121457 0  0.06724889813007874 0.02953608206990046 0  0.01109012371944653 0.0556880834386473 0  0.01215347154250935 0.0576866266343543 0  0.05870402236682603 0.04243683714934678 0  -0.01617730889028386 -0.08118294436103304 0  -0.07097587831477495 0.06281122281153886 0  -0.06865630073881156 0.06209481551961756 0  0.004733262016386532 0.06393304418839789 0  -0.07427667527530066 -0.05620914525226134 0  -0.07384344405438241 -0.05449936739472183 0  -0.07166554250058993 -0.06490504855491415 0  -0.04360437200245286 0.07739482479372488 0  0.03008844554989569 -0.09060173659332232 0  -0.07430059984220649 0.0493460236938124 0  0.07476780304856061 -0.04008831817507765 0  0.0781316993215289 -0.02834606639131625 0  -0.02925419078049638 -0.06749928155089409 0  -0.02959467084772319 -0.0697340550428576 0  -0.01045782067196173 -0.04901657109619992 0  0.00985951269393151 0.09821792567645911 0  -0.03603072867859164 -0.06545441720627533 0  -0.02605393887592891 0.03206596075980353 0  -0.02673082163866582 0.03399097672862298 0  -0.07774335852331662 0.01332765577964671 0  0.02357484381296139 0.09336288454259782 0  0.04539163401655616 -0.07590394854770788 0  -0.01838084230870163 -0.06150805924996517 0  -0.09588066124003065 0.01093901093314327 0  -0.09787551740513052 0.01128109829233972 0  -0.02834733863890725 0.07485237164018235 0  0.07867503886273665 0.03927967221051366 0  0.0361587802659719 0.06367464395228382 0  0.04967364305200477 0.03056704258251107 0  0.01886274173412624 0.09469499002150075 0  -0.01332996316065871 -0.08065481837785167 0  -0.05927441801188894 -0.05064940438278287 0  0.0463121593760195 -0.03860477886729182 0  -0.03482784746420429 -0.06978141553596412 0  0.02001596063858996 -0.04136381357984224 0  0.01388450446898202 -0.09063560214589589 0  0.04350643938172012 -0.05095534749718186 0  0.04541988797846 -0.05319410328607987 0  -0.07630145623067207 0.02994889749071519 0  -0.08351132573812033 -0.01779433620383164 0  -0.08376145243847198 -0.01989042026411389 0  -0.08567495908614238 -0.01966306210781415 0  0.01852762359581857 0.06595557151493403 0  -0.08777636618800494 -0.01917968183992591 0  -0.09047103328873973 -0.01008144372178309 0  -0.07054312913025414 0.02660087007455819 0  -0.06943374265615024 0.02480748936575735 0  -0.03491927371934841 0.04720114479516423 0  -0.07092082513011848 0.04372552871540906 0  0.05558306000582099 0.05871960047331726 0  -0.045748892225308 -0.01844736277312034 0  -0.04999615406710479 -0.07120131044091024 0  0.003234344966710231 0.05601382083068062 0  0.05454732772565348 -0.02801665632125833 0  0.06518892042683838 0.05508801181332169 0  -0.03568149804620883 0.04536136375640977 0  -0.04177208024884276 0.06663631473283183 0  0.04050290611466788 -0.06528918980195729 0  -0.09235014835471195 0.01258845645747061 0  -0.002489374406332867 0.04311910249048298 0  0.02983609064257266 -0.03105236160180131 0  0.03607811217852618 0.07374282585285484 0  -0.0139483111966772 0.07634652220510335 0  0.08974261301188174 0.01242629992450235 0  0.09222646142020155 0.01124174013455167 0  0.09246814097234561 0.01269618680610614 0  0.08991356857386294 0.009563990926854138 0  0.03193545502058823 0.08591448643415374 0  -0.08016856174027671 -0.01576545248933127 0  -0.02752280418516917 -0.03970567645365784 0  0.04511668418221127 0.07401580608758546 0  -0.05660087481679666 0.01825235641583908 0  -0.04448249085894323 -0.01284626713901622 0  -0.05675312959360362 0.05383263347832121 0  0.004942240133262304 -0.07585023423723244 0  0.003862287552038149 -0.07358431422363257 0  -0.03932680734604215 0.06217655840121002 0  -0.05873990380944543 0.06190200014231038 0  -0.03058735656351429 -0.04541538356267225 0  -0.05206325774582796 -0.05037894372126057 0  -0.04081991474719527 -0.0376425433326513 0  -0.06343504438062759 0.05961666321887902 0  -0.03673920204717715 -0.02281110574911546 0  -0.03676927533695139 -0.02481399631389516 0  -0.03464796225744546 -0.02265850114887413 0  0.04657320944018854 0.07776517530566218 0  0.05937482932278042 -0.03991538120488011 0  0.003128320699817736 -0.099943219441822 0  0.05480570973336556 0.003061617590628505 0  0.0557210859322814 0.0003322538013259206 0  0.05668392251695515 0.001929195661849664 0  -0.03518399750867186 -0.0758599997966935 0  0.03218314951153704 -0.08258857760841751 0  0.02984296994572073 -0.08420949749952605 0  0.0320347168695401 -0.08461863347107193 0  -0.06786636269328924 -0.01609958760612143 0  -0.07374811824977186 -0.03120659088332211 0  0.02896352934152202 -0.07245369519403441 0  0.06486168111408974 -0.06074373897851724 0  -0.053748862954123 0.07923126703033313 0  -0.05308946109331433 0.08052241196632555 0  -0.07708247960669146 -0.02358463508870376 0  -0.0498212547679461 -0.01635982081716896 0  -0.04929641268122493 -0.01374949764347638 0  0.063554363931678 -0.008673220239036562 0  -0.02044210379520715 0.0610875751081506 0  -0.03806210407737427 -0.0122363683709671 0  -0.02913782386369936 0.08239735257718531 0  0.04442584023750831 -0.02043515933566405 0  -0.008438551812224816 0.08786411285100681 0  0.04742933969387141 -0.07052173890273977 0  0.08069923793017358 0.03722535046011129 0  -0.04656323347161663 0.01608897279873493 0  -0.0578013412524413 0.05284603150352443 0  -0.08525935218785266 0.04595147728568479 0  0.05596854477409067 -0.06029317963856855 0  -0.04207419105445865 -0.03164014190232207 0  -0.04045033062682901 -0.0300124134386851 0  -0.03504821561056857 -0.086826783323629 0  0.02047955504036001 0.03612244161354958 0  0.017082152744136 0.0911536414828823 0  -0.03858751717491814 0.06941185983687805 0  -0.03839989060339501 0.07226196259227662 0  -0.03992102512675508 0.0708277575894508 0  0.006895944975666217 0.09834461539452916 0  -0.07104947904379498 0.05335592891156231 0  0.01759868444965888 -0.06260281267818098 0  0.02615171039282232 0.07940274281745259 0  0.02735258538676157 0.0811286642448167 0  0.0499481731632574 0.002915449162676338 0  0.04565732952334682 0.0644567056665812 0  0.07320557830561822 0.04427088052862121 0  -0.006505479816290675 0.06260952605179942 0  -0.03556469817448885 -0.08507997389828835 0  0.07971428191914456 0.0481648479603567 0  -0.05870855019575862 0.0214041337211448 0  -0.07207111895094497 0.0472808348768699 0  0.08748729742702099 -0.04570052525332891 0  0.0865403481591441 -0.04711014522361959 0  -0.05995008085848013 -0.01219384005837278 0  -0.06294434290270833 -0.01624828332960565 0  0.02548668421883182 0.03263214458610494 0  -0.01166896498732447 -0.04302181383674605 0  0.0314142124576865 -0.0711382091788261 0  0.0260254477513665 -0.0543326907950853 0  0.02735549787325422 -0.05668243720918183 0  -0.01251081014535826 -0.09621474493991286 0  -0.0152024468522236 -0.0973228366366027 0  -0.01310669210509944 -0.0976510880743036 0  -0.03192812654988017 0.07893218101897628 0  0.05721593662714528 0.02581023176126521 0  0.08296261855018661 0.03565084594641281 0  0.08324426567719839 0.03757321651756584 0  0.03181327274002674 -0.07394900104419609 0  -0.03369510502428585 -0.06715993538682664 0  -0.07341590353411669 -0.01933918952968972 0  -0.08041369345012013 -0.03836229115129444 0  -0.04501024505412295 -0.0694838999856586 0  0.06408766687796653 0.04445203654794899 0  0.03211624539910962 0.05588952824940574 0  -0.009372714193755106 0.09955192480027333 0  0.0459509577486909 0.08524715882946216 0  -0.04791761322204952 0.08611752332152671 0  -0.09021100364852025 0.009384132820787575 0  -0.05795222038598118 0.06746904610568311 0  -0.01016751882202937 -0.06122711920439011 0  -0.0837439774297464 0.005306145958455953 0  -0.04542268493213893 -0.08108683906308556 0  -0.08122149809222161 0.05360508836900772 0  0.0960569984454169 0.008920354993041838 0  -0.06847620431238931 0.02320680593814189 0  0.09520763589549024 0.0192094091566373 0  0.02349793199219708 -0.05520324372085766 0  0.06961145556101135 -0.04751698076495654 0  -0.09038144778452702 -0.004960188031471472 0  0.06952005779302041 -0.01805293613323094 0  -0.04723901724016702 0.0396627861824643 0  0.02360621394268521 -0.09353333864568641 0  -0.04416283269274861 0.02716741137772405 0  0.02547676921685696 0.09111202150518688 0  -0.05801909887418989 -0.003968857327390718 0  -0.07303771309116196 0.06346887856620631 0  0.07722050320229409 0.06352501387628015 0  0.002037381880765572 -0.08254373326941122 0  -0.04293597529740075 -0.05507500057396359 0  -0.06184780011437013 -0.03793040248513705 0  -0.04913945384790826 -0.01887954592878693 0  0.04317007815806672 -0.0309500224586063 0  0.0430812040321544 -0.0330480194905944 0  -0.05429703723847427 0.01919088023324876 0  -0.05298905647005425 0.02041921564840838 0  0.0571406924971017 0.06748807771671912 0  0.02324622852302062 0.04195341028257388 0  -0.0846477905958142 -0.03141116468436252 0  -0.08366469769623018 -0.03264615972023328 0  -0.06148216310409782 0.004015133255379411 0  -0.06026755542907863 -0.02309375538840154 0  -0.05980324572847968 -0.02169877854156866 0  -0.05742347105438195 -0.02242818289593774 0  -0.07352319605718734 0.04485478251380125 0  0.07624293819245383 0.03025214700850999 0  -0.09220981890713607 0.007257944551813187 0  -0.09488599254796554 -0.02374826560398877 0  -0.08198812213708029 0.02538822983317392 0  -0.05391619705639192 -0.08421090901880475 0  0.03242240345734502 0.07187792722160848 0  -0.009667913898092018 -0.04030093349605503 0  -0.06109577009210162 -0.06874527223942928 0  -0.0601663803709782 -0.0698479841891135 0  0.04916595807369298 -0.002536580845849328 0  0.04957096745167518 -0.004817663894572289 0  -0.04734017460557381 0.06769888680133215 0  0.08343918470364242 0.05126502590213734 0  -0.01058329098658469 -0.08840223967900622 0  0.09215968206941696 -0.03266383038912257 0  -0.04926879982892766 0.0723545863599873 0  0.02545562116828535 -0.06123662543770208 0  -0.0006435796364647436 -0.04971507067449359 0  0.06007695064310064 0.0324537660737252 0  0.02435135019889084 -0.07106287555667369 0  -0.02038006282869737 -0.08576221940217983 0  0.04282226771275281 -0.005952537997321835 0  -0.06184267330932155 0.02452916660464587 0  -0.02941952627476926 -0.03192724487267058 0  0.0003172920061233916 -0.07579237719146914 0  -0.00186014083767273 0.09370318987878962 0  -0.04601038479339245 -0.0090723405502232 0  -0.06002516559871695 0.07814687174519118 0  -0.05830553907123071 0.07939346888371224 0  0.04466260662496071 0.02029992786180546 0  -0.07972778504988622 0.02325387290118731 0  -0.01082241549521408 0.09243183102408956 0  0.01965426241716174 0.08061741413799768 0  0.003121409878771789 0.04481872838029445 0  0.01261034152663105 0.05056353392813567 0  0.04256082272963804 -0.04745813823460254 0  0.0407518592864585 -0.04652949587679878 0  0.07915396273795031 -0.02544270324128853 0  0.06976119517041343 -0.06074517490330841 0  0.04693515154383088 0.07519577690239081 0  0.07883668177355307 0.01477643350725247 0  -0.03286564682759505 -0.08871696167197965 0  -0.05391619705639189 0.08421090901880478 0  0.004807069801972654 0.09136394386266027 0  -0.02003135524942032 0.07746568422390639 0  -0.008028397556747363 0.03916627771920238 0  -0.02966658584820957 -0.04786182378232352 0  -0.06223670149432468 0.006702825804250243 0  -0.06393686041613139 0.00860038930079346 0  0.0963388970271412 0.0005975965868786283 0  0.03335752785549025 0.06980144681046627 0  0.03688152142712151 -0.06816621924339393 0  -0.08226122884573489 -0.03242593819777571 0  -0.03141167943618611 -0.08080533405838203 0  -0.01962724770057075 -0.09128342685767514 0  -0.01945392904840483 -0.08840580878992642 0  0.04728145401453535 0.06853797675569955 0  0.07174813823665355 -0.01237017343709067 0  -0.06490751339458493 -0.04073565277900196 0  -0.02737075440641529 -0.08202528370230548 0  0.000289081615952765 -0.08969739645541323 0  -0.0630804014935179 -0.03083083883379246 0  -0.06026813132281912 -0.03049927702281884 0  -0.01361911660742632 -0.08998222502843324 0  -0.01831523872374506 -0.08722645804868005 0  0.07248209093691217 0.009361686510009848 0  -0.05733269695886755 -0.03865662844241658 0  0.03318139247781973 0.03458398831413737 0  -0.01914603763263447 -0.05082593167128781 0  0.03744815629485163 -0.04751075615573744 0  0.03701074588068569 -0.04502591165190423 0  -0.02012529943345341 0.08682445097785073 0  0.04516722840955815 -0.04050911685746264 0  0.0379691471536298 -0.0578532280722457 0  0.02859513846570974 0.03887421061405907 0  -0.05431841719406578 0.06163613578676957 0  -0.04485424223242836 -0.005736999843531068 0  0.06370833177917888 -0.001230445915094325 0  -0.0506637781509342 0.06945880598332545 0  -0.03793483839303362 -0.01909805638156932 0  -0.02247873821418927 -0.082690506192198 0  0.02316942809507063 -0.03420281763130587 0  0.03414945603551562 -0.08055830375827466 0  0.0198496482295379 -0.08824079515751448 0  -0.01927729721908356 0.0981163560000279 0  0.04167601460284338 -0.06298885684370507 0  0.02334531355156836 -0.08503688026938383 0  -0.06011570384568263 0.04381963150157325 0  0.06230874589494587 0.03072181881427413 0  -0.01539911821188472 0.09213904434897577 0  0.02742715419939362 -0.07426625885801635 0  0.07593226483453168 -0.00584571980078604 0  0.07684306380998161 -0.003182631590922185 0  0.07496043745291597 -0.003970762659708039 0  -0.03685651536115681 0.02402322538228416 0  -0.07555978980539686 0.05261322282973874 0  -0.07024119102595186 0.04820856598439275 0  -0.02537933372287335 0.06753625712238319 0  -0.01085963512150431 0.06636467586288297 0  -0.09074113715920323 0.02751359209588371 0  0.06313602998583717 -0.07124061520784135 0  0.07839488255927256 0.02416387045457476 0  -0.05628260330288316 -0.06346153362870907 0  -0.07517607336375309 0.00682653832017888 0  -0.00538237138370639 -0.07061403845817769 0  -0.04453359396034112 0.03987972945211359 0  0.06316547187770194 -0.03070917012866773 0  0.06203139226765738 -0.03262999031229609 0  0.02848957098662414 0.02804989880026271 0  0.04811518560777296 0.08607936541054 0  0.02086307043482259 -0.03856135782137377 0  0.02192802802207692 -0.04087939707961111 0  0.04634076213275021 -0.08860568417292969 0  0.04634291113543117 -0.08717106255421862 0  0.0450184164603013 -0.08779160339168098 0  0.09414431229058778 0.02385953312614306 0  0.09383772725177156 0.02105283087054508 0  0.09266393356709617 0.0225538405464149 0  -0.03616910499485675 -0.03128513352687962 0  0.067278949224159 -0.04922313434917123 0  -0.03673639142290286 0.03925069228301862 0  0.06810372176290315 -0.05179299045603156 0  0.0701955689548777 -0.05300771011967578 0  0.05502743284551558 -0.06481019116960499 0  -0.009383947740450647 -0.0753470089124658 0  -0.008594347448460037 -0.07662900884829443 0  -0.004529733159717933 0.07989391383834699 0  0.0452643907586619 -0.007758241872065384 0  -0.00778415815456231 -0.04855272834420707 0  -0.005333787613628883 -0.04730998575997516 0  -0.006563213630955686 -0.04613654031428897 0  0.02847166718057268 -0.05553930532308037 0  0.07781741053814541 -0.0005545104087841639 0  0.08099870533055059 0.03582071977024163 0  -0.0753045107888225 0.05031810382583082 0  0.005941523148051808 0.06574699681180794 0  0.0711727290392167 0.0205568904051303 0  0.05241737138936439 0.003360171145457058 0  -0.005577914116157462 -0.03958963692457468 0  0.07703675813401244 0.01712708271867177 0  0.06800078472266385 -0.06707415394554812 0  0.01412824352305709 -0.06649258452393488 0  0.02634832308227695 0.05011087461672797 0  0.0500419552470954 0.01068023403854481 0  0.0498798518845893 0.03508659865490528 0  0.04195955361924908 0.03808491755992992 0  -0.01648778270415137 0.07632343672853423 0  -0.005192264295721516 0.04300844147925594 0  -0.004367460977954987 0.04118522320517035 0  0.00694677064805535 -0.09445473740204054 0  -0.0279352148442104 -0.06543805392131838 0  -0.009367153724868484 0.06885865058012533 0  0.02537582443128127 0.0967186695381501 0  -0.0158114977040704 0.04771989807940803 0  -0.02081280516143932 0.07908408300545411 0  -0.02341071584672251 0.07982628525090579 0  -0.02157340330892713 0.08122510957883242 0  0.04626983524713926 -0.0008354595456650572 0  -0.09753181854531089 0.01526562491532418 0  0.0804363979164331 0.003421796798289237 0  0.0501471149681172 -0.01090583571918085 0  -0.08705252868982485 0.04620670861954145 0  -0.08559080928160748 0.04376624327885482 0  -0.03517514988235021 0.06986563350824805 0  0.03525231948988708 -0.06187711378286032 0  0.03381945893597126 -0.06238123618087254 0  0.03628541032411427 -0.06364713210750464 0  0.08610646547653888 -0.01297323606071764 0  -0.06549668760694513 0.07377455194483465 0  -0.03634145807399477 0.07806353553952815 0  -0.04454665959262639 0.0001317082836746085 0  0.05443563694862889 0.0105146400322221 0  -0.04411285765438282 -0.05067987142024241 0  0.0531524839806123 -0.02397092066159713 0  0.08390657974637175 -0.05175453384590741 0  0.02829975993097526 -0.09286405853251867 0  -0.0373420458563356 0.03079807601962233 0  0.03113673999230935 0.05095870641058219 0  0.07390810020514399 -0.002416350441390784 0  -0.009358232405080788 -0.06339936607012185 0  0.08295001376433937 0.01698015790883801 0  0.03980670938993742 -0.003725367800894791 0  0.0313766815868936 -0.03888972668731213 0  -0.0332114338106735 -0.05202865621874586 0  0.04882354967500771 0.05296953862247181 0  -0.0799297741169349 -0.006859047070015139 0  0.04902666409813298 -0.01823367100346528 0  -0.05634086924459518 0.07831812370182446 0  -0.01374514512147907 0.04093303191583171 0  -0.03813733224147414 0.01606359554998441 0  -0.03945523790122493 0.01743771139942822 0  -0.02375012042954918 0.06966282338670104 0  0.04222617416658005 -0.01766058264754145 0  -0.07498690373592522 0.02220696806145261 0  -0.002741600275249779 -0.06969261461972064 0  -0.01744096766063729 -0.03771601499008456 0  -0.04169571296603693 -0.07141739749585697 0  -0.02468303453566329 -0.0914771347794857 0  -0.04160106173899764 -0.02411740383921172 0  0.06406652642371558 -0.01770778797239701 0  0.06199813549677059 -0.0193634737492243 0  -0.008954222445949976 -0.08490257721870238 0  0.09960863085092603 0.008749523575660717 0  -0.0586699737960943 0.02373838382853924 0  -0.04691864976952658 -0.02676102934719076 0  -0.06129257816484514 -0.07540919417696322 0  -0.06222143047569616 -0.07647439728091819 0  -0.06400702446434187 -0.07682144441507358 0  0.01620043461689933 -0.03980176749369121 0  0.01574458398831654 -0.03838480617532911 0  0.016299456446315 -0.03650726225371544 0  -0.08868076831615072 -0.04243143488873339 0  -0.05406401555704125 0.03276498422920424 0  -0.03678902983540665 -0.02778718170627268 0  -0.03609023055168972 -0.02943347617157097 0  -0.03863090041700504 -0.02986260113794512 0  0.01619303097332777 -0.05269732041708507 0  0.05610861772823263 -0.03437112084604532 0  0.04211085047178503 0.06084164676985703 0  0.04196949113396287 0.06361975880627968 0  0.04050835063756827 0.06182884061064862 0  -0.0460849610095501 -0.02938681583252792 0  -0.0227968602276081 -0.06258577855938743 0  0.09213590204537216 -0.03552762559534427 0  -0.07161790095723354 -0.0005401985842968363 0  -0.03443456456830334 0.02297200436026705 0  -0.03387619375322921 0.02123336936288138 0  0.08048495013094348 0.05492510705786623 0  0.07664055191045235 0.03724738135596816 0  0.07866109581107292 0.03727889465183677 0  -0.02969372537904379 0.09255267194807736 0  0.06981925995099997 0.06429800980376231 0  0.04675810170728344 0.07244891671423416 0  -0.07948994356736594 -0.05050523355505277 0  -0.02175763766224216 0.03354187951003129 0  -0.06496360253625287 0.02506010086644474 0  0.02299730236554332 -0.03661350569606447 0  0.02496175649923232 -0.03620114786880644 0  -0.02689145145359638 -0.04490712170036592 0  -0.09431262651203595 -0.004588095202371207 0  -0.08162959801874357 0.01271322393858124 0  -0.08389427847975833 0.01258543573303918 0  -0.0389900285269235 -0.0734747083432039 0  0.007187586300966109 -0.04762846586261886 0  -0.08245347833902014 -0.03905917671811824 0  0.01190656379627976 0.05367735630816952 0  -0.06253371815911225 -0.02932015678241894 0  -0.04648240256042861 0.07753504908165351 0  -0.07610198294174081 0.04599110267015995 0  0.05518435956051145 -0.03275470525017737 0  -0.05599090830606047 -0.01496536379334714 0  -0.05933488894592685 -0.06680115493725432 0  0.04180903939517107 0.07929030434519495 0  0.04304819190717095 0.08039361084629282 0  -0.06081653289990376 -0.009440463820274156 0  0.04520842033188292 -0.005808061463380875 0  0.006806448235992836 0.03939701435537502 0  -0.04649626252207262 0.002037178654560727 0  -0.09248839460195596 0.03419676591127312 0  0.04834200170881281 0.0139761812657159 0  0.07487396588156374 -0.03813687189751822 0  -0.06086590650147086 0.05995790336205475 0  -0.03351561201020121 -0.05654462469672432 0  -0.02382778527195801 0.08448535307849632 0  -0.02267091493593599 0.08291815267536363 0  -0.02430462363665564 0.08175124544709172 0  0.08647469594065864 -0.03614472193081551 0  -0.03718967590919781 -0.04108076414783961 0  0.06199539628226672 -0.07045262119032726 0  0.003865446849760899 0.05325575921874014 0  -0.02658436559360051 0.09639349048967408 0  0.02467691002343998 -0.07684022467839327 0  0.02261530437361994 -0.07665879576060942 0  0.02266576241374543 -0.0749271515084854 0  0.0103539545241342 -0.05898659245420725 0  -0.0760202485831165 -0.01375597023126484 0  -0.05133943551194078 -0.02132553722387729 0  0.05450557417455996 -0.007592877414594764 0  0.01673143118599033 -0.09578902906847635 0  0.06500805888306571 -0.0003876389505906964 0  0.06038670957558897 0.07328385725088286 0  0.05856931401876955 0.07421777801699501 0  0.06137659633334039 -0.01058122257341622 0  0.01332832802288444 0.06862317344339867 0  0.01712186888104375 0.05088982387217696 0  0.0809307545812902 0.01110831477385296 0  0.02489031200528644 -0.07875157920096282 0  -0.03810013456680039 -0.04608688029125771 0  -0.02733185394730735 0.03582909631347941 0  0.008892628782661078 0.09640871267854632 0  0.07058653426794165 0.06616828925564106 0  -0.02458118560571955 0.07900248558632636 0  -0.02386031039327462 0.07711673645019212 0  0.01343250664215267 0.03967814453575415 0  -0.02760344208727322 -0.02892235230131583 0  0.08136413993096056 0.00677537814860883 0  0.0817776999701523 0.008432834079470914 0  0.08486201530417105 0.009576950768498384 0  0.08403633844954599 0.007589445476553705 0  0.08263853881059907 0.01040372961918653 0  0.05222681871150106 -0.005917655881767599 0  0.02271561385890135 -0.07332505478822995 0  0.07949444544259217 -0.003865090388078331 0  -0.08248288275483079 0.05652439787604938 0  0.07068934282239239 0.01408591446855125 0  0.07236080153609101 0.012152194926944 0  0.05524463240319846 -0.04017554527443661 0  0.05675279184711625 -0.03864662831582363 0  0.06342126261375043 0.03806608316239668 0  0.09346089332631558 0.03133107440029521 0  0.09347722043429882 0.0355027148634383 0  -0.07580157726892149 -0.04343530079181694 0  0.05056437551056801 -0.02961312574866764 0  0.05439427140523435 0.03850941172521252 0  0.006300717620826219 0.07750647188202882 0  -0.04253996705787805 0.03434637359209663 0  0.09823507415060787 -0.01866289659784012 0  -0.0780095323944726 0.06255354792809778 0  0.007750135769418163 0.06007108598703577 0  0.01796003208832041 -0.06812359190687195 0  -0.04070573473605685 0.08336241728263535 0  -0.04684099268991145 -0.06945188265923215 0  -0.01317036733319767 -0.07527790919937631 0  0.01160468628621174 0.04432343097227138 0  -0.01481481257356293 -0.05125550997216957 0  0.005562440319815775 0.0962879068803088 0  0.01182635737119224 0.0881920275578401 0  0.07555015439157768 -0.01467159511762493 0  -0.05900430171019148 -0.06402526060132059 0  0.07352291298153285 0.02223641577316353 0  0.0742158849889521 0.02501045479729399 0  0.07496896037813439 0.02277784795901553 0  0.0398738435685617 -0.02286010509476426 0  0.02903200836480374 -0.03513961093476121 0  -0.005783502667573178 -0.05607780135890796 0  -0.03391462958950948 -0.05379134024636276 0  0.01853756998897386 -0.03542331120336961 0  -0.06211136241529469 -0.04109157778792918 0  -0.08171351960363456 -0.01993861291709849 0  -0.0795867494076207 -0.01812888304035463 0  0.02669060864044288 -0.02976682529443796 0  0.008125990288185876 0.09966143579456099 0  -0.0815656642203296 0.0505743135737921 0  -0.04432375600264589 0.04568094164986431 0  -0.006604596803201244 0.05007702639230614 0  0.07228192450860307 -0.0403761652000619 0  0.05146883789752361 -0.004228753433468242 0  0.0594954366832835 -0.0272893148589631 0  0.07282881086452009 -0.05429878372751863 0  -0.01739135316667877 -0.06585540511990944 0  0.04338378478875792 0.06821385575479474 0  -0.02564879137260821 -0.07400081887795244 0  -0.02410799846505482 -0.07464323489604367 0  -0.02499260514066904 -0.07676874068327515 0  0.06838808945841983 0.04405466498141398 0  0.06580677743533642 0.04399412082955399 0  0.06594573411171621 0.04252821458979394 0  -0.06352029730548474 -0.06771617253623649 0  0.03811952514088573 -0.07853516184313485 0  0.07565739011083183 -0.03586085856328722 0  0.07802576535874199 -0.03453845067339718 0  -0.0309792917999602 0.02527322609560944 0  0.03372533101608791 0.02715859169905146 0  0.03152871497475398 0.02657389917679351 0  -0.04405874509008836 0.07132011198188497 0  -0.04270930103589667 0.07102410030010528 0  -0.0896772110787 0.02929075239812904 0  0.04464644011900274 0.0387911735411868 0  0.07073065090689623 -0.02522685184403798 0  -0.02923766277975014 -0.09246682810072913 0  -0.04135168526684523 -0.01852876536762473 0  0.03051630665547981 -0.05343392381311627 0  0.0356610466758578 0.04079298460455836 0  0.07400635040342224 0.008093753456346773 0  -0.08784310826263378 -0.01312389359579531 0  -0.08675181243695082 -0.01476021119876185 0  0.0563531218324191 0.01445577134235648 0  -0.05611124468773543 0.08097326542718301 0  -0.05600710389973634 0.08283500356468415 0  0.06448311338973846 0.00153192930676378 0  0.08857786276615616 0.03471609348963323 0  -0.07862100740775659 -0.03052892780399444 0  -0.091073866732716 -0.04127934472770349 0  0.08268458658971442 0.02404967740013157 0  -0.01398263261303045 -0.0477415992031183 0  0.01499380774961866 -0.0779647968972778 0  0.03532276848198893 -0.0920602214917874 0  0.03491702874249194 -0.09369756990761867 0  0.03302778604099558 -0.09044823160115451 0  -0.09522166964023229 0.002167735097565336 0  0.05976584701270959 -0.05736653633023918 0  0.08229737924911644 0.04400703579286341 0  0.08334701567574059 0.04492840767623627 0  0.05428635088819928 0.04514155838406788 0  0.05105787437281671 0.0212397046307096 0  -0.05588243151096842 -0.0292245529381634 0  -0.05420815611645662 -0.02701373345565006 0  0.01713410612895225 -0.06539064500157288 0  0.01579083950437694 -0.06388118643179129 0  -0.02758250838962639 0.08568063533420912 0  0.04722300435803649 -0.04830536696647294 0  -0.01437282377355013 0.08939693982738155 0  -0.01362886842561224 0.08764584747813492 0  0.09758105262096038 -0.005028268640518913 0  -0.04524400182798392 0.07872410599494425 0  -0.07977564567948546 -0.04462390940617991 0  -0.000965620460952275 0.0582709023178395 0  -0.02432810334808408 0.09248981503434332 0  0.06709111976644194 -0.0695440634831616 0  -0.04968476866795741 -0.01199454217981051 0  -0.02259979989438291 -0.09592273877899668 0  0.006454977284500602 -0.08861170837704394 0  -0.05670941448321323 -0.01778144251650127 0  -0.04046594259031498 -0.08401446534096989 0  0.01634619519788332 -0.04266234339643017 0  -0.07763046376842879 -0.03386047517048714 0  -0.02771071357705794 0.03789541758562995 0  -0.02928025287064135 0.03561547959729852 0  0.01799386435305556 0.0557493030932947 0  -0.09178248443301064 -0.03192709931779111 0  0.07263328769284744 0.0200046739035683 0  -0.04846242924538403 0.04252168373345153 0  0.04449398802951064 -0.02377785374251748 0  0.01579394095976533 0.08175056795443528 0  -0.06774617796131949 -0.007183155983966329 0  -0.06610559763662875 -0.008367865217827238 0  0.0919071618477954 0.0002001362763874144 0  0.0936881360125528 0.001344579048552024 0  0.09448434878451024 -0.0007075737177939539 0  -0.07893809174629539 0.0593281583077512 0  -0.08564048173149125 0.02984350196482252 0  -0.08861478687769195 0.01693180818173243 0  -0.04801798704846329 0.08069069388042643 0  -0.07724275898020601 0.002990514050629747 0  -0.07539479637138036 0.004688149562796674 0  -0.055460881722655 -0.03602174075058675 0  -0.03041048654992667 0.06621928252124451 0  -0.0512510637864431 -0.06269460641749756 0  0.08861737102021253 -0.008955824687570006 0  -0.0958386087625374 -0.004571718290969844 0  -0.03468602348210829 -0.04966989323515 0  0.01801199385376172 -0.0374291558296613 0  0.009486826222622317 -0.06710607736262253 0  0.01741356299107528 0.0395563064770682 0  0.01603084707023253 0.03817034953297325 0  -0.0840113552310562 -0.008228403970156912 0  -0.03179104981331801 0.05560018460157713 0  -0.03348189408633693 0.05777420300614338 0  -0.01526678396548921 -0.06642667966528532 0  -0.04467846919377925 0.03850326759787657 0  -0.04589487611391874 0.03774242319870097 0  -0.007611414017213336 -0.06930327966136642 0  -0.01387351964610642 0.04676005499637731 0  -0.02888179989140714 0.0639385767025803 0  0.0416579989246792 -0.02073522750836403 0  0.01757241655104461 -0.09009162116517495 0  -0.05033083693543971 0.02388650430072678 0  -0.04381337379455839 -0.07707087529830869 0  0.03702896025400119 -0.04312248054496667 0  -0.04111476443090892 -0.0637220429729434 0  0.04737560323051979 -0.07677932566884368 0  -0.05944464890631207 -0.007037540743691185 0  0.04983553671664832 -0.04845515475296627 0  -0.05677553860736366 0.07385461314784839 0  0.08004023144953019 -0.008466814627191878 0  0.09109124462117819 0.02141924552082777 0  -0.02607007542014464 -0.0519877336287293 0  0.0307067067748695 -0.07642889017807634 0  0.05390124303080609 -0.06258606592937729 0  0.08255110530448644 -0.05391309759641899 0  0.03437632042513142 -0.07446120249973302 0  0.06800289973355528 0.01139787578664094 0  0.02237968158533731 -0.0427149487327801 0  -0.03421578465932474 0.08071999765025577 0  -0.08884687362627895 -0.01827709864987231 0  0.01627840888241821 -0.08541091411284098 0  0.08287403352910386 -0.01796835047715944 0  0.07316779888307298 -0.008478406378647867 0  0.07551731905683337 -0.008554331942661175 0  0.07546620998228996 -0.01000606344628818 0  -0.08084676116580398 -0.03654525380290033 0  -0.07937349982288168 -0.03423463757187761 0  -0.05545673350519713 -0.07920891952255146 0  0.07677886289113231 -0.04550446355242801 0  -0.06847781244596848 -0.009610663747350966 0  -0.06698376655358854 0.03205328950165253 0  -0.06630446864980866 0.034011598099101 0  0.09007375306562131 -0.02635302993215102 0  -0.02361347441770118 -0.03698541789476252 0  -0.008515464090090939 0.06466293807743376 0  -0.06533438481670098 0.04552184457978742 0  -0.06292403440141653 0.04389844261363709 0  -0.02321534659033036 0.05778686598217706 0  -0.03094698603917213 -0.08444059433646808 0  0.06971411892160539 0.03091872636629353 0  0.09377392567701658 0.01677051021740773 0  0.06386447606542932 -0.05612729813362043 0  0.03176855335699678 0.09337577333191216 0  0.03956230781700921 -0.09183276813310873 0  0.03961479899300317 -0.09037292960410594 0  -0.0630044636553021 0.07398401530432383 0  0.07130017389392534 -0.001488999067112933 0  0.04020411743530579 -0.07797309271742421 0  0.0856815483659243 0.04585869028954927 0  0.05009429369814518 0.07593763430943132 0  -0.05382313612107097 0.0008923260318694586 0  0.0533053895043811 0.08059939215231496 0  -0.07092768960401892 -0.003891037254666644 0  0.02919949831743457 -0.05071600495237358 0  -0.006119372658726713 -0.08375973642975607 0  -0.006301312816382862 -0.08140155476228159 0  0.00954657200088352 0.05338520529870856 0  -0.04916842859198275 -0.0214113316509125 0  0.04099139263877596 -0.07518509535385624 0  0.08837536574681676 -0.002281008358428514 0  -0.01327295323030348 -0.08508590633588896 0  -0.05314033823874142 -0.03250738933933328 0  0.01728697138927626 -0.08313432340328018 0  0.01179237190600497 -0.06730547669915356 0  0.06573049450044036 0.03249551043645631 0  0.03903668494843859 -0.008636533213229911 0  -0.08494435607823503 0.01691563007004057 0  -0.08072840970745181 -0.0122649639971699 0  0.09300923853378536 0.01409358172316841 0  0.09177064379644591 0.01659495795582896 0  0.01716647734326979 0.07615448161344063 0  -0.09422880940333847 0.008607066727250477 0  -0.09609470475891113 -0.006650784355620459 0  -0.09820197326484782 -0.008443749158466662 0  -0.08890727599220785 0.04265129505908268 0  0.05684550928922313 0.06061554803095405 0  0.05490033586864709 0.06142367949177508 0  0.05438666449254559 0.05941232262126449 0  -0.06935435114928847 0.05102588337912462 0  -0.06845228952613502 0.007170624645410234 0  0.07443488536514072 0.03227566447769362 0  -0.0396715957541955 0.004961548953963128 0  -0.06054677845328554 0.04199620086836976 0  0.06817813588141849 0.02480610032483609 0  0.04578912226112385 0.04252775325692139 0  0.007715615561208175 -0.0867699252840148 0  -0.03679435789744533 0.08899600288863856 0  -0.01003580528147767 0.07321720353110367 0  -0.006379303788285844 0.08231235467499366 0  -0.006668608216912402 0.08013602848282822 0  -0.04832877481595753 0.03722771920922478 0  -0.04810536743650475 0.03574518259333827 0  -0.0505216097328993 0.03530928441886234 0  0.009856660709007059 -0.04907138025035566 0  0.005050502673408529 -0.07817012637561671 0  0.06373091104212014 -0.03623522882337932 0  -0.05169533785602749 0.0362584482264638 0  -0.012957968597918 0.09736184028091469 0  -0.008366122283896696 -0.06008971287092928 0  0.09453093684474909 0.01030866883844694 0  -0.002399521448106476 0.08343526533052531 0  0.01199188654610151 -0.09554345722568364 0  0.01147598862082723 0.08271895590615001 0  0.02412786898442677 -0.06350368508746633 0  -0.02473122336467165 0.0569101440963914 0  0.01085448310126239 0.09124747534871251 0  0.05768033707474432 0.05022660111619675 0  -0.008422095231539858 -0.05629674550332772 0  -0.01048138349664241 -0.05634153647036578 0  0.001227442383145877 0.048845117616125 0  -0.01188156522194044 -0.0859815459938567 0  -0.01076959306731091 -0.08397236490608609 0  -0.02629632956529535 -0.03851070772718356 0  0.02532061764098279 -0.03817739265983024 0  0.0870881684834357 -0.006333551508620161 0  0.07402333762506494 -0.02305414358102587 0  0.004396745226537338 -0.0809844946489067 0  -0.06438822955507023 -0.02840047496630151 0  -0.06614963531648743 -0.02773753738171177 0  0.02672101123626575 -0.07128017222432 0  -0.09207855519513558 -0.03898683336683639 0  -0.01620263676247345 0.07878573507889364 0  -0.01812746207200768 0.07834111949856613 0  -0.03207736119190738 0.03697015998028243 0  -0.05567381566799372 0.001359965040541173 0  0.04046512109497341 -0.01881539254122365 0  0.01822921778416051 0.06165717449564127 0  0.04738600025042898 -0.01093615538628936 0  0.04692494184254983 -0.01370298114594749 0  0.0456544801308112 -0.01221629297230931 0  -0.03108733654027615 0.03156561496022259 0  -0.04420790954936078 -0.07510068440750127 0  0.04144261797502752 -0.0492024499276718 0  0.07276977216369296 0.01465294687791151 0  -0.01434297747798577 -0.09895813508682896 0  0.05534110115746443 0.02100076130980914 0  0.001420044568743373 -0.08706287179832831 0  0.04012638663827657 0.050626075826181 0  -0.04588286189033659 -0.0750717953100188 0  -0.09612878698363178 0.005022074225871868 0  -0.05195834126901603 0.05482331355062293 0  0.08337082074163944 0.03321094440911341 0  0.02987283336193011 0.05156465320124155 0  0.0543348874968561 -0.03544275042687576 0  -0.005489352191965043 -0.0916412009070624 0  -0.006868881686493399 -0.09249494144035442 0  0.04093379534049778 -0.01328621278958556 0  0.03941819654928678 -0.01197967056323739 0  -0.03588957166744972 0.02045994939729383 0  -0.03668913924009862 0.01898006320651658 0  0.04558064936588022 0.01647429654879752 0  0.06900737104840622 0.06248582278706674 0  -0.007604830209270066 -0.08505896946167338 0  0.02475891167353288 0.055178595935366 0  0.02211507140959501 0.07310975654631512 0  -0.05947611687407422 -0.05340519845697138 0  0.04182982468330452 0.06636742795758714 0  0.0186447721244169 0.0785689829980062 0  -0.04195362518055 0.03569966179147258 0  -0.0236167968345041 0.04885718684223596 0  0.003842891825341829 -0.0825371123792689 0  -0.02437390123580338 -0.06794618303830842 0  -0.02164246559413283 -0.06799842561507209 0  0.05984203471431089 -0.02090231027355903 0  0.06061842272540111 -0.02206910616353424 0  0.03797677696749434 -0.06245152404616654 0  -0.01374396544647182 -0.07266656824568828 0  -0.04777468660726674 -0.01832334416190831 0  0.02086711670308879 -0.0788078872494123 0  -0.03350299777247681 -0.07176475771899476 0  0.0657666520289809 -0.07129509573041992 0  -0.06738541853089619 -0.02550829819871541 0  0.05706222907649276 -0.001320258688836198 0  0.05927789698347468 -0.002608079665388717 0  0.005734987289850005 -0.08065159283818549 0  -0.09208290379041974 -0.02664022092383793 0  0.07193413705817979 -0.03449719860568325 0  0.03445286681703946 -0.04779956905992385 0  -0.07808938301056591 0.03582661796845167 0  -0.07947079436986165 0.04502487874253389 0  0.01487786203737763 -0.0730124606512887 0  -0.02493588902101395 -0.0864473923144666 0  0.02567560524135674 0.09539533952264673 0  -0.08375982834813993 -0.04861992869539465 0  -0.07521257955119857 0.04218935221158242 0  0.09750539837405409 -0.0001643017587691351 0  -0.06706449077653567 -0.03012915125647517 0  -0.03458890996511158 0.03917806407246279 0  0.03023777565488932 -0.03278946190273217 0  0.004028274893930211 -0.08810895856184937 0  0.004849749431323053 -0.08924888683549009 0  -0.02139955549906881 0.08848461676902711 0  0.01415449525854448 0.08327152382154561 0  -0.04005672563583768 -0.06115064906745479 0  0.01306362942846819 0.08165744653417682 0  0.01464194156949682 0.08051785527147351 0  0.06574079951183814 0.03623338401056357 0  -0.08224933659436788 0.01655082179043233 0  -0.03315987975473171 -0.06909246713739867 0  0.057122557488291 -0.07879294934906826 0  -0.02208645107210054 -0.04528353599587361 0  0.04575218183408844 0.003611933927338985 0  0.04772271512651651 0.002898489175718198 0  0.04781768421326802 0.005255298977247315 0  -0.0435040244915863 0.08197798562492943 0  -0.001877188469291548 -0.09997454509147743 0  0.04368551454476544 0.02828622052658869 0  0.04578819405163671 0.02903328419242074 0  0.04605684670824699 0.02700955566816863 0  -0.06137678916979159 -0.02068049582148107 0  0.02141525380585043 0.08277284091236707 0  0.0009375485053507468 -0.09834741618407426 0  -0.02760344208727321 0.02892235230131584 0  0.03412963763520949 -0.06800074354299179 0  -0.002913568638833994 0.09856179918508789 0  -0.0006921822417953426 0.09714460447216955 0  -0.002478387962727243 0.0962083421910641 0  0.01264289203183669 -0.04957817592231889 0  -0.02995315692655744 0.08533980411486104 0  -0.03962368105959467 -0.0399649173449177 0  -0.08774459030599709 0.04493289062731495 0  -0.09446753582936046 0.02786417060649581 0  -0.09622523496233773 0.02718708625873676 0  -0.0932492484749247 0.02726858948593617 0  -0.03928639720608728 -0.007418320043811351 0  0.01080109440218688 -0.07524242857553949 0  0.009345602952006949 -0.07451610461262287 0  0.01169505371048585 -0.07300537983554664 0  0.06720843547470211 -0.02858556158620527 0  -0.03982107009371398 0.06654601584796092 0  0.01090184352534036 -0.08950292528429768 0  -0.05500071590851328 -0.04272849016196518 0  -0.05857726172945352 0.05020310398123653 0  -0.05982480054873324 0.05161064302428448 0  -0.04899959203928194 0.01278272015924309 0  0.009385040129124734 0.07403935279582891 0  -0.05173344026659997 -0.03704563244115208 0  0.01809900287099984 0.08858840641045221 0  0.068343911992665 0.005511087515303985 0  0.08183308864988331 0.01858223025883182 0  0.05714964922322154 -0.04742274289166441 0  -0.002371601988921881 0.04818416139152187 0  0.04104184735634547 0.05648543786251213 0  -0.04523363937551268 0.07244308682363639 0  -0.04211876935276179 -0.006467907080874114 0  -0.04058132930255573 -0.007029848834147444 0  0.03828943963196694 0.0446559810141 0  -0.05398675949858243 -0.01634008680319306 0  -0.06008234745046856 0.07992837435878619 0  -0.007981254972819651 0.04804093725554247 0  0.02302229965912318 0.07495995247554102 0  0.02176464318947733 0.0757808488669342 0  -0.02825191749768132 0.0880429325584255 0  0.05255546517647697 -0.07635818651527519 0  0.03068995282633506 0.08782240804194867 0  -0.0494749507899396 -0.0685755685439907 0  0.003194748897410365 0.08160053610413752 0  0.02050380948024681 0.09786739650974086 0  -0.0009383116577485326 0.07998627194953321 0  -0.02752135718106432 0.07985685889467539 0  -0.08844921133492704 0.009493713720815755 0  -0.09001853754868043 0.007261061828201252 0  0.0924802917404597 -0.02555991349091089 0  -0.05716286399866673 -0.01188910628699527 0  -0.05738074258583999 -0.01327843561547708 0  0.01033719040807692 -0.09087268620502609 0  -0.03726912041681931 0.05326865221494868 0  -0.06509477070469985 -0.03028949631858837 0  -0.05440715535542684 -0.0378422839885849 0  -0.07306843424826499 -0.02118250950173296 0  0.08096923461315086 0.04977831357622246 0  0.05394845726511746 -0.02287238376893128 0  0.05536117389263909 -0.02281677824243619 0  0.02079579861174138 0.06701112978334881 0  -0.06667618418585611 0.005694136717509398 0  0.008689775674339175 0.08730771776908745 0  0.02625770746418304 0.0680994102429415 0  0.06774524856138436 -0.0174456494766082 0  0.09513680218259399 0.03078022698530786 0  0.05031907631040032 -0.04264214482172153 0  0.02669060864044289 0.02976682529443795 0  0.05230784345192591 0.07806317563387054 0  -0.06529986265993182 0.02040570146385146 0  -0.06390601241936308 0.01913423140191274 0  0.03693394065798337 -0.0897522478518278 0  0.081225131481886 -0.05265669262747205 0  -0.05415839934721172 -0.05464790238116367 0  -0.05617179772016466 -0.05275693774165511 0  -0.02634572308553063 -0.08798914158373633 0  -0.09228304467845093 0.02981847979712139 0  0.02756024461090833 0.05249211815553648 0  0.03018424749273938 0.09532756530035871 0  0.05466694333133285 -0.0462619255980246 0  -0.09450588023470122 -0.01733479847949761 0  -0.05073139458542651 -0.008781876138374578 0  -0.05614557722375899 -0.0729922436135427 0  -0.02604297164739603 0.08783381807241716 0  0.008473979611378236 -0.06461306389399844 0  -0.06072953564856673 -0.04257906433406797 0  -0.004280073734055244 -0.09399432522649971 0  0.04675617360046312 0.04514228196007898 0  -0.07795674300500875 0.01198958773688774 0  -0.05193408516598808 -0.06486437275089543 0  -0.02123235446076124 -0.09368609643906997 0  -0.07479969296430226 -0.02749915254812949 0  -0.0736518162237763 -0.02664638006931758 0  0.05490558629844541 -0.05166529499362474 0  0.05552683925201478 -0.05045364229147027 0  0.07135956702426091 0.06787113239822459 0  0.07287783396922091 0.0388553835418393 0  0.01071457224673313 -0.08016837777604045 0  0.008058538595814641 -0.08056743630860355 0  0.008995146997995512 -0.08201816050042511 0  -0.009151216359536033 0.05574873012012173 0  0.09645391934271109 -0.02145870154411968 0  0.0946905486109097 -0.01940395319883792 0  0.06061743406181779 -0.0531180391496831 0  0.07315826675671706 -0.04734961096167398 0  0.0871363545588663 -0.02236435776177319 0  0.05929982422621105 0.03966545284843839 0  0.08454667357769899 -0.053388139972686 0  0.04626268122376868 0.03165892955095217 0  0.01869652018993503 0.04107297636809727 0  0.01715032183883855 0.04248609031642508 0  0.01984206906746741 0.04254246084776402 0  0.05242368407773167 -0.007978986255035922 0  -0.02594342444834436 -0.05888479619856953 0  -0.09371297945059606 0.03038238105012281 0  -0.09474410565180338 0.03196854621400561 0  -0.07014664285690417 0.0671596173645576 0  -0.003217256157827546 0.05189082894494298 0  -0.05720490482747104 -0.07539967170189153 0  -0.001812869137833465 -0.09412437756685633 0  -0.0005064858757666525 -0.09181776854618305 0  0.05326589439832539 -0.003360051349035119 0  0.04699839928696681 0.03024055401295497 0  0.05583244426191969 -0.08143552566242757 0  -0.09996083971717376 -0.0025028035948893 0  -0.07083851648061711 -0.02636355093461451 0  -0.03343677568848977 0.07649213307133966 0  0.04766191475703838 -0.0616880881287017 0  -0.08572240180848785 -0.0003255225357318471 0  -0.0392104290257386 0.02263125770738342 0  0.05652406357321932 0.07809568877408102 0  0.02829360472808224 -0.06247848282214024 0  -0.03816865586101666 -0.05299487673833532 0  0.07917825994618254 0.01851942362688936 0  -0.05411041546868424 -0.02893011373134298 0  0.04240899505074559 0.07501695539193944 0  0.04420323102526486 0.07577844616416556 0  0.04203036950703264 0.07729482959240776 0  -0.04476750042195177 0.04301600747905569 0  0.08176938350695054 -0.05539281276924833 0  0.07987572969886041 -0.05466183150754367 0  -0.05945761895355826 -0.03430303348170982 0  0.009008968548748698 -0.08456982790157098 0  -0.06916055891189742 -0.02849653079054743 0  0.04040085473148701 -0.03806500898107812 0  -0.003684268264467677 -0.08961233645482895 0  -0.02366849108701011 -0.03832941378628291 0  -0.02380083611349115 -0.03212433155733534 0  0.008964497964403127 0.09005651484578124 0  0.02203184863884396 0.06208502219281759 0  0.04944412669433548 -0.05904921969128002 0  -0.03990331260522013 0.002485582595078169 0  0.06717818625021313 0.04882932014363565 0  -0.06351008887752201 -0.0706990670084568 0  -0.01934739202077328 -0.07170053990635973 0  -0.02696515247362601 0.08398868329610315 0  0.01220803608215739 -0.0979908315550574 0  0.01388776495306071 -0.09599940061019277 0  0.04854904267684411 0.058458472617444 0  0.03643399174635589 0.089228189560251 0  0.03785805425722656 0.090907894767466 0  0.03725133910345261 0.09279424140428477 0  0.03956230781700924 0.0918327681331087 0  0.03566348795258259 0.09186706846570758 0  0.03198275305810694 -0.04934732604575379 0  -0.03768293996985556 0.06278655052433664 0  -0.01208017275598855 0.08997712090220675 0  -0.05920875323275065 -0.03137494746377026 0  -0.05562246657187427 0.05592597975487014 0  -0.05400452674679412 0.05462767341613291 0  0.003955292507438356 -0.06588341780889127 0  0.07832043186383505 -0.03586589789421783 0  0.04827722528558782 -0.04914349810952754 0  -0.08579748349312262 0.04858004733875847 0  -0.08474656879745088 0.05037582565672139 0  -0.0840383875547613 0.04769829649405048 0  0.03124922494816569 0.07478015386626716 0  0.07580138369421367 0.02048546524902221 0  -0.05822064169088218 0.04173319614019775 0  -0.06657911797909048 0.06020919427755855 0  -0.06482091308074039 0.06236594123349998 0  -0.06623199745176439 0.06252302617684674 0  -0.00708447314900798 -0.0790391580307301 0  0.0331888770947054 0.02883505134713862 0  0.02691055719206365 -0.07976535863507109 0  -0.04229354469389864 0.05096666031366744 0  -0.03281092436567182 0.03130732756880132 0  0.03256083941038779 -0.09454218761848085 0  0.07452430686944712 -0.0472903863441282 0  -0.04348545870328206 0.04091537928721004 0  -0.05598544506940032 0.02089354198767492 0  0.03920496115390508 0.07170377212814942 0  -0.07538282792070233 -0.01599687834882836 0  0.06761444212652606 -0.06134656882580389 0  -0.005258210913212573 0.07190169591338284 0  -0.00504870461752672 0.07054517707543483 0  0.04376019428403337 0.009935954409116722 0  -0.004552667748393063 0.04960603166976565 0  -0.08649127426607808 0.05017661784763053 0  0.04808760486417751 -0.04659922279853566 0  0.03223430844298594 -0.03085455106047716 0  0.02379279412347079 -0.04039843305698033 0  0.02565659121393007 -0.03987443213705735 0  0.02333414080211762 -0.03853249950987655 0  0.07512007564964936 -0.06418948396708347 0  -0.07808331652819606 0.03360859556444996 0  -0.07532439583021316 -0.02470464799444911 0  -0.06344466528984025 -0.04254579878222558 0  0.03280046673385544 -0.03486591936429764 0  0.06660049351047542 -0.02117999356819521 0  -0.02082812871562335 -0.06255983911975219 0  0.05347408295073511 -0.08136343159086636 0  0.04698774683298606 0.01881875664432043 0  0.014845225924683 -0.08790026548317439 0  0.08405522840025162 0.02865715533866366 0  -0.09716826356518408 0.002992904723543567 0  -0.0433772747419002 -0.02628679255106282 0  0.07357236894315893 0.03698085962319173 0  0.07351568894318768 0.03467762417941753 0  0.05062184570932974 0.05677559669011706 0  0.08156527115310851 -0.02547799852538706 0  0.08661136924205 0.04340451571389693 0  -0.05506706405230286 -0.07381505534461436 0  -0.05730426706272277 0.002723531270239592 0  -0.0166351474454319 0.05860647563770349 0  -0.05835563608108907 0.01062035110191529 0  -0.08750519034207867 -0.03276661261034788 0  0.0871125090589448 0.04909016467941777 0  -0.04044527150522758 -0.06587901226743031 0  -0.03845142353407687 -0.06014094307737268 0  -0.03709460168291193 -0.06152035517917313 0  -0.07348077697097896 0.03024137223715831 0  -0.07133331407999373 0.0318918195409264 0  -0.04545407545225371 -0.01711472827349287 0  -0.04213700104892294 0.05817065048028586 0  -0.02142023254623319 -0.07855739908550115 0  0.03372874026153588 0.08558545238285226 0  0.02511780799169992 0.03630683346843104 0  0.0881028094229858 -0.04015703000511777 0  0.02778553749936594 0.04823781965835661 0  -0.04999978788973226 0.07885648972036478 0  -0.008769112205736132 -0.09348924395262662 0  0.04195146872084967 0.01131221866704352 0  0.0893145082476734 -0.035570168725421 0  -0.03080044608693022 -0.07706444546018686 0  0.06323044045886839 0.03543251291635321 0  0.06834086661061609 -0.04708764449983095 0  0.03633198927555626 -0.04982226634064614 0  0.0351608619207804 -0.05066355743808125 0  0.0900959658248639 0.02650332284495066 0  -0.07408781371626033 0.04682912427665297 0  0.09394808088469338 0.01536458406811321 0  -0.05305922117543561 -0.03495127574869394 0  0.02553665685969513 0.07589886643264307 0  -0.0688382774894791 0.03289864280328514 0  0.06695694263774805 -0.01343363137292042 0  -0.02098803264351313 -0.03969919228695026 0  0.06200174236960506 -0.00660861860652439 0  -0.08756985316073626 0.003791904521504977 0  0.06282541075221196 0.046954607375541 0  -0.04034171781862899 0.04010960095302794 0  -0.0412681119474457 0.04266616988088456 0  -0.07748160199644004 -0.04135948307425893 0  -0.07713845103247868 -0.04379800852055946 0  -0.07893031676108976 -0.04187124620134576 0  0.01235474179599165 0.0488071193692147 0  0.01407486616125619 0.04816042373359536 0  0.01290659403132191 0.04617697302836762 0  0.02581156627693086 0.06311102019587933 0  -0.05071891897294734 -0.002197277078504774 0  0.01640813359773723 -0.07290495092274449 0  0.07350610764895088 0.01138273929513337 0  0.06684586270957156 -0.03377901540294877 0  -0.03112546379818674 -0.03487867750013474 0  -0.03345228946179496 0.06811090868336939 0  0.05252715073188111 0.06224187850049054 0  -0.000561558482206786 0.06094446922083192 0  -0.02289238503662699 -0.06951657036139833 0  -0.007596564499249116 -0.04207261066663705 0  0.05819779702738952 0.003974250170861394 0  -0.04516444369696675 -0.08791215698912216 0  0.0041042525696536 0.04621762561706797 0  -0.08816268402081044 -0.02087870385283951 0  -0.0149407975235215 0.0674162610264101 0  0.06595475137644914 0.05760235447851016 0  -0.06963910244262143 0.05719543309137241 0  0.06591624843151916 -0.005153546534002888 0  0.03903668494843859 0.008636533213229892 0  -0.05220271568310308 -0.06880831404572611 0  -0.05092622666142638 -0.07021603101235273 0  -0.09302554733789087 0.03666989289980164 0  -0.08040717912506858 0.0002210705560503415 0  0.0965551384585646 0.01972092884961153 0  0.09773716492036977 0.02111587308461434 0  0.0959437673040742 -0.008270069116239754 0  0.09810417051474973 -0.009695146490569366 0  0.09960863085092603 -0.008749523575660736 0  0.09835178126702405 -0.007697080617151918 0  0.05388974579889941 -0.01862682961308305 0  0.07508112378381548 0.008888293293573844 0  -0.01776903075725815 -0.04414137209558255 0  0.04786375207579894 0.023155188641324 0  0.04978858963554817 0.0235734471118283 0  -0.04303973618778888 -0.02905083675045407 0  -0.02977528563903672 -0.05373730491535899 0  -0.06978956469354497 0.02919162698223119 0  0.03495466730943514 0.06431516146073778 0  -0.03951655891406251 -0.05695144797890588 0  0.03724828138445743 0.03294021775719274 0  0.06169592079860935 0.02139095687914462 0  0.0480449141242191 -0.02301111028883632 0  0.02870711384324326 0.08689102798833974 0  0.06061047053130274 0.00526973086775284 0  0.07922182034480761 0.05441949265200743 0  0.07976746623950959 0.05222519756630366 0  -0.08112888408145007 0.04526169552640416 0  0.01825880333068556 0.04372144471228612 0  -0.05814492236631215 0.03671345173725229 0  0.001080105981070762 -0.04784451316969413 0  -0.05785433050147179 -0.07082439453078711 0  -0.05843364954031723 -0.07209890328206996 0  0.05562085831443181 -0.03006635938958812 0  0.05720946095020248 -0.02893481496453772 0  -0.06087245775180694 -0.03885593234009636 0  -0.07570693961502563 -0.0205004242825916 0  -0.07637047908123573 -0.01835452514048894 0  -0.07762201542110345 -0.01680927901668906 0  -0.07498094155717198 -0.01728229083834869 0  -0.05860408830681865 -0.0748063357045823 0  -0.02879907346330513 -0.04365337682432598 0  -0.03810327173976281 -0.04244607775005926 0  -0.06724869803536265 -0.01195045505538803 0  -0.06900694751960681 -0.01203502453599891 0  0.0492482482366654 -0.03220919611687215 0  -0.0385361557256939 -0.01450898051118533 0  0.04171956443150627 -0.07271517665907838 0  -0.06539437892512093 -0.007029466291465327 0  -0.06688299610297505 -0.004900568662981261 0  -0.03683560536785573 0.08005109863799087 0  0.08350139400053333 0.01192520048353243 0  -0.05073505571088927 0.07676597980547965 0  -0.05221140314753193 0.07531407078521669 0  0.0447217504203066 -0.07706952286871767 0  -0.09746522355514861 -0.02233749538650201 0  0.02126027812566394 0.09628020220300723 0  0.02083598941810888 0.09437877509632479 0  -0.02075793290872411 -0.06077479974235087 0  0.08304882226199257 0.004239976655798397 0  0.08117960339043234 0.004694141124787514 0  0.08166010409694942 0.002213105621631108 0  0.04944923322704811 -0.07324869709655007 0  0.04813253129195224 -0.07167366252178539 0  0.05002204835654885 -0.07070259513186257 0  -0.06382334190703941 -0.05455000846438909 0  0.06460908718594989 0.05093273362136568 0  0.005521904978690934 0.07183274764156913 0  0.004610572983392653 0.07285106134832697 0  -0.03117029210989465 -0.07922529464606826 0  -0.04078232668371223 0.02861758388077857 0  0.04402309196795735 -0.04843245844323073 0  0.05695927677766624 -0.075068181769 0  0.06711734871995784 -0.05991755983198205 0  0.06483467145966497 -0.03761431481856475 0  -0.09054114673675795 -0.01269926962868144 0  -0.04392004763103741 -0.04627226125009832 0  0.04220062171591701 -0.05869510956157704 0  0.042619520401697 -0.06078059001021262 0  -0.0589824354679293 0.06584730742174064 0  -0.005641029295971201 -0.0678158813196859 0  0.0160642471496436 0.05454305946300836 0  0.09249570523186701 0.02824849307778794 0  -0.03641645589461955 0.06139929085470595 0  -0.01516237691808476 -0.08218019454581786 0  -0.07966688406970091 0.04963354239912025 0  -0.07906433569613359 0.05206219305356191 0  -0.001877188469291556 0.09997454509147743 0  -0.0189851741726984 0.04775579514884876 0  0.05412089469443582 0.04765027701569753 0  -0.01304533622301405 0.07420123246798564 0  -0.01118065457828436 0.07530490745607071 0  -0.08992157970147703 0.02207938361850946 0  -0.03990331260522013 -0.002485582595078169 0  -0.02086902598639098 0.04557785068765799 0  0.06684579152900341 -0.07436446501964573 0  -0.04667300940384068 -0.04387275142462634 0  0.01641986439368229 -0.04456331728355852 0  0.04774186254113687 -0.0794082063325266 0  0.04747846867232712 -0.08183172862153691 0  0.01467029167513849 0.05409794000916524 0  0.01382476357471118 0.05627388023586337 0  -0.01299748125302172 -0.05544434061417507 0  -0.01355290643858096 -0.05339404568407506 0  -0.04221667942541035 0.0131853419017962 0  -0.04380056811481132 0.01230803798078869 0  -0.08171950632637495 -0.01803517082008131 0  -0.01566356125270315 -0.08626892572429441 0  0.09881624191729881 0.001843435861858119 0  0.09871992511479766 0.0004154594595722478 0  0.05425142495550524 0.01928094642095037 0  0.002431730365605866 0.08647718615746906 0  -0.02810771283439899 -0.06676466018909408 0  0.02049925868606288 -0.09117436029837514 0  0.04061628908171471 0.06817945575936318 0  0.04269805451627647 0.06936591510277106 0  0.08056898582729205 0.0201179527731677 0  -0.05818522037903754 0.075022776586225 0  0.08470033399624835 -0.005225365530792726 0  -0.02033569692060361 0.0521659306461245 0  -0.06547701990100292 -0.07381521271821866 0  0.02954100261100324 -0.08854647739538195 0  0.02983018376208807 -0.08627630167875655 0  0.05698857265416626 0.03232470363376038 0  0.01425417991771077 -0.04837373205471968 0  0.005194840330365894 0.0578034448076882 0  0.005137596250814018 0.05950082913087186 0  0.08038008523785456 0.04512469663290495 0  -0.03326275649282633 -0.04582630037168403 0  0.07269581235391573 0.0406505558366845 0  0.07132568784241607 0.0384200178685092 0  0.07073350001083421 0.04046559194497262 0  -0.04014283967356018 -0.08670534451126495 0  0.009834036087744635 0.05025648864978636 0  0.07034392535504363 0.0008153284512409322 0  0.07514034865070225 0.01257109446479211 0  0.07621574236457659 0.01091771813906957 0  -0.07452339797242942 -0.01336180926526063 0  -0.07486598421591464 -0.01071673396798759 0  0.07048355193817388 -0.07092603477550287 0  -0.07747922846433225 -0.06116813337793335 0  -0.08791764681045858 -0.02462276077262501 0  0.07235568639215091 -0.05301103702447235 0  0.05628485636149139 0.02328004295198274 0  0.06543475500353302 0.04671563901872216 0  0.06762702609891826 0.04704438602232983 0  0.06514688945249798 0.04834182897610292 0  0.07119832863734062 0.03044348530215855 0  -0.04362428713192318 -0.0727080923087866 0  0.07739903793514881 -0.01670568505490406 0  -0.03978210415515836 -0.04815109803106846 0  0.06869547576913516 -0.004774425180776804 0  0.005077724504831523 -0.08621258813431443 0  -0.06977904561120067 -0.01725234922564614 0  -0.07237322251614937 -0.04586020624782045 0  -0.07499578514718347 -0.04534103300561758 0  0.0776853085175359 0.00418419346079551 0  -0.01946015754125291 -0.09673036599257112 0  0.05005675981132235 0.07432742845728199 0  0.07474079952065102 -0.05413029382022364 0  0.08799749864042102 0.003918836428562155 0  -0.01295177486541811 0.05527380332977069 0  0.09407174203279592 -0.007132739622285291 0  0.003569360711216882 0.05141146859759559 0  0.003128320699817728 0.099943219441822 0  -0.02184988795491719 -0.05209714383364095 0  -0.04272393297716909 -0.08893985304520036 0  0.03915730414277312 -0.04486766062432275 0  -0.07824348499044484 0.01520114446070284 0  0.001864713184187141 0.03993714214171558 0  -0.07299513407476696 0.05177904612606193 0  -0.01658702709851045 -0.0784132566116023 0  -0.08889395475353232 -0.04578535039806995 0  -0.06257418540145337 0.03264462768650504 0  -0.06479087376412131 0.03111879220001944 0  0.0394985963810159 -0.0719105434514344 0  0.004050469150632701 -0.07010355956801032 0  -0.02436568629597791 0.04276568083889797 0  -0.07615261794085416 -0.03157859011089843 0  -0.05419259461517686 0.04025850127770359 0  -0.05703958093337871 -0.03246484218539849 0  -0.0640429278624501 0.05688729126517674 0  -0.09640859917877578 -0.0215056194164463 0  -0.05852824249865755 0.05765557652874989 0  0.08828770367630297 -0.03101072549408363 0  0.08794694150792962 -0.03370680791157857 0  0.08941381931354339 -0.03269598083654365 0  -0.0108959343804321 0.06865077375531414 0  -0.01324243023335965 0.06693900322710532 0  -0.01266544626578044 0.06894750982644388 0  0.07660780871451406 0.02155583272081074 0  0.05399036651339495 -0.03789651597856549 0  -0.01802662324130476 -0.08993816655333892 0  -0.03112341508449921 0.06267644987932072 0  -0.0320120809780642 0.06021271513852951 0  -0.03303999156071692 0.06220639155615416 0  -0.07504300830405522 -0.006462790489748611 0  -0.03622491366646412 0.03264328197513233 0  -0.004470307149546534 0.07618998320406495 0  -0.05070118319269369 0.08273998504453456 0  -0.02934813806601529 -0.02715030883369433 0  -0.0761465140244975 -0.02992446383827456 0  0.02879006496013244 -0.07562678598451494 0  0.06868619107882926 -0.07266801674656914 0  0.06742155234989099 -0.07225479062713971 0  -0.07220081945815905 0.03762913537153373 0  -0.0717279685913304 0.03957608418501915 0  -0.0702831172833375 0.03736233739641288 0  0.08199339861303674 -0.004795225279428284 0  -0.004954613175568985 -0.076353623093877 0  -0.04707519610348213 0.03834685998906256 0  0.02881436841110018 -0.05280024030203549 0  0.03766314339260779 0.01341417561741085 0  0.04161150402275337 0.0841054903805462 0  0.03204349558478503 0.05326748355735343 0  0.03139708866840897 -0.02894233307359237 0  0.03040294509434185 -0.02802631921698842 0  0.02848957098662414 -0.02804989880026272 0  0.07640261943058332 0.04147787157125753 0  -0.0704189481376913 -0.04157036827214162 0  -7.105734155834196e-05 -0.0704635475952468 0  0.001177928160148545 -0.06996128637398816 0  -0.0931987891239624 0.01933498499963688 0  0.08575220408501474 0.003799450913565622 0  0.08643859774953951 0.001818339894374451 0  0.05293184538726164 0.0562321915981448 0  -0.07384900535468682 -0.003790907162220561 0  -0.07563106585168744 -0.004892021910494795 0  -0.07654693730425613 -0.003326578487755624 0  -0.05969675224722304 0.07661775001480974 0  0.03435931881801332 0.02517398237718755 0  -0.05956232358033138 0.03672288410779437 0  0.04575831242499712 0.05054930617043284 0  -0.02342869342891351 0.03675438558672045 0  -0.02292248786151333 0.03419468062194822 0  0.01152961280120392 -0.0478952694464634 0  -0.0781269897154986 -0.03184167662906313 0  0.05918919857582854 0.03822013293550269 0  0.06127906664785454 0.03790027127780406 0  0.02537582443128127 -0.0967186695381501 0  0.02575437797306639 -0.09356806363023826 0  -0.03268173812941086 0.08814015036085168 0  -0.03238625185219827 -0.02820365394245538 0  -0.0728286814142559 0.02291921499484821 0  0.07881978515800576 0.02724720893594882 0  -0.02530264916183618 0.06885606534883651 0  -0.09870493022153501 0.004319233125504282 0  -0.04338048764873287 -0.05941694095034648 0  0.06178167568908964 -0.003863095027536835 0  0.05890968551849831 0.001585509310846471 0  -0.0305063118200829 -0.06564805938930203 0  -0.02380083611349115 0.03212433155733534 0  0.03365221270141516 0.08368301149945749 0  0.06972749746142937 -0.03766350864334415 0  0.05892081396831433 -0.0425938841303819 0  -0.03871682753969279 -0.06474151733797477 0  -0.0623539464992806 0.06852404051550823 0  0.06936716692134359 0.02059774642909593 0  -0.0388751591052867 -0.02569169567731091 0  0.09867142939329235 0.01619822596093841 0  0.04478053662065576 -0.06581604400952554 0  0.04424940120045144 -0.06740595219681024 0  0.09087870644744175 -0.02101953615860353 0  0.07481463669747487 -0.04160228430322708 0  -0.01925202714449247 0.03662859981319857 0  -0.06525776176401379 0.02674575747396222 0  0.01657734962013244 -0.05684126197579558 0  0.05389874791895108 -0.06938962896572265 0  0.07417771984592234 -0.0517185284030364 0  -0.03794444430550801 0.02482235144261948 0  -0.04295607554314222 -0.01057956985093066 0  -0.0179450008714033 0.08282352334533499 0  0.0525911789005575 -0.05107423298439586 0  -0.08345755894862432 0.0231486491660171 0  0.04014603849225486 0.009417114348166302 0  0.03673558834155599 -0.01999470652854517 0  0.05052495798003433 -0.05057526716139071 0  0.014518380091655 0.09585570422348753 0  0.08470345281181116 -0.03634553245234255 0  -0.09206128009095488 0.02164666949861705 0  0.02778874215938329 -0.09605321083647547 0  -0.01171180647931122 0.04272471764743446 0  0.06173442519682315 -0.01263652802460875 0  -0.05377355447816159 -0.01912302055975705 0  -0.05796135339815071 -0.05903570920141471 0  0.08136970585746628 -0.01562760411483221 0  -0.07224672484064504 -0.0487778627675427 0  -0.07073684064876319 -0.04969886958131214 0  -0.07092484770029345 -0.04707312795647747 0  -0.03995970868840261 -0.02716608224948626 0  -0.03867018858414588 -0.02841948585632032 0  0.01558041192322472 -0.0987708675020106 0  -0.09503568954029659 -0.02652149009227742 0  -0.08606449416865344 0.0387415636653039 0  -0.04733478103958692 0.06406472385963444 0  -0.04470638808666081 0.06423680628870958 0  -0.0460814498143716 0.06546477384343814 0  -0.003250123981113151 -0.05568962396580471 0  0.03330847440803661 0.02436539894798924 0  0.0663908969128567 -0.03638842523117909 0  0.06523912732295332 -0.03486496950292679 0  0.09008754868917339 0.03079994715917909 0  0.0555905600884908 -0.002419010237219128 0  0.05423211683916273 -0.004715489831845023 0  0.04771820410257659 0.08358233502090781 0  -0.05405453835580541 -0.04875935875124294 0  -0.0661382689949281 -0.04299152916507712 0  -0.03484448457828701 0.03184230425391014 0  -0.06988235554284872 -0.05216930722365606 0  -0.06038838051607882 0.0379360406327354 0  -0.04726746095533859 0.05875814742432258 0  -0.001885510770228294 -0.04232553041748666 0  0.02582616204452349 0.05799238269101048 0  0.04003704263773605 -0.025297667984902 0  -0.05563055455880862 0.04986664238825716 0  -0.0257720556597031 0.07648793992853491 0  0.08011638879383098 -0.01830489770322427 0  0.04977191484262367 0.01643140770339357 0  0.04988166906753704 0.0187829205339101 0  -0.07272163459898959 -0.005881606372306579 0  0.01345757727500451 -0.07999096064078966 0  -0.07110030069474003 0.02391068992140071 0  0.03899918351219692 0.04889455818875429 0  -0.06777129968938379 0.07352199970899066 0  -0.04240340725801502 0.07360470270689307 0  -0.05772172150765471 0.02775209770730463 0  0.04212684584189855 0.08579018125893605 0  -0.02924031716864973 0.05929101368050794 0  -0.02910701136287221 0.05797732443240659 0  -0.03171273932043062 0.05836939133416776 0  0.07379465725155478 0.04306111179110405 0  0.07575191265476119 0.04485695094433889 0  0.04534191734505125 -0.04686429870372475 0  0.01333240693464354 -0.03925939651705365 0  0.01399828347311492 -0.03744997379856484 0  0.01357666533052164 -0.04061606204163476 0  0.09992168495550872 0.00375371528610763 0  -0.007878004184353634 -0.04634765397118461 0  0.03144589974144801 0.0846965038071418 0  0.03914176715798175 0.05152730261227816 0  0.09717801369194462 -0.02355561838893899 0  -0.01579558877913242 0.05972551267501836 0  -0.06661596673910444 -0.0404707313291462 0  0.07456174629834207 0.04113464669549018 0  0.01014164814848448 -0.09647737156424693 0  -0.02405961637224675 0.03347629433296943 0  0.02975696847121919 0.03818579463853555 0  -0.04235174697788134 -0.01409862803813505 0  0.05908494973559821 0.01358778100277165 0  0.02168259756830833 -0.08852138745874545 0  -0.06907704665595757 -0.04997751397477442 0  0.06629312568509843 -0.002711404257904142 0  0.09655797082886658 0.02598060376913608 0  -0.06921181073991081 0.07051291412084626 0  -0.07825275617948539 -0.008623286517544832 0  -0.07740521027361331 -0.009811227229960433 0  0.06063994553731242 -0.0506709849385125 0  0.03936965004918099 0.06976282567837311 0  -0.05779810505440544 -0.05119696685140102 0  -0.03120319354035672 0.03539491490015109 0  -0.02853715148432664 -0.0741870229850024 0  0.02946497244233195 -0.03931061130210796 0  0.03897631716180837 -0.03039169952341441 0  0.03687327133359319 -0.02928700907654925 0  0.09158338450065254 -0.04013623283521674 0  0.04522336119112477 0.0877644794176011 0  0.08539698535487193 0.0229207616231934 0  -0.06744455213081499 0.03066765414849391 0  0.0372498743987113 0.02853238308211162 0  0.03496903451550828 0.02984050768217883 0  0.02668052219521008 -0.045248072387237 0  0.02554774904926429 -0.04762695745733851 0  -0.02766247531517319 -0.05291610567024756 0  0.01104959280374158 0.07605299490330425 0  0.03536569470013128 -0.05761285542286718 0  0.03593213454748041 -0.05925436924567472 0  -0.004177346316365627 -0.08310739720193525 0  0.06318305984620949 0.04970464220674446 0  0.05815923334057794 -0.05841512054963476 0  0.05984500560903358 0.02193407383035046 0  0.08268854880347966 0.04846973141001383 0  -0.007270463579429454 -0.07678754794631427 0  -0.0903473182920758 0.03957355323133037 0  0.03804190495511928 -0.01769975559188582 0  -0.06203942356183321 -0.04381382974746852 0  -0.06802113171513123 -0.05327321017338395 0  -0.06868194303947554 -0.05449100644524661 0  0.07408716499665995 -0.01273167269949687 0  0.04730968923559959 -0.04301227892035109 0  0.03352494053349138 -0.04877070825037139 0  -0.04805813847301168 0.06962429848337134 0  -0.0376597040511619 -0.0503984652049119 0  0.04890213353182235 -0.06868560454138124 0  -0.002189507622541606 -0.0963354973494446 0  -0.002481324433978292 -0.09881495294914515 0  0.05916927615699415 0.07881601861874166 0  0.05907725950176988 0.0806741031097194 0  0.05732212782623326 0.08019506425658496 0  0.05758345257821808 -0.0189508328506673 0  -0.0450429063209804 0.001973656538941299 0  -0.04694398550357028 0.0001365735100776781 0  -0.09384105735922464 -0.02253650488152448 0  -0.09439567642716935 -0.02003116869842463 0  -0.002074668208604961 0.07596439937387563 0  0.06107794644118695 -0.01452982017994276 0  -0.06151002154699262 0.009103561605897596 0  0.04876533847637414 0.05431064955846332 0  -0.05015500310312058 -0.007195376652514261 0  -0.05279250547204278 -0.006992804221406556 0  -0.05212448992448587 -0.005633517382559952 0  -0.04912775104215815 0.02769181793419269 0  -0.04981692385593794 0.02883265477743946 0  -0.02705957903902756 -0.05459130755389913 0  -0.02569677046330986 -0.05461981434074148 0  -0.02562659925201037 -0.05686313384885722 0  -0.02378045545703732 0.05525404294603438 0  -0.01998159660447573 0.06431249362144711 0  0.069303771230993 -0.03466029872966028 0  0.03645560512595478 -0.02269671876465512 0  0.01546691112748385 0.09357082161086226 0  0.002393990046281818 0.06501689494860514 0  0.04941692445228045 0.03741814877128712 0  -0.04196190017685999 -0.08492149659316173 0  0.05364501421037847 -0.01599707094358404 0  -0.04175833503234212 0.03935059756452039 0  -0.04328626421116932 0.03795191554886727 0  0.04817358358369148 -0.03925025242255766 0  -0.05502545484110023 0.03841178753221321 0  -0.05558251269568375 0.03691881104937756 0  -0.0143385003580944 -0.06897047655149498 0  0.001551479918773893 -0.07744234618226956 0  0.03452016210114091 -0.02016955344616807 0  0.01356585631672219 0.05257443958851656 0  -0.02840520972782513 0.05610908273557561 0  0.05586664792515579 -0.004953880972316358 0  -0.03017611318895056 0.04403824747997456 0  0.01761463429573888 -0.09277216995925666 0  0.02996354403022811 0.0561360065588529 0  0.02225861224729751 -0.07126162461465058 0  0.02963098710512285 0.03107474438995167 0  0.07030538723348373 0.02627135000484549 0  0.04529858662160354 0.02446313826376874 0  -0.06944590432755339 0.0398327967964304 0  -0.06804713763832906 0.03990310847156362 0  -0.06733982090991318 0.03870989647683196 0  -0.02184157058092771 -0.07583104594264151 0  -0.0618788044490893 -0.02747219393959846 0  -0.01717886447079782 -0.04172237768472543 0  0.02963799543955351 -0.0409471006695938 0  -0.03512104320987991 -0.05134671041658029 0  -0.06575702044269963 -0.06299557437711191 0  -0.06337856704531404 -0.06378295972797396 0  -0.06589692983950202 -0.06435644943953918 0  -0.0724061940218282 0.0254766947087479 0  -0.0997103375631071 0.007502138751604806 0  -0.04026847294128923 -0.03481924062707138 0  -0.04087875036399413 -0.033578649957496 0  -0.03892538300599864 -0.03245709786145928 0  0.08908614983068443 0.01557825344347061 0  0.03267047640803126 -0.07829678158462074 0  -0.05615740069548778 0.004658338401996732 0  -0.0579794528701871 0.006262731956267775 0  0.06581227918222445 -0.05977484828225351 0  0.03766314339260779 -0.01341417561741086 0  -0.07204969983231452 -0.05147560474974071 0  -0.02551002242594248 -0.06972378957031655 0  -0.02555577922071327 -0.07236425373145434 0  0.06642611561317015 -0.0309883359813512 0  -0.04349687555799862 0.006078584562246783 0  -0.05966796337460158 0.009141633950762647 0  -0.03999772317583416 -0.01039064681018492 0  -0.05061143931770819 -0.05673083707300406 0  -0.04899866901996416 -0.05578166078223208 0  0.04148061723921687 -0.03304476208944804 0  -0.04323929963158327 -0.04805420247795528 0  0.008760022779740634 0.08306652003799606 0  -0.06617475986831983 0.04657765200094589 0  0.06664518003473965 0.01129337383792644 0  0.0683652761265645 0.01307072624327492 0  0.06696992216199289 0.01381819473793819 0  0.02604667303827279 -0.04178213765787916 0  0.02636711145327634 -0.04376871715867611 0  -0.00971472171185662 0.08316966270237551 0  0.04908073858527557 0.04202750998602888 0  0.0729743092797609 0.0291150266793558 0  0.07789414699173056 -0.05686808447693302 0  -0.06812290144984849 0.04907941991059655 0  -0.06687759988827448 0.06933121673711683 0  -0.06805763470398669 0.06815240891603924 0  0.001924121320783277 0.07299051305678601 0  -0.01681540560570405 0.09856812688243982 0  -0.03181986475442027 0.08714382980463414 0  -0.01459242151792097 0.03904329849014455 0  0.05084860227644435 -0.04929787432111517 0  0.002344690172313841 -0.06373060515427166 0  -0.09055205247088183 -0.02912658613943264 0  0.01605769418110205 0.04091458796613466 0  -0.02898876545598837 -0.0956978838853545 0  -0.06131225906064034 0.02871033510042916 0  -0.03073997293865974 0.02960189567339751 0  -0.01205737268708205 0.03955410100177169 0  -0.01034017718631878 -0.0583551951673958 0  0.06982624412936778 -0.04476692396454737 0  0.07061626181217495 -0.04665355437849179 0  -0.02473576723139378 -0.03907004342017156 0  0.09118443570262132 0.01538193391120891 0  0.03561003769824676 -0.03445322488194119 0  -0.01694156432828637 0.03796531653459665 0  0.04602654707622458 -0.08540348915838077 0  -0.06621014793984563 -0.06146551377921108 0  -0.009825206067435685 0.05801567410572023 0  -0.01135097574628804 0.05596980352898527 0  0.00889537944223379 0.0686024033059584 0  0.006354979290266833 0.06920148699440279 0  0.03680809510379739 -0.03583378554973696 0  0.03836157142062752 -0.03495552417466508 0  0.0118079424815232 -0.0743119448675566 0  -0.02987272909910043 0.05267331099881786 0  -0.03065189860369801 0.05386212715358259 0  -0.03244641837670091 0.0530210218527698 0  -0.01978265751876861 0.04482214390901015 0  0.08554129775758904 -0.04106330621576746 0  -0.07490299563952671 0.02801892158840135 0  0.08665444904990377 0.02133806328570387 0  0.08009950498185624 -0.02891610393422362 0  -0.03934439455119471 0.03769818508428548 0  -0.07313746102088912 -0.05272006742494399 0  -0.07332086544742671 -0.05014506148628951 0  -0.07467058524391046 -0.05189905997718922 0  0.04855008654082042 -0.08594135265645188 0  0.08946004033999418 -0.04466916929117567 0  -0.008445237241543597 0.07562892177521335 0  0.03880672857845206 0.01524207922023751 0  0.07072717465586503 -0.05093960139033685 0  0.02948445899374267 -0.06526770692244931 0  0.0600019983371502 -0.008704549024970549 0  -0.08708986795213322 0.009853334108540493 0  -0.06746829131416658 -0.05119831083278868 0  0.06781024992111284 0.06948347735269336 0  0.0008543287021051554 0.09344446174238349 0  -0.03942668240482598 -0.04625368187135617 0  -0.0856995266322316 -0.04410734952554185 0  -0.08715091733479133 -0.04613798298696848 0  -0.02892954238911305 -0.03398627677710157 0  -0.02966522904736257 -0.03626963466617376 0  0.07449766905105525 0.002497878264652828 0  -0.09368253974002862 -0.003009734041370497 0  0.04966326474461843 0.02489368166498322 0  -0.001297958249725171 -0.08592230037763936 0  0.04410844363346615 0.08973783317548087 0  0.002996073396134602 -0.07636750229215009 0  0.002113617737524277 -0.07478304602529358 0  -0.07135344694996112 -0.02199110935677445 0  -0.07055114743882757 -0.02308440567088874 0  -0.07202746193299971 -0.02455680405583424 0  0.009311875819032251 -0.05485460143259285 0  0.007393207274423812 -0.05595154506898245 0  -0.03290910395069639 -0.02994813926643681 0  0.02426766551964303 -0.0422143520060412 0  0.06913970033776998 0.007293619473996446 0  0.06503781933263783 0.01021901502175659 0  0.002358389543607413 0.06917222782529527 0  -0.0413958262958609 -0.04600996358433671 0  -0.04748778556896931 0.006246763995440427 0  -0.04557292582436868 0.004457257334157656 0  -0.04579194564728628 0.006434602962036308 0  -0.04416782912975858 0.05650552639837614 0  0.06323378807702998 -0.005013967890125438 0  -0.006827523593870836 0.04602149571045744 0  0.03535893991744306 0.06162282054558999 0  0.0335992153942737 0.06265303119721188 0  0.04767061653497013 0.001340018218173985 0  -0.05746368866478455 -0.07299142462167256 0  0.09702029897708238 0.002379925776828648 0  -0.06034809860383751 0.03424055830528763 0  -0.06777129968938382 -0.07352199970899065 0  0.05942596479862575 -0.01125830965447077 0  0.01635980121279884 0.06994853478676785 0  0.05007759221239415 0.03961970710428109 0  -0.02147127929804164 0.05467823429291983 0  -0.01957799011680446 0.053990707582368 0  0.04318491848472882 0.05483973762199462 0  0.05999638850818377 -0.06259528611721486 0  0.06629426450637906 0.05885520038379739 0  0.04278401347900697 -0.07083465641878323 0  0.01235277682161326 0.06695098971162197 0  0.01076078742241806 0.06780847636014979 0  0.05514561198924407 -0.04801929126193236 0  -0.06718857456743971 -0.04462952562430916 0  -0.06854218099704963 -0.0460629052241607 0  -0.06908694868169721 -0.04354883298581251 0  -0.01069834554086942 -0.07545875824877944 0  0.08803132756202522 -0.01486285922578015 0  0.01895339035016138 -0.08626715576680133 0  0.03539831067618596 0.08169364493952991 0  0.03339598233749953 0.08161153871097139 0  0.04268584563243954 -0.02454400559287858 0  0.04453848693305447 -0.02628417085557432 0  -0.03061865188954193 -0.0300414839086722 0  -0.08944558631889953 -0.02672568080337964 0  0.07689738743447169 -0.04178650441030377 0  0.0455540064668018 0.05580591880652681 0  -0.09404364815830318 0.02271100161122843 0  -0.093997271628873 0.02035220648772855 0  0.03797396283240668 -0.03944644830362346 0  -0.0446311614014978 -0.08536028724287498 0  -0.04394962408376166 -0.08649935591209437 0  -0.05346823736217407 -0.0138340122654209 0  0.01629945644631501 0.03650726225371543 0  -0.07904137838334366 0.04380097607934166 0  0.03702307900225618 0.03033558639241898 0  -0.007436403430789595 -0.06201457844751922 0  -0.05871606946686365 0.007983271506649374 0  -0.057052212095825 0.008747648747327632 0  0.01485745904600006 -0.06024670272735079 0  -0.0009156192652538745 -0.07764347516986575 0  -0.008369583717188303 -0.05116833054399617 0  0.07603893194743905 0.02752834615077935 0  -0.05055069255265737 -0.0361611734971342 0  0.04663040956913499 -0.02783113012850937 0  0.03777800278689435 0.06124255978183108 0  0.08925734285811729 0.01362529926425998 0  0.06841214685614426 0.05740736077328808 0  -0.006640556378591906 0.09497926851279878 0  0.003758050955016625 0.08551925080097085 0  0.005032852271181919 0.08727823737005889 0  -0.02519117330046943 -0.052939336824129 0  -0.09153482398133909 -0.03697796320825183 0  0.01218305794077714 0.07541869949308404 0  -0.06603718066076002 0.04973886009759789 0  0.06769121504586322 0.03822620346774255 0  -0.04072363471919492 0.04981953795964202 0  -0.01276785811605783 -0.06462889433647931 0  -0.0291270884689073 -0.07936412442424817 0  -0.03656631920874944 -0.04392438251677863 0  -0.04298183191093449 0.09028286453351637 0  0.05935785091463871 -0.03297841730583594 0  -0.01166477107923431 0.09509873416945586 0  -0.01811071898820241 0.06907036969024276 0  0.08775679505064048 0.02522480675954674 0  0.08294586973787536 0.04000003039546168 0  0.0822419843122429 0.04171197696849867 0  0.08446374324047266 0.0420895265882357 0  0.01141655430474573 -0.04124443978614432 0  0.03747512583699016 -0.05909486955733134 0  -0.006649086134950687 0.07582711309744969 0  -0.006352365929819734 0.07387846622762367 0  0.01466820492205752 -0.05093021047478916 0  0.01620855204669811 -0.05000833740243026 0  0.0688977539448295 -0.01991036148673804 0  0.06712457258095803 -0.01931697367952678 0  0.04322681521352321 -0.08143153779127435 0  0.0453007252975491 -0.08297739221168152 0  0.04323652546335526 -0.08340260155800971 0  -0.06087541949107634 0.05440625197263001 0  0.05609904547689027 0.06532763103814207 0  0.03541795898857243 0.0591265129066104 0  -0.01487181958615187 -0.07960184281491814 0  0.04179737590326679 0.05175187300693824 0  0.04205044969585615 0.05410948125926758 0  0.04389118109937067 0.05266616603249828 0  0.06351161941916755 0.04844360983736586 0  -0.0208727995388989 0.04847514039789839 0  -0.007687628503328523 0.07346805936890094 0  0.05423872667437184 0.06403077025990078 0  0.04607145343027712 0.07657748905461187 0  0.07038920118172826 -0.03944225537263341 0  -0.0458910354177311 0.06281512157487998 0  -0.0811983232658149 -0.03051041633743509 0  0.00377948286938143 -0.07838551108210369 0  -0.05254833884865683 -0.001438229521344926 0  -0.05312092030262751 -0.003262924375173403 0  -0.05421173148556217 -0.000916264014309575 0  0.01932085880557767 0.08277523191805368 0  0.05925773887411054 -0.07717675415656919 0  0.05063985548530137 0.08481083782934247 0  -0.06975738855665593 -0.04558653211576506 0  -0.07606555851198266 0.03993652231412114 0  0.04921268235512024 -0.02722902924576683 0  0.04846584750650282 -0.02870235588703425 0  0.02023422984419039 -0.06955407849058613 0  0.01890605702651094 -0.07002309271293394 0  0.02805493813784303 0.05991607618020565 0  0.02825928012084693 0.05815212795696331 0  0.05843083870507441 -0.04728446412786026 0  -0.006168891179267994 -0.05871379541015299 0  -0.04326422350390065 0.0628983255383167 0  -0.04198724406189018 0.06166675994908522 0  0.06119146496369991 0.05972696789431402 0  0.07254386259344325 0.06047285075808118 0  -0.05259089724638898 0.005931994547042841 0  -0.05227154856466538 0.007359803516579097 0  -0.038149734836423 -0.05743548854891954 0  0.08731560732333253 0.01355962181791061 0  0.08677096574155538 0.01476586948394528 0  0.05021722462276831 0.04351129960465644 0  -0.05511450347462232 -0.03335529580267789 0  0.06350842846486851 -0.02892516003908446 0  -0.01276797335472131 -0.09490217237427151 0  0.01923125736893293 -0.07196661655453944 0  -0.08221334975867602 -0.02574019053824497 0  -0.08242086786877822 -0.02822800508357383 0  -0.06480578755297046 0.02162402656362864 0  -0.07309643961495546 0.06823008147741191 0  -0.07181397094021195 0.06542407443777352 0  -0.07184758806467618 0.06792043230836417 0  -0.08360748577726483 0.03551678122222358 0  -0.009145884504604133 0.06349306909716991 0  0.01474069213486268 0.0583037721155308 0  -0.04671132438212465 0.04697035854175683 0  -0.04663667829923363 0.04938552133766697 0  0.03508195922750684 -0.04515481916851265 0  0.03657302011278969 -0.04624048774874537 0  -0.08433513899469279 0.01922821965721759 0  -0.08379192379081178 0.02118467998978777 0  -0.08612948346116182 0.0209272348715315 0  0.06868619107882928 0.07266801674656911 0  -0.05116939665285306 -0.04359621747891659 0  -0.07309643961495546 -0.06823008147741189 0  -0.01139136182379393 -0.07682427263275783 0  -0.0392712653148691 -0.03646581946047093 0  -0.09789749712968734 0.01259847788408287 0  0.06904849206924379 0.0682598429958341 0  -0.08915759202709207 0.01531664265865359 0  -0.0446145857002016 0.05901114449228013 0  -0.06578706546546378 0.04789654296471457 0  -0.04391154908798692 -0.02463420279338406 0  -0.04144676234779907 -0.02539614842126177 0  0.01353473987216323 -0.09788071123059766 0  -0.02898876545598833 0.09569788388535451 0  0.0157540632233598 0.04897950684254418 0  -0.02846430270508739 0.04846187114027514 0  -0.02980702689393901 0.04990973671805364 0  -0.02878003960980559 0.0510228155844874 0  -0.07478133724166144 0.06637910140357428 0  -0.07027277994813355 0.03545822130715527 0  -0.07212644126337912 0.03552116732355814 0  -0.07091541389834446 0.03331322376111696 0  0.009775432464812581 -0.09824650278765162 0  -0.004087419705865472 -0.09561234796596429 0  -0.07889709366565746 0.01802343025157663 0  -0.02413324845654304 0.08873548243419435 0  -0.0749677788089434 0.06085531947681255 0  -0.0483746400539294 -0.08610861775721243 0  -0.02280047453040002 0.08703291540280288 0  0.06093993618624957 0.04817292648020375 0  0.01804776505643171 0.09834994498862182 0  0.07217111069324472 -0.06170387046986318 0  0.07369432461052593 -0.06029843581858476 0  0.07129095785299799 -0.05976498310435361 0  -0.01641379701013982 -0.08387165939907729 0  0.08829497855016968 0.03230149770034672 0  0.04074023344458351 0.0552276845895631 0  -0.0408693545201531 0.009006874327193807 0  0.001497426686128065 0.04663464562236476 0  0.07672879757847152 0.06232675769119994 0  0.0533826391124994 -0.01340234505173331 0  -0.06267156071570504 -0.03377642635738598 0  -0.06501468735097567 -0.03472870080512429 0  0.05731007453878464 -0.04348992067814527 0  0.08398272865344476 -0.006312367890292818 0  -0.09305642263934645 -0.01323059528409367 0  0.08141138143214087 0.05582166136603596 0  0.0817689638874099 0.0575523244324376 0  -0.03744912220609022 0.06879005424564105 0  0.009752045526861777 -0.05684936144413585 0  0.07274485071466383 -0.02108299419348096 0  0.09242875720944579 -0.02248951633323738 0  0.09091973564865236 -0.02401727461742938 0  -0.05690038706605664 -0.00164449030279917 0  -0.03914292697164871 -0.07126007718648526 0  0.05804462939901619 0.05477116203363311 0  0.03629266736411414 0.0239413520404907 0  -0.02685436729248596 -0.08540701317852246 0  0.05571668409331335 -0.07466637884011672 0  0.04186146000770666 -0.02853014217303361 0  -0.04372141589115103 -0.02056217409515609 0  -0.08678624964912014 -0.007377370052772509 0  0.01454583029292058 0.06816631694761277 0  -0.06057248373109621 0.03249329949426515 0  -0.05869569174400344 0.03124691619497915 0  0.02851559621352212 0.09128562047853472 0  0.0933877372016915 -0.03228508980111552 0  -0.01805791625982102 -0.05691065525729579 0  0.08415021680706433 -0.01622051211618042 0  -0.08300673893948846 -0.005882153225686632 0  -0.09622511840090457 0.0005210869528438026 0  -0.09053001293011159 0.01769768190101905 0  -0.01203217459715822 -0.06739008096528389 0  -0.02337995823666965 0.06177766552967093 0  -0.0249816293891833 0.06317620493857889 0  -0.02248802961332544 0.06362006652881967 0  0.07566921548067923 0.04681994195002946 0  0.0888131651287562 -0.01104071173076226 0  -0.04677556330435951 -0.002157577538027592 0  0.05530758057462623 -0.0795839103987257 0  0.04313289279195145 0.01758088518035471 0  -0.08847486632258975 0.02422238034761354 0  0.01266862296871653 -0.04152156323753414 0  -0.08616640347782023 0.02312558574841849 0  -0.06016870266997065 -0.03323404915624654 0  -0.08097550158548877 -0.05375705527492854 0  0.0542095269391329 -0.03941182535721523 0  -0.07562096289974299 -0.002404252098630098 0  -0.002731222670496184 0.08948719390188993 0  -0.06568589849168904 0.00340045602676391 0  -0.06933235685623353 0.03088232439891678 0  0.08983963394560611 -0.02211332251897791 0  0.03613323182102914 -0.08743846784983388 0  0.0342357569113242 -0.08601392992169624 0  0.0355676576577626 -0.0849771639283167 0  0.0880418025559966 0.0004109603150433431 0  -0.05438411430001979 -0.06916584392779734 0  -0.05182386518070093 0.02715793320437931 0  -0.05079037451968624 -0.003488512529364239 0  0.09055008171026775 -0.0424159899691252 0  0.03915548778570296 0.08842864574493753 0  0.0396942382323299 0.09055732545076633 0  0.07407915096658345 0.05883718007992961 0  -0.07701212563930497 0.05927308237900934 0  -0.07721351250376066 0.05727133119916 0  -0.07856547181167578 0.05725042168923595 0  0.09431433251817435 0.02896708685825068 0  0.09587742484929991 0.02838930973207951 0  -0.003556872166495481 0.09114539435866122 0  0.08881670694932957 0.002918041966358215 0  -0.03505574408058255 0.04127663995526756 0  -0.006237148518636109 0.05843550268554314 0  -0.08171907407932028 -0.005484168848582693 0  -0.08520825602929541 -0.05232577383319945 0  -0.006750966134738689 -0.08262235616797046 0  0.07552965007019413 0.03296613973309674 0  0.07325108325666091 -0.02414065554230851 0  0.08772110827541568 0.0197636712554649 0  0.07322575300512148 0.01722007371079059 0  -0.04142148537614404 -0.01627958277670033 0  -0.04345408582129177 -0.01763950128646502 0  0.095127546790981 0.01318452248158231 0  0.07558606079794777 0.05210583659361839 0  -0.08340211858287197 0.02883388589132894 0  0.03278002226475805 -0.07659330270108328 0  0.02821986644001595 -0.04317027238860974 0  0.03175030041862279 -0.02429754928041256 0  0.02766694649900455 -0.05997253164983207 0  0.0609373516746519 -0.06569905965005945 0  0.06747132251486272 -0.05569967018538109 0  0.06614090503732281 -0.05599907599800002 0  0.06542407661757246 -0.05414139564305268 0  0.01999325607011894 -0.06126329186160977 0  0.02187196400895016 -0.06162210582638102 0  -0.01357603130215268 0.05065157186842775 0  -0.05472962739163007 0.07012945187438226 0  -0.05493661060261492 0.06831666829882875 0  -0.05696211331245003 0.06880969121518553 0  0.08080341838514488 0.03334106608811488 0  -0.03451045427769247 -0.03154585629822447 0  0.05432523191946553 0.03037685727193061 0  0.05898315318209144 -0.01402568398711378 0  0.05937861695404688 -0.01255610618835169 0  0.06493279760669361 0.006880794917513807 0  0.06882096758344514 0.002954848831650866 0  -0.02736053189448796 0.0670798968837143 0  0.07029066813774011 0.04732280113199289 0  -0.09846096401522837 0.01743192668608377 0  -0.03675023854128114 0.02666839692377134 0  -0.04522814551002317 0.08917874386041366 0  0.01179409039335408 0.06099420117292847 0  0.009931454010518946 0.05993071817091059 0  0.0163534571275003 0.0957405669221562 0  -0.02952296597249104 -0.05897920406592774 0  0.06880248384359368 -0.002118415528302735 0  -0.05296815860704746 0.02416330116705949 0  0.04414617156963006 0.07315026408535084 0  0.006422494568552846 0.07937183091192464 0  -0.04573229743941177 0.07620791836720364 0  -0.009007193954419748 0.09832667366063894 0  -0.0512898253384944 -0.0482978703569153 0  0.02131857790209166 -0.0452684964200174 0  0.05867808037546652 -0.07432126999630485 0  0.05996587017144808 -0.07210642480870212 0  -0.05609473752869536 -0.04723649981585359 0  0.01323917809911228 -0.06954430675493001 0  0.04489690927010064 -0.01494555784182534 0  0.04366802299792963 -0.01625646433653982 0  0.04233460871436485 -0.01497212839652689 0  0.01566349221497275 0.04643953215255656 0  0.01693458439079092 0.0451524414827132 0  0.0805081034218198 -0.05737589412368048 0  0.001144936820096898 -0.06429026289899649 0  0.001810570077558258 -0.06186161139667366 0  -0.03498730029739103 -0.03508785311454941 0  -0.03517711487268647 -0.03380329207900038 0  -0.03391148816977386 -0.03579466202185885 0  0.03885733400077832 0.02079964935353738 0  -0.06536570669308875 0.004788320341537564 0  0.006534879913926578 -0.08284631663087787 0  0.05829550336696288 -0.0596890290594616 0  -4.399811667013856e-05 0.06676083267769893 0  -0.06275713777755444 0.06159047102671149 0  -0.09712466888997975 -0.01801413342593556 0  0.05057335703645019 -0.05791011909685431 0  -0.05543117477741667 -0.01758291245860144 0  0.04410844363346612 -0.0897378331754809 0  0.02667614099845908 -0.07670563954617914 0  0.07373534019699449 0.0008184580200437587 0  0.002812862546621941 0.09141168719725921 0  -0.0498875848131206 0.006365938277410828 0  -0.05422232723371922 0.07656446423144192 0  -0.08809356283718124 0.007503128189111911 0  0.01636617590591914 -0.06644111289270181 0  0.01053759149545978 0.07348162403151563 0  -0.00102382741931864 0.04344551390763578 0  0.0002363052929881781 0.04124419133804051 0  -0.0006217715693413383 0.03997581616205521 0  -0.06735292862002408 -0.01409402680114167 0  -0.00798993175074773 -0.09664699014976776 0  -0.008863030663054544 0.04014052158385776 0  -0.03485849108641623 0.05314246222113784 0  -0.09551459497624393 0.0295870858538176 0  -0.06221548057830216 -0.02354754266615961 0  0.05205307043414287 0.009338390550564332 0  0.0516887089822084 0.01064291215647031 0  0.05265489265185563 0.01152110246035893 0  -0.05960540849952004 0.003251862159452058 0  0.04131584142050554 -0.07016405170506981 0  0.03991698081821424 -0.06793946734937961 0  0.05185000261052478 0.07244314720372724 0  -0.06084627283596966 0.06332738283015908 0  -0.08748293141202611 0.02074658399975971 0  -0.03163600386192719 0.08170273743206526 0  0.01079708161176926 0.0955951160615847 0  -0.008871470421026362 -0.07881983936574155 0  0.01670282151644167 -0.05963979917859574 0  0.06252433560130852 -0.02056259309477764 0  0.06732835217026156 0.06336089500876729 0  0.06931918832096799 -0.02240022735862637 0  -0.02496227227271338 -0.03264710753165868 0  -0.01615231897099211 0.05366555582433403 0  -0.01496027536504307 -0.09376628564386991 0  -0.05583153865494402 0.04405510810823769 0  -0.04454723569690345 0.061566906150588 0  0.05172926790038074 0.05896453177932622 0  -0.03533557629469732 -0.04003255010123744 0  0.06388762731171248 -0.006272248542839158 0  0.01769872940622578 -0.03990122845834215 0  0.05410407672370005 -0.02521079942219341 0  0.07051353718533111 -0.02188310348232287 0  0.0953532640604525 -0.02536197999677288 0  -0.006593627944273994 0.05614128469422561 0  -0.005156031642070303 0.05554230094167473 0  -0.0514803159230403 -0.01959005707105242 0  -0.01596835807912858 -0.0506401891949862 0  0.05282481974145211 -0.01087333015600649 0  -0.06981922492996899 0.04192872331566035 0  0.07766893867707711 0.04475489094946297 0  -0.05707911519767891 0.05990388843615334 0  -0.007395180033389862 0.09649450134504946 0  -0.0731863964861777 -0.03651969532008742 0  -0.08836047969952282 0.0003223783350896474 0  0.05729675926706633 -0.05642436311900836 0  0.05903550378705606 -0.05528404460088489 0  0.05778575355826231 -0.0539072188659063 0  -0.08878081737644947 0.0119464104838649 0  0.07322624349024498 0.03339271234771092 0  0.03682929027378522 0.07974566453916267 0  -0.04453665873192531 0.08470051790835616 0  0.03417558894330663 0.05645350349605911 0  -0.01041055572921891 0.07932666411165228 0  -0.001433478657353287 -0.08111760960257101 0  -0.05849681336015525 0.06021217144608125 0  -0.05725536948581677 0.05788681263917102 0  -0.04211417598255451 -0.06118817994730814 0  -0.04089612408361074 -0.05895704588906118 0  -0.01923586090796364 0.0696595232353143 0  -0.0311810263002424 0.0394359122286667 0  -0.04143048482338497 -0.07017097365831933 0  0.008145312753083941 -0.05905051164079406 0  -0.03234419221841023 0.07469378262638661 0  -0.01837050525148758 -0.08249995015894834 0  0.02381832566953386 -0.06922855031197801 0  -0.09585578316524636 -0.01581071018170644 0  0.08509432440715667 0.02539085594100564 0  0.08382927804350619 0.02605429862042569 0  0.08807151134167987 0.04172228794311865 0  -0.02124553081648088 -0.05024178869015662 0  -0.01897139945579792 -0.04792982049062559 0  -0.0768587247809583 0.04831539394876772 0  -0.07127555389379113 -0.03826457111579461 0  -0.07139313633773235 0.05213398079827824 0  -0.08779486258929339 -0.005974431958735676 0  -0.03199939933579023 -0.09293582221760269 0  -0.04225271621132078 -0.01163598485654974 0  -0.04034901704572762 0.07870400609518156 0  0.06851680947901345 0.0292587854125433 0  -0.08822620296270624 0.01882008750550471 0  -0.08974130379875804 0.0193326434532928 0  -0.002337278157445684 -0.07634566774707251 0  -0.001164885665657676 -0.07484712348652234 0  0.02528198064143379 0.04069297311717246 0  0.02444330156472978 0.03900800910212322 0  0.06668122614301916 0.05280551628047898 0  0.06704616631177467 0.05143712646627482 0  0.02298648775012426 0.03958162336778447 0  0.02196206173168081 0.04192245503268007 0  0.05311925248408324 0.03828717497580218 0  0.05338084564123764 0.06624030517413373 0  -0.08267618453931737 0.04669854282110064 0  -0.06245510251772902 0.01243441746405436 0  -0.04423417739063448 0.08838340769806052 0  -0.02184812216843842 0.06539355272386452 0  -0.02190978708610137 0.06792554687229752 0  -0.02540180187901197 0.05925238280535011 0  -0.02591867860985659 0.06131472819248651 0  0.0273293210550234 -0.03786068228003056 0  -0.03249059267219102 -0.0232983661555192 0  0.07959167440145878 -0.009908195234915622 0  0.05180201641554164 -0.0199974792694208 0  -0.03699409617670684 -0.07242613171857967 0  -0.08545656760760333 -0.01774618234424291 0  -0.001348832306165002 -0.05389315600902934 0  -0.0006098424246924724 0.0681044229416001 0  -0.04912776362807235 -0.08362430998885434 0  0.002077996309673183 0.08349120899261021 0  -0.06974259545468549 0.002804976975080145 0  -0.07961983213317946 -0.04681877356287446 0  0.02294700623998201 -0.09732352442970468 0  0.04809098391305313 -0.04059017995248945 0  -0.07870895467137176 -0.01371680941089066 0  0.08518803727696531 0.0201930454537003 0  0.04771468360489586 0.0094346838437229 0  0.04853998870346101 0.007046327666189164 0  0.04965662208169504 0.008696230511010573 0  -0.01961299542591395 -0.07929302034509876 0  0.0879401494176537 -0.02133820935683493 0  0.08815578982193009 -0.0188018617791479 0  -0.06781382014475219 -0.00351702859079318 0  0.0495370867690238 -0.06173652795266761 0  0.04738206704071405 -0.06292511724678404 0  -0.0520514511841002 0.06603094940865192 0  0.01974845587580192 0.09680371502191543 0  -0.01498848032217972 0.07840121286532545 0  0.03602013624530918 0.06658375516420803 0  0.03621470301216525 0.06788737365653147 0  0.05518746344726556 -0.009752336870545265 0  0.0554099660939107 -0.01184139133910687 0  0.05731423378770729 -0.0109792053172266 0  -0.01776542424774825 0.0717787108688205 0  -0.01721848414181779 0.04614081637492685 0  -0.07180471849960107 0.002200925213571629 0  -0.05596700169057274 0.0636764396850002 0  -0.09678259141902491 -0.003671216258466221 0  -0.04128140456225936 -0.04812760459438985 0  -0.03566863594595218 0.07522097770871941 0  -0.07015699788708817 0.05425382318583177 0  -0.03835366077227992 0.05995322618021635 0  -0.07343092277097907 -0.03304544927515089 0  -0.07131355502029305 -0.034513379504468 0  -0.07176932505517671 -0.03305449850454405 0  0.04571426847982842 -0.03217262730041025 0  0.0343864647007865 0.05394525805319453 0  0.006755554360316372 -0.07449986160788226 0  0.07924585069957271 0.01597629494707885 0  0.05431843344281543 -0.04190820123627459 0  0.09078353387765571 -0.03412094225167544 0  0.09384447207754397 -0.03101115613040758 0  -0.04477473009280392 -0.02767809147046648 0  -0.0390487276382843 -0.0904974612681593 0  -0.007194032004594313 -0.08631156963317728 0  -0.01742694293854033 -0.03598269219393867 0  0.05017606547680731 0.04886417903650409 0  -0.07144329731778709 -0.005077484328587645 0  0.008657264665039254 -0.09154981613000776 0  -0.01434297747798574 0.09895813508682896 0  0.08095975345459913 -0.01729393508318426 0  0.00412132920924818 -0.0596931343837493 0  -0.01182645327793597 -0.04446374145919083 0  0.06171472114186517 0.04320612702194901 0  -0.05348112994053406 0.05029798821816166 0  -0.09195082789170968 0.005427158194050774 0  -0.09285596890363335 0.003035623381646656 0  -0.09356282076761976 0.004275412487262034 0  0.05285799197732169 -0.08487912692130198 0  0.05277236358091673 -0.08355779305757674 0  0.05516093333540767 0.01493184163932496 0  -0.08794869907570081 0.005652035787759636 0  0.03507080588206735 0.09070854548734079 0  0.0516321555868318 0.02969994831265868 0  0.05235388335980703 0.03106505590227598 0  0.03894509578274858 0.06310367076920932 0  0.02496881454167477 0.06784733890080537 0  0.09533281467240561 -0.01686707752932361 0  -0.05467895223347283 0.007796311338787549 0  0.03743160912843209 0.01741224182125361 0  0.06341915802434082 -0.002460799526731655 0  0.0838507056052735 -0.003115373306559812 0  0.04391956655086947 0.04653229364119758 0  0.08030281123784905 0.05958097020102544 0  -0.07758398798940425 0.009719918588235149 0  -0.07971072042372204 0.01093922726743502 0  -0.003510783554327118 0.07268313046662749 0  -0.0280191004778128 -0.08667050197167778 0  0.09261088582823152 -0.006303272687274396 0  0.09325823546904549 -0.004685615932273465 0  0.09508691581351394 -0.005728820256537923 0  0.0493954875270288 -0.08363650884699053 0  0.07978578000201716 -0.05842074031521364 0  -0.01268793058961673 0.07819500971548755 0  -0.02940063509187082 -0.04913460683456852 0  0.03517736177309446 0.02128153187078363 0  -0.0513885982761957 0.07266597125785826 0  0.01080165637151048 0.03982587285537827 0  -0.05120154040971132 -0.01562014517475811 0  -0.04358430973968765 0.07610496937371923 0  0.01869381421467785 -0.04397349346893871 0  0.01756983747835721 -0.042265346774744 0  0.03333557037071032 0.04373519457868565 0  0.05933635192675984 0.06512355586794756 0  -0.04898691047832242 0.05003516845098431 0  -0.04906146941029635 -0.04264808475109298 0  -0.0802455711261504 0.02620315007763366 0  -0.07851440332880115 0.02686741985157905 0  -0.05551180126351864 -0.07543013738164756 0  0.06512108530504966 -0.03885793319923507 0  0.09037253192452789 -0.01372340063594575 0  0.09264222607091351 -0.01333378665799844 0  0.09260712934821005 -0.01206706920143639 0  0.08291532978307077 0.0008605487394327677 0  0.08546162731641505 0.0009479881805906957 0  -0.0432591788563166 0.06034527777398344 0  -0.009261321431505024 -0.04412384259057512 0  -0.00455417501598411 0.08203680180684286 0  -0.09356426514056883 -0.0253983260984244 0  -0.009425224830954832 -0.04286217853893802 0  -0.06924122823761668 -0.002058239760122718 0  0.06163617479563773 0.02507794217999035 0  0.06711729873862998 -0.0008042394767961614 0  0.06691932346989625 0.001279608242775502 0  -0.08685672557847146 -0.04342966674036838 0  0.02103432213819303 -0.03727820878813668 0  0.03342679895100008 -0.03869744925744938 0  -0.07754821567879172 -0.04502300656574149 0  -0.09236484972923346 0.02818364545322236 0  -0.02821058508663176 0.04589628100846341 0  -0.04586267212824653 -0.006546072887578996 0  0.06200350981228857 0.01087788322788545 0  0.04108490381034485 -0.08197076202063629 0  0.01322544687640959 -0.05476709042610245 0  -0.01061578817664001 -0.06584967462163471 0  -0.01019239160862594 -0.06826979199069523 0  -0.08422417608377757 0.04337111843096964 0  -0.02807263525327127 -0.04194592174604225 0  0.06790870181244103 -0.0393447117051044 0  -0.03637603803965481 0.08360012572451918 0  -0.0353208631789364 0.08134007428729532 0  0.06780744264591576 -0.006874941260535444 0  0.06769736002075036 -0.005590427250827141 0  0.0527571956770797 -0.04252230365662637 0  0.07875225396767975 -0.04355818790294905 0  -0.07181633500182572 0.04554311526219325 0  -0.05682884815484949 0.03296786537459322 0  0.01557239173987996 -0.07549121111046651 0  -0.06785844769879479 -0.04858753647087008 0  -0.07281572357386425 -0.03850267740372689 0  -0.02092209671023565 -0.05616466232381524 0  0.04934992419405853 -0.01534215112292922 0  -0.06612801678533863 0.01355321284286658 0  -0.007670656918718071 0.08248764343407355 0  0.08910048250921306 0.03327033690659401 0  -0.04171770711452304 0.07545660071465136 0  -0.07066520279040446 -0.05378766360805604 0  0.04543515029908041 -0.002562770461034188 0  0.03699318804144495 -0.05610341690830611 0  0.07605514300115568 -0.02709045400205814 0  0.05911266496610845 0.04441004050854065 0  -0.03085821055757233 0.07493010847290683 0  -0.03034769778650054 0.07305408895445679 0  -0.03160689627932207 0.07253071357431569 0  0.07722050320229407 -0.06352501387628016 0  -0.07234986262414757 0.007014414393120512 0  -0.02612564921147677 0.07089777917375777 0  -0.02552806559385732 0.07259368551891021 0  -0.02797211894257446 0.07212016913942926 0  -0.01724019913447888 0.09321329192293067 0  -0.04289919780756215 0.08901870451792351 0  -0.03261219817919222 0.07345794927251205 0  -0.01580403587038808 0.08908655920545998 0  -0.02645545826221908 -0.05071924674839717 0  0.007503336533043387 -0.08933468222499645 0  -0.07229782830427631 -0.02875135541624836 0  -0.05354239721561427 -0.05882767811531937 0  -0.05458468103174658 -0.05732987307401259 0  0.05084044425964476 0.05482010719543302 0  0.05011239332945946 0.05248448746638629 0  0.07088738169254574 0.05879723389461283 0  8.422513808207773e-05 -0.06647169448061933 0  -0.05922496043173526 -0.06118410070537716 0  -0.04483154886172995 0.02604578781161955 0  -0.07105092973470505 0.02922188400426927 0  0.05888143040743356 -0.01604294626591021 0  -0.03788523241067027 -0.05486763140553621 0  -0.09387925886750452 -0.03030138229601396 0  -0.07984632380431818 -0.0579966871819267 0  -0.01598879298822972 -0.09096395410984992 0  0.06333941699829 -0.04839149718260605 0  0.0600378763401177 0.02567964721329983 0  -0.05757991283655638 0.03788026955317083 0  0.05800026822962619 -0.02255736201989285 0  0.05998781603299775 -0.02320278241210655 0  0.07370422624355209 -0.01731727562768665 0  -0.02888302531310874 -0.06264581664401586 0  -0.045842962904292 0.05748309365481517 0  0.05637803760564598 0.07935257688721814 0  0.04850199529177712 0.0164538659735359 0  0.06724239941755221 -0.06541294737263265 0  0.0505058780262382 -0.02737604353171886 0  0.05071506955071432 -0.02587699052684413 0  0.04781710747588298 0.0115155633669203 0  0.0003923152426032507 -0.08457744194294062 0  0.008268377591238255 0.08095438748257057 0  0.003777038457369919 0.06847477365123625 0  0.07685979016504373 0.05061922731805604 0  -0.03912536123237483 -0.01709546182729208 0  -0.01615096526022291 -0.05320838153081051 0  0.06143820026422162 -0.02565094553053026 0  0.0620608733630852 -0.02678504047959109 0  0.06149139386616644 -0.02799967294881296 0  0.07601497120607999 0.0179262674680511 0  -0.08778207424596594 0.03351131637710618 0  -0.01686669351907476 0.0808000146960523 0  0.07984955681058198 0.01396682131695145 0  0.04500662742923565 0.01818381122649073 0  0.03794313779882313 -0.05110862339315405 0  0.03551325617369882 -0.05194678655428282 0  0.007064439103699042 0.08891103703606376 0  0.06953571082952861 -0.05520256688549428 0  1.115956922169339e-05 0.09540391996797692 0  0.0418484868327515 -0.09081375255216648 0  -0.07984634063557935 0.03552205037179696 0  -0.01590643420112101 0.0947233605180202 0  -0.01484404968960161 0.09405445810996022 0  -0.06580848558369076 0.02886139920422271 0  -0.07615905792707368 -0.05584279877317744 0  -0.01624718567487538 -0.05873484155111392 0  -0.06740046577013328 0.0666953077150013 0  -0.06603298201246481 0.06659117284978364 0  -0.06692891300385999 0.06417057219964144 0  0.0214448762608841 0.08624253172894969 0  -0.06398093429247248 0.01331043282225542 0  0.08929590337608277 0.0005618020812010666 0  0.06216848044062315 -0.002657568384884812 0  0.0259888611187552 -0.05888823035391202 0  -0.04820758254089606 -0.002218070926143895 0  0.03664376016880523 -0.0753956717445828 0  -0.03809183507519222 0.07998618533707139 0  -0.0799969107451563 0.02008554216142919 0  -0.04133990345334018 -0.0001045079369688309 0  0.0676764419158383 0.03229075468071751 0  -0.05885992485797896 -0.001546823789920274 0  -0.07571045888331052 0.03628865370292687 0  0.01482906347133826 -0.04077946552380707 0  0.03792618250213518 0.0718101972132036 0  -0.01805428440465215 -0.05542985230099789 0  -0.001222993489173536 -0.05207433807825717 0  -0.02062555357489244 -0.08897629958513201 0  -0.03018230730326862 0.03769738167737699 0  -0.0710971708838584 -0.01957554547736881 0  0.09102501774187634 -0.0101060087914339 0  -0.02254688011217791 0.09030261853245365 0  0.07219723401092415 0.02707858754303553 0  -0.07736134554496529 0.04573931019557838 0  -0.07723663661268826 0.04376112639576726 0  -0.04113167650439156 -0.002112447530502238 0  0.008694967467739631 0.05243006057598643 0  0.007443245791483413 0.05257337799694675 0  -0.04343556239731265 -0.04457998097983985 0  0.02328702641801171 0.08723118030196983 0  0.02088577488987208 0.08792901095750745 0  -0.08267708778898875 0.02646311249880626 0  0.03176237701829143 -0.04715799140477149 0  0.09979642406704956 -0.006253578673584276 0  0.09873347455652232 -0.00555501576332416 0  0.06088189896789179 -0.06986238776402197 0  -0.05447218834337974 0.03012531501884645 0  -0.05523955946775579 0.028587291668707 0  -0.05359374783824421 0.02774595964513389 0  -0.02399555825038899 -0.07071601130754732 0  0.04907232733003881 -0.08179677435169762 0  0.01849600411580556 -0.05391902171887342 0  0.07391675598102376 -0.02867006456595346 0  -0.05162891823000636 -0.02538308819002833 0  -0.09659366222966656 -0.01296973631215293 0  0.06609818424159226 0.06617474623907237 0  -0.04465855175531325 0.03580759296341647 0  -0.009372714193755131 -0.09955192480027333 0  -0.06334496988296688 -0.03870763610586441 0  -0.06443575313828898 -0.03796315550444689 0  -0.06322982634271784 -0.03996829475588929 0  -0.04625626770202078 -0.05189244896916368 0  -0.004378962860588231 -0.09989623710161802 0  0.08585649010864317 -0.05125521055484558 0  -0.06959032237424653 -0.07180264991381266 0  -0.09207855519513555 0.03898683336683643 0  0.09998433502797097 -0.001251499824832572 0  0.07878634093661241 -0.0615722826003468 0  -0.06008234745046858 -0.07992837435878619 0  0.09347722043429882 -0.03550271486343833 0  0.0372513391034526 -0.09279424140428477 0  0.07394468036189134 -0.06730986368263434 0  0.05907725950176986 -0.08067410310971941 0  0.09513680218259397 -0.03078022698530792 0  -0.03137500099037523 -0.09494231309406281 0  -0.08520825602929541 0.05232577383319945 0  0.03018424749273939 -0.09532756530035871 0  -0.04963436321224481 -0.08680359146551515 0  -0.03374157698424499 0.0941272515556115 0  0.01804776505643168 -0.09834994498862182 0  -0.03840983202277957 -0.09232073606064323 0  -0.02416330799747533 -0.09702869704070152 0  -0.01681540560570407 -0.09856812688243982 0  -0.01186156205662718 0.09928613623449085 0  -0.09474410565180341 -0.03196854621400558 0  -0.08649127426607808 -0.05017661784763053 0  -0.04522814551002322 -0.08917874386041363 0  0.01061796980876346 -0.09942681841403397 0  0.04854404356232973 -0.08741801494781112 0  0.09992168495550871 -0.00375371528610769 0  0.005628919031185353 0.09983360543092419 0  0.008125990288185829 -0.09966143579456101 0  -0.09999216720722226 1.22514845490862e-17 0  -0.09920996101409792 -0.01248267352686385 0  -0.006877993398655774 0.09975533424135846 0  -0.02658436559360052 -0.09639349048967408 0  -0.06206413061480701 -0.07839947189761723 0  -0.08772009716717538 0.04799602124945782 0  -0.08772009716717538 -0.0479960212494578 0  0.09935842297815725 -0.01123998603605404 0  -0.03608701054372787 -0.09325320998664854 0  -0.01186156205662723 -0.09928613623449085 0  -0.04744611920373826 0.08801874388618459 0  -0.04963436321224482 0.08680359146551515 0  -0.07136573984096981 0.07003830865853425 0  0.06496350648099514 -0.07601431660214278 0  -0.07641937696612006 -0.06448652825906458 0  0.05496595584748396 -0.08352949898430817 0  0.07560627918706644 0.06543794044959286 0  -0.06400702446434185 0.07682144441507358 0  -0.07800953239447261 -0.06255354792809775 0  0.08711250905894483 -0.04909016467941775 0  0.09255930124477621 -0.03783132638271969 0  0.08318388019568509 -0.05548761644175218 0  0.06107802314762366 -0.07917012435998472 0  0.06107802314762366 0.07917012435998472 0  -0.02416330799747533 0.09702869704070152 0  0.05496595584748397 0.08352949898430817 0  0.08318388019568512 0.05548761644175213 0  0.08831394340853488 0.04689435896172581 0  0.07048355193817385 0.07092603477550288 0  0.06684579152900345 0.07436446501964568 0  0.09158338450065256 0.04013623283521672 0  0.01558041192322478 0.09877086750201058 0  0.09823507415060787 0.0186628965978401 0  0.09717801369194462 0.023555618388939 0  0.0006257621661996928 0.09999020914323786 0  0.01310329612133871 0.09912990030033121 0  0.04184848683275155 0.09081375255216644 0  -0.04070858594406014 0.09133041406471432 0  0.09998433502797097 0.001251499824832548 0  0.09904595722871637 0.0137234055337728 0  0.09935842297815725 0.01123998603605399 0  0.03491702874249197 0.09369756990761866 0  0.06304051537250957 0.07761653769890461 0  0.08454667357769903 0.05338813997268593 0  0.07878634093661244 0.06157228260034677 0  0.08946004033999419 0.04466916929117564 0  -0.02172710969959377 0.0976031055187227 0  0.09433656690208315 0.03315185738274531 0  0.0277887421593833 0.09605321083647547 0  0.09055008171026775 0.0424159899691252 0  0.0570394781112102 0.0821275315567068 0  0.05285799197732172 0.08487912692130198 0  0.06496350648099518 0.07601431660214275 0  -0.08387184639461903 -0.05444214254742852 0  -0.05806291675444011 0.08140719379000884 0  -0.09302554733789087 -0.03666989289980162 0  -0.09799379518640081 0.01989094285756279 0  -0.09886643731416589 0.01496198768884675 0  0.08585649010864319 0.05125521055484554 0  -0.09687558032386459 0.02477005126582414 0  -0.09949131986345838 -0.009995537735615179 0  -0.09949131986345838 0.009995537735615203 0  -0.09551459497624394 -0.02958708585381758 0  0.02294700623998204 0.09732352442970467 0  -0.03608701054372784 0.09325320998664857 0  -0.004378962860588207 0.09989623710161802 0  -0.09996083971717376 0.002502803594889324 0  -0.06206413061480696 0.07839947189761726 0  -0.09846096401522839 -0.01743192668608374 0  -0.03137500099037516 0.09494231309406284 0  -0.09001211148729864 -0.04354599049734909 0  -0.08104223543299338 0.05857123508020273 0  -0.08387184639461902 0.05444214254742855 0  -0.07955080713710683 -0.06058137161398651 0  -0.07136573984096983 -0.07003830865853421 0  0.08176896388740987 -0.05755232443243763 0  0.05703947811121018 -0.0821275315567068 0  0.005628919031185328 -0.09983360543092419 0  -0.04744611920373828 -0.08801874388618458 0  0.06304051537250953 -0.07761653769890464 0  0.09904595722871637 -0.01372340553377282 0  0.09773716492036975 -0.02111587308461434 0  -0.03374157698424503 -0.09412725155561147 0  0.01310329612133867 -0.09912990030033123 0  0.08831394340853488 -0.04689435896172582 0  0.0958774248492999 -0.02838930973207959 0  -0.04070858594406015 -0.0913304140647143 0  0.02050380948024676 -0.09786739650974087 0  0.07223674788273365 -0.06913961063040108 0  0.02332372378720235 0.04661049181400276 0  0.02199817653048248 0.04790936624290281 0  -0.03718119754524792 0.04800932714422559 0  0.07521420769581509 0.04962729406450933 0  0.06367091999354656 0.07103313776875547 0  0.0852298745553251 -0.04942213110206643 0  -0.0192933802667103 0.09286393292858749 0  -0.07310453598529354 0.05914462409423496 0  -0.07570890354502677 -0.03374256478841314 0  -0.07704520510807766 -0.03585851263162524 0  -0.04231250888369969 0.079731024089783 0  0.05149835414643748 0.04159980221698312 0  0.01971014974080815 -0.07447540962434025 0  0.03748197526917247 -0.09145478237935971 0  0.03853228731313332 0.02456181802506066 0  0.08106727881984101 0.01425443199716781 0  0.06944716455282475 0.02262127412988593 0  -0.03449503267847991 0.03792953456524029 0  -0.07553815882118985 -0.03558572515040993 0  -0.07886650607888174 -0.0361887716034066 0  0.08277232797454274 -0.03682101013972575 0  0.09735683450414848 -0.01624122539492477 0  0.05550780121922259 -0.0540701730637036 0  -0.05560645383468298 0.01380480886776041 0  -0.07855446356721368 -0.03786425582926297 0  -0.0797236589875754 -0.04008356646880139 0  -0.05985885802664317 0.02090448189515415 0  0.01895513073167486 -0.03660450011485036 0  -0.04727843618201893 0.04198933953316428 0  -0.07183283537262292 0.01541580134696556 0  -0.0723834547097678 0.01429090765402726 0  </DataArray>
</Points>
<Cells>
<DataArray  type="UInt32"  Name="connectivity"  format="ascii">1153 8010 8874  722 3162 5050  2586 7535 8885  743 4303 5280  2824 5050 10295  1150 5402 6511  2461 4941 8961  5635 7622 10629  1362 4542 10629  2615 4500 9614  1532 3245 7614  288 9319 10396  899 4357 5995  1120 4381 10004  374 7151 9114  2778 6852 8512  697 3496 10757  1829 3872 6207  27 6207 9600  2177 4352 7644  2265 7899 7900  3541 4774 6402  1952 5961 8248  3660 7066 8450  2483 8078 8742  3116 5474 10450  2903 8917 9882  2433 3735 8194  1428 4382 7166  2265 5343 7899  1428 4382 8701  3881 3882 9407  487 4318 6116  1189 4168 8123  1108 3474 6421  1877 6116 9472  2854 6016 10682  2612 8061 9562  962 6114 9148  1397 3217 4296  2930 9148 9612  491 6215 8979  1903 4669 10270  2156 7224 8312  372 4489 4713  2200 4489 6425  2156 5619 7224  809 3890 7890  2430 3459 5376  2919 6388 9271  662 3954 8720  1218 8225 8273  1305 2994 5342  882 3571 6828  781 4931 5379  3477 4754 5799  3191 5809 7624  1985 5931 5932  2811 9795 10719  1097 5186 9695  2238 7508 8325  2307 4809 7336  3017 9295 10255  387 8222 9627  706 3753 7685  1182 3537 6051  1095 5546 5931  2966 7665 8357  2199 9322 10360  3842 7468 7469  2564 6623 7762  885 7012 7013  90 3094 5316  1943 3104 7202  1483 3520 9372  2363 3927 5337  557 3875 9773  557 4783 9773  1943 4035 8081  1741 4726 5857  98 6513 9376  1123 3533 5119  2209 6136 7075  4688 6720 9410  3086 5593 10060  3780 3932 8872  2388 7080 7081  2209 3637 6760  3192 3621 6188  2679 3658 4838  4890 6260 7756  112 5350 10765  2346 3688 4247  2820 5126 5238  1600 9277 10493  843 4599 7506  1549 5277 6380  2048 5374 7295  2679 4838 9466  1655 3746 6812  656 3400 9578  3292 10683 10684  3283 6512 7018  1947 4204 4783  4943 7532 10227  3793 7757 9646  1420 4584 4585  1129 7391 9494  1713 2932 6060  2609 5350 10523  1165 3552 6713  2946 4961 5554  1141 6771 7449  1658 5228 5229  1672 5228 8664  1165 3361 3552  1200 3640 5454  3182 5630 9007  2845 5674 6483  3264 8544 10689  1008 4687 8178  566 7977 9028  558 7704 10101  4591 8880 10543  3680 9542 10282  1295 3963 7800  2810 4745 10118  1726 4236 5244  523 7130 7640  2369 5087 8619  659 4590 9808  5123 7503 8808  813 5477 5647  1524 4811 10550  1029 9837 10121  375 7073 10401  1614 3564 8543  849 4753 8049  1494 5156 10149  2309 4291 7947  1106 7409 7946  1277 4280 8794  763 4817 10555  3333 7727 9411  931 6546 9169  2531 6647 8132  173 9332 9334  701 3157 6890  1043 8004 10549  3159 7461 10545  1614 4392 8543  894 5056 8167  2278 5719 8793  6798 7893 9217  2061 5667 7140  1376 4184 7192  1007 3043 4999  515 7577 7728  1260 4155 5246  1260 6411 8537  1585 3579 5010  1626 4980 4981  1525 3579 7205  1065 7355 10642  1156 5719 8793  779 3483 5821  2240 3761 4832  779 6770 9211  779 5821 9211  2033 6522 7396  1171 4381 5657  1226 3007 9659  3408 6989 9947  1685 4106 9621  2761 7004 9045  1820 5578 6202  1704 5596 10409  1169 3201 9513  784 4100 8356  2241 3761 4832  1344 3194 4273  1186 3396 5420  3395 5368 5988  2851 8933 10279  219 5110 9783  991 4304 5503  3025 5963 6942  2606 5625 9208  1854 3147 6011  2186 3873 4110  2060 4387 7851  3408 10703 10704  1816 6443 6598  879 5557 8210  2862 7441 7463  581 3251 4659  768 5068 5977  2134 3965 4979  1798 4343 6173  2783 5855 6843  1775 4646 8133  1151 6641 7573  3260 4201 9842  577 4004 6875  1038 4718 9902  704 6876 6994  1662 5842 5844  2742 3493 10173  1518 4475 8507  1446 6122 8045  2291 4804 8474  2068 7231 7232  2878 6802 9753  2878 5176 9753  2909 5599 7007  1796 4844 5511  505 2979 5864  2371 6581 6582  2297 5587 10717  5523 8580 10603  1151 3747 9030  2128 5724 5725  1422 5991 9862  1316 4337 6703  749 4954 10221  2389 6398 7693  1812 6337 9222  1150 3188 5402  2869 4649 10002  1864 6238 10160  3062 4125 10087  1415 4397 4398  1865 4128 4399  2481 5230 5664  1816 7856 8033  443 3686 5572  2252 3782 8129  1224 4809 9507  2844 7536 10746  2172 3186 9212  1378 4702 10108  976 4112 6055  962 9148 9149  1418 4878 5874  724 5508 9356  2089 6709 7616  850 4210 6830  1900 4958 6775  870 2963 5799  1386 3102 10567  1152 3983 7695  2121 7493 7737  430 4894 6462  48 4019 5133  1262 4960 10662  2427 6407 8451  2791 4226 10375  3781 7509 7511  718 7097 9445  1171 6495 6910  2190 6749 7435  2170 7862 9765  2853 6901 8511  4800 7258 7477  1279 3872 7717  1532 4266 7614  1959 3418 6646  2636 5564 10525  2877 6337 8758  907 6398 6659  2857 4257 10440  1336 3775 7120  2620 4914 9656  2242 5863 7442  4023 4607 6817  2725 3648 8938  303 6344 10715  1904 6581 6582  422 5090 9377  2977 5607 10609  2291 4314 6392  2343 6856 7334  1286 9182 10601  2907 4137 4631  1753 6158 6159  1227 6299 7463  990 5855 8691  1541 3965 4979  622 5333 7705  228 4059 8807  1611 5675 10628  1682 6480 8692  2241 3318 5410  1186 3396 7425  1715 3307 3483  2321 3109 4565  654 5527 8824  1946 3783 8060  5201 9047 10626  777 6534 6542  2998 5099 6033  329 330 3178  3646 7576 7613  3268 5662 7423  3737 5335 8333  4553 9151 9153  2061 7139 7140  3268 7422 7423  933 6228 8509  2948 5419 9213  2262 8179 9483  2145 3770 10548  6730 7754 9764  335 4330 10068  533 3248 5118  2204 5616 7584  2432 8049 10182  3323 6838 10461  744 5024 7512  3867 6941 9782  3100 7163 10115  2048 4103 7608  3056 5537 10135  1277 4259 6185  1141 7457 9393  2007 4358 7987  1321 3124 7403  2369 3416 5087  1349 5085 9198  4143 7045 10568  1363 4211 8093  795 3184 6481  3182 7457 9393  1270 5013 10100  1342 4264 8199  1105 3193 7710  795 4730 7649  2730 8754 9223  901 6384 9730  903 7056 8741  2639 4973 10473  494 3236 6766  333 5592 8797  666 5213 10343  1135 5530 7401  949 3024 9829  949 6916 9355  1336 3170 4270  1336 3170 7120  921 4972 7055  1358 8202 8694  1585 5010 9174  189 5010 8245  1272 3553 9067  870 4754 5799  728 3444 6790  728 3787 8931  1042 4581 8709  1311 3781 7511  3230 4446 10894  958 6378 8244  2442 4952 7841  499 4700 4701  848 4104 6044  2912 3513 7034  1437 3657 6814  1946 3266 3783  832 3631 5510  3654 6699 6701  3217 4296 8150  3051 6252 9450  1736 3787 10033  3787 6376 8931  672 3854 7630  474 4058 5093  1561 5437 7721  439 4177 6927  5493 7386 10369  144 3576 5259  2203 3738 6662  2191 6239 7436  1739 5054 5055  4850 9307 9308  512 3326 7716  3326 6023 9727  248 3748 6225  3747 4171 8505  996 5963 7349  622 4121 7705  1817 3387 6538  485 3443 4761  2868 4012 5539  1131 5661 6018  616 3868 7763  1513 3332 6938  2084 6953 8017  3954 6266 7643  3028 5764 7145  1079 3270 6478  1940 3911 6906  2544 4920 9504  618 5080 8043  1496 5120 5221  949 3024 7735  1439 5849 9409  3927 5337 8837  1454 5032 5033  313 3768 4940  1266 4160 8990  760 6369 8535  1899 6534 6542  2494 9184 9185  1305 8915 10647  503 4888 7379  1586 4124 5500  1941 5090 9137  1604 4347 8342  2139 3432 8897  3819 6472 9431  939 5998 9786  2322 3702 9786  531 5009 5932  2301 5762 9538  2234 5622 5623  3048 5863 7442  1905 3149 6404  1853 4787 8909  540 4521 8630  2518 5473 7803  1087 3320 5028  955 5708 7753  585 4986 7762  1122 3021 4135  1946 3342 5712  1227 4315 9577  703 6206 6903  1782 5854 6978  592 9161 10031  1223 7136 8185  2043 4460 4822  2072 6856 7334  2382 3848 8740  2566 8070 10598  3439 6212 7522  3964 8202 9108  4224 7192 9369  757 4389 4710  1954 4994 6863  2412 4165 6158  2246 5172 6653  2245 3541 6402  2508 4457 8386  481 5415 9917  3516 5905 8632  1056 4823 10607  2868 5647 6732  2759 6685 9294  655 5923 6030  4330 8947 8948  1148 6899 8755  2933 4581 8709  976 5774 6388  71 3703 4157  950 6203 6949  1805 3858 6105  2804 5603 10538  2234 6954 8893  1277 4572 5155  418 4327 8358  1770 3094 5316  1228 3633 6681  2132 3802 4517  2130 4310 5072  2029 3430 5765  2378 7327 8124  2601 4727 6552  978 4838 9466  3658 8907 10740  1817 3412 6716  3005 5660 8849  3279 5897 6452  3278 3624 8284  361 5388 5416  426 4190 10614  999 5204 8704  3617 7734 7995  1902 3975 6592  1981 7158 8671  3097 6171 9019  1869 3044 5696  1140 8700 10435  1039 3117 7549  679 3406 6005  2133 7467 7933  989 3006 5304  3000 6784 7628  3821 8173 10164  2039 7399 10202  378 3823 4221  1353 4197 4198  2791 6776 9413  3031 4823 10607  1528 5334 6451  2402 3341 8277  1566 4867 10591  2705 8587 9809  2860 4439 9700  2377 7660 7661  4302 5431 6269  665 4384 9761  794 2947 7287  1733 6945 9761  3458 8204 8605  2651 6234 8250  2848 4405 8912  1211 6998 7234  4068 6160 9959  831 4594 6178  827 4633 8769  3719 6253 10062  2952 5271 10063  4460 4822 7301  2551 9564 9565  1366 4145 10169  3151 9099 9341  1917 5601 5602  2159 4163 7818  2296 3196 4430  2504 6969 7163  1229 9795 10719  273 274 7994  3136 5661 9992  1638 4611 10676  2226 4048 4676  1102 4048 4676  2675 6317 6911  2495 8374 10332  2139 3599 9549  1325 4449 5195  1501 3470 9172  3791 4990 8974  1027 6859 10720  2573 6012 8005  655 6008 7064  1882 3301 6485  2408 3925 5401  1217 3671 6357  1132 3418 5288  1589 3676 5518  1255 4027 5838  2874 5279 7261  1239 3494 8383  2502 8298 8899  3298 9707 10431  1193 3711 4618  4887 6428 8454  464 3263 5794  2385 4648 8589  521 5644 8555  1482 5065 9732  1783 4456 6298  3606 5775 9952  677 2997 6480  4646 6028 8133  2926 5894 6125  507 4187 5157  957 5956 9225  832 3210 8558  2973 7266 10398  1640 5744 9550  517 3942 5683  671 5371 5413  1581 5497 8360  6164 7056 8741  473 9821 9908  2857 10359 10856  1422 3344 4875  2106 6501 7165  517 5670 8601  472 6133 7764  477 3143 6087  2706 10138 10674  994 9972 10046  730 3301 6485  3431 5038 6459  1128 7962 8808  764 4363 6707  1382 4591 10543  1608 5211 10058  3313 5415 8622  1391 3281 7078  1573 3837 4472  3270 6478 8207  1938 6761 6762  1937 5849 5850  3443 5286 7084  1619 5284 5285  821 4539 7805  1370 4448 4725  2151 5310 8088  2677 4088 9472  2242 5724 10006  2970 7309 8226  2613 5289 10484  2030 7074 9142  2333 4811 10550  4799 10584 10585  2192 4878 5874  2192 4294 6987  361 4613 10019  2257 3856 8066  1544 3482 4915  964 6066 8332  3296 6012 9440  3269 8004 10549  994 4904 10046  965 7034 10357  404 9009 10132  1061 3559 7276  3627 4712 8254  2360 6081 8158  2026 6704 6725  2170 4814 8125  1569 6526 8027  1831 4378 4454  999 5204 9122  1910 3370 6372  546 6693 8106  842 3595 7881  702 2985 3968  2986 5589 8164  2902 7493 8261  1599 4664 9671  2550 5767 7157  528 5958 7869  4804 5958 7869  2881 5187 7087  2154 3239 5446  507 3398 5157  1666 3304 6866  619 3302 8716  825 3425 7150  1732 4049 6037  4874 5641 9056  2327 4976 8365  1346 3973 5485  2528 5918 7681  598 3893 4907  1228 3027 6400  4031 9532 10338  3212 5553 7941  2547 5868 10071  2035 4764 4765  514 6014 7098  1788 6199 6200  4087 7577 7728  1153 5689 10681  410 3334 7470  1720 3845 5371  1838 6487 10640  1006 3070 9701  2108 7339 10389  3176 4994 5161  734 6898 9875  1375 4675 5907  826 3433 7749  2231 3191 7624  1642 3678 3679  1426 5620 9285  816 4560 5417  2759 6904 9280  1473 3039 4625  1058 4776 9178  892 4686 6084  1513 4466 6938  1545 4258 6121  800 7329 9306  3508 5565 8725  3660 4226 7066  61 6777 6850  2546 6643 10162  2225 3034 5108  393 5261 9589  1951 6472 9431  915 5031 8438  149 4798 5748  850 2886 7616  2089 4945 8224  1355 4486 6509  3023 6344 6345  1523 3248 3588  5714 10459 10462  899 4090 10581  3064 4769 6960  1681 5813 8934  2928 7255 7307  686 5972 9416  536 4274 8317  3252 5493 10369  2796 4738 10392  1825 4590 9808  1337 3546 8675  1990 4874 5641  3319 7707 7708  4996 9647 9649  2699 8189 8191  541 3717 5458  751 4836 6332  2566 8614 10598  2566 5075 8614  2241 3318 6724  2132 3339 6845  2413 3892 8513  2480 3369 6698  3964 8202 8694  1211 5989 10324  4142 8569 8877  2421 3840 4509  1686 3537 5191  2517 5708 10297  955 5708 10297  2452 4110 8153  2135 7796 9904  987 7942 10654  2391 4282 4283  2056 5100 5101  3473 9452 10066  2588 4573 9131  3361 4573 7294  228 4059 4609  2977 6287 9487  2322 4220 6858  2731 3702 6645  163 9855 10811  2378 3603 8215  2783 6843 9577  401 7886 9850  3255 5323 9843  2692 6082 9735  393 3581 4667  4507 4650 9678  1132 3419 6094  459 4748 8051  1556 6586 10363  1996 4177 5819  1903 6673 7747  850 2886 4669  2973 7266 8567  2091 5272 7429  1133 4215 9031  2446 4215 9031  2030 5282 7074  1134 3514 10261  820 4854 5624  398 4853 7730  1726 5399 8999  2557 7544 7545  2015 5330 6523  998 4680 6936  2471 4536 8625  959 5549 10694  1184 3652 3653  1290 3376 7595  1698 3409 5962  570 7196 8628  625 3789 4437  1571 5833 9157  1175 3371 4355  2937 4135 5788  706 3753 4356  405 3462 5907  364 6433 9864  3764 7203 10503  3708 7143 7664  3198 5303 6744  576 4053 8122  1259 4053 6261  2539 8327 8328  2539 5920 7068  1309 8919 8985  688 3669 4400  2627 5348 9545  2779 4513 9630  1168 3702 6645  3378 10276 10277  2500 8531 9689  1227 6843 9577  2450 8300 10453  875 5262 6027  460 4914 5517  1657 4428 6815  1804 4183 6084  2161 4896 9640  3022 6324 9275  1447 4918 10421  2722 6530 9418  1339 3993 5298  437 4082 4552  1036 5563 6110  408 5144 6863  640 3395 5614  880 5219 9754  1552 5187 7087  3574 8717 8718  1153 3727 5893  2155 3394 6871  1900 3745 6775  733 4547 6029  954 4694 8186  2672 5509 6143  1307 4137 6676  4088 6116 9472  3740 6495 6910  1505 3916 5179  1096 4675 7137  2763 5246 10371  596 4155 7474  1837 5430 10274  3127 3913 6956  2354 6384 6478  1373 4907 8484  276 7213 7214  1880 2983 6246  1557 2958 4538  2384 3393 4758  968 4764 6874  3682 9152 9401  2104 5150 5867  1364 8203 9051  3037 8223 10566  937 9366 10559  1396 4179 9042  2394 4344 8415  1003 3014 5295  2373 5060 10488  1886 5721 8887  1887 7536 10746  3186 5826 6258  1857 5156 10278  1857 5156 10149  929 5018 9282  2739 5026 9910  3064 6960 7719  2419 3420 3509  1411 4429 7759  1105 3444 6064  1461 3517 8930  363 4503 8196  2708 5220 10400  3100 5302 6969  5302 6969 9034  1381 3024 6499  1709 4984 6135  1315 3868 5818  762 6941 9782  1403 4193 5148  1749 4324 8673  2754 8044 8045  2894 3913 6956  4001 8099 9489  983 5074 7686  1593 3472 5784  1593 5599 7007  1353 4205 5202  2501 3820 4662  678 4654 8385  474 4046 4337  975 5363 8988  4415 9746 9747  898 5528 5541  1540 3979 8766  816 4560 4705  2685 6285 9302  3555 6465 9010  2162 5477 5647  1637 4997 9109  352 7565 10593  2641 6146 9508  3452 5178 7072  751 4947 6332  1291 5607 6287  1941 5090 9377  1826 6551 6552  1518 4987 8507  2823 8016 10298  418 4272 8358  5379 6999 9127  2986 8163 8164  2788 5732 8430  1642 3678 6330  2586 8885 9696  4569 7011 8885  649 5940 10622  1567 5129 9226  369 5291 6060  1312 4073 4424  861 4780 9221  1521 4781 5351  1130 3568 8541  1600 4585 7863  3884 5177 10507  1275 4174 9554  432 5437 6861  1584 5472 6981  1048 5075 8338  1255 4028 8020  2980 4134 10239  2599 6320 9827  3305 5698 5945  1703 4116 5608  1213 3917 6136  2456 8290 8442  3336 7516 8579  1252 3992 4562  465 5762 9538  2904 4809 7826  4585 7863 10228  648 4890 6260  1250 3817 7840  1675 8229 10417  3290 6825 8689  652 8607 8938  2374 5266 5267  2374 4336 8745  652 3529 8162  3413 7199 7773  5847 9977 9978  1335 7688 9655  1749 3530 6255  2855 5425 10452  482 5256 5922  655 2961 6008  1244 5126 5238  1787 3810 6386  776 5806 5832  1074 3313 4354  3142 5097 7632  910 5230 6419  1409 4590 6518  1638 3229 4363  809 7542 7940  1992 5905 7244  2769 4148 5801  2361 6231 8346  642 5340 10016  382 4232 4579  1135 3448 5122  1947 4783 9773  501 7885 8596  1147 3721 8109  1328 6945 10627  255 3279 5897  471 5483 8436  1719 4571 7877  4405 5292 8912  4107 4726 5857  2552 3005 8849  956 4439 6661  2619 7087 8196  1722 5566 5738  839 4021 4866  3114 4180 7256  1424 4784 5431  4258 6121 9897  2327 5011 5223  500 5678 7733  4655 4656 10748  848 6044 10397  2606 3891 8848  1344 7954 9980  1550 3016 5442  678 4198 4654  2220 4502 6546  679 3406 4628  2484 4323 4324  4323 6101 8453  1672 5228 5229  1568 5213 10342  1627 4378 4454  1594 3568 8541  941 4681 5509  774 6448 9358  1525 4980 4981  1022 5588 7437  1802 4380 7271  1346 3337 4372  1108 5575 9592  692 3882 3985  2098 4782 5474  1236 5831 8873  1865 6020 8405  3852 7791 8345  2130 5072 7958  2572 6947 8602  1221 3828 4813  690 4185 7989  2673 5509 8482  3683 6475 9870  686 3420 3509  1390 3985 5745  2104 4592 5877  2104 4592 5150  1887 5686 10564  3744 4471 9117  6327 6609 9432  696 5173 5231  527 4311 6348  463 3735 5414  2660 4785 6063  2713 4904 6264  1842 6264 7050  3401 4655 10632  3476 6169 6328  3227 10689 10892  1046 6886 8544  394 5472 8003  1927 6890 9363  3241 7612 7902  2738 6975 8379  3684 6434 8811  4946 8810 10522  1158 6857 8744  1987 5892 10257  496 3847 9508  4018 5107 8444  4076 8574 8962  1643 4076 6715  1033 6908 10333  4022 6797 8259  3076 7304 10614  664 6427 9847  2678 9974 9975  1558 4909 7801  4317 5237 8326  2351 4317 8326  1918 3431 4235  4163 6047 7818  1167 6706 9458  1514 5205 6458  446 4003 8935  799 4897 5266  2082 4328 4329  1499 4396 4685  1194 10330 10595  3589 7362 8783  1956 5973 8557  716 3699 7193  1485 5236 9931  1470 8115 9261  2976 5651 8798  718 3135 7097  3874 6819 7202  1623 5742 6490  609 4743 10463  2889 7826 9507  2292 6315 8397  298 5217 8410  6384 6478 8207  1972 4456 5250  835 5073 9091  1241 4070 8396  2883 4071 8586  1763 4611 10676  3883 8647 10491  1129 3198 5303  1910 3370 6930  2833 5235 10650  1575 3794 5615  1087 3246 3936  728 3444 4678  543 8548 8658  2033 3828 5158  1417 4722 5574  2719 4912 7498  210 3342 5712  1866 6242 8936  567 7283 8341  3351 7282 7986  3843 4034 4771  733 4547 7908  848 3886 7936  865 4108 5339  611 5001 9121  3317 7759 9926  1975 4459 10303  2084 3724 8520  526 3498 7005  3435 7047 10571  1533 3518 6836  2843 7656 7657  2835 3863 8786  739 4899 9883  1198 8677 9230  1476 3345 7025  741 3971 5046  425 5045 10624  362 3119 5407  1932 4922 9479  3341 10660 10850  1811 4086 5805  1057 3325 6083  1905 6405 10597  950 6310 6404  158 3609 10816  1595 4751 5105  1056 7372 8683  2854 7805 10682  26 3872 6207  1829 3872 7717  1281 4216 6669  1422 4875 9252  1743 9096 10118  3826 5896 6529  1810 3718 9201  2185 6880 7927  2940 8263 8700  3317 8855 9926  2074 4969 6734  2448 3700 4711  2169 6134 9357  3696 6156 6174  2974 8493 8494  2042 6426 8104  68 4670 9328  3484 9060 9329  1034 5785 6455  325 7397 8549  2879 8628 10051  3655 7415 9540  2068 6248 6802  3505 5752 10730  191 5212 7834  3180 4955 10416  2715 5616 7584  1697 3868 5818  2024 3826 5896  1963 3249 6941  2527 3756 5561  1745 3756 5561  764 4510 4533  1337 4510 4511  2325 5336 9422  2779 4513 8022  636 3691 3817  357 4757 5127  1610 4018 4281  1610 5115 5288  581 4315 8967  435 3130 7872  21 3668 3835  1988 7884 8009  2129 3048 7442  2209 5190 6136  3917 6136 10882  2755 4063 4905  7494 8085 9823  5076 7130 9943  773 6052 7473  4165 8322 8792  1317 4445 10724  2940 7432 7434  753 3951 7354  1176 3651 9556  1176 5865 7173  1732 4498 5103  1625 4707 5610  3307 3483 6705  4312 8767 8768  1578 5264 8734  1254 8371 9213  2637 5555 8979  1502 3445 4931  1867 4501 6359  2491 4792 5574  1013 3102 7417  2115 4800 7477  4458 6935 7951  2119 4087 7728  2144 6766 9772  2707 10142 10143  3198 8851 10685  786 7734 7995  1082 3407 8424  1528 5334 10328  1707 4516 8160  2853 6852 8512  5377 7224 8312  74 5327 9699  1534 5292 8912  94 5293 9663  3051 4635 6252  1669 4146 8510  456 3469 8092  4661 8777 8805  2788 5898 7776  3252 8901 8902  1510 2947 3849  2313 3981 7108  1574 5166 5167  2188 3184 5207  243 3719 8011  2418 6025 10247  797 5843 6879  1365 3752 7515  798 5039 10664  2374 4897 5266  2059 5836 5866  1117 3508 5565  4352 7208 7644  801 7440 7441  3016 5442 10513  2271 5202 6223  2696 5387 8552  2253 4047 7521  804 4286 6756  453 2871 4617  1465 4347 8342  631 4347 5434  806 4716 4925  2215 7022 7226  808 3864 6053  275 4842 6600  2642 3864 6053  2051 6204 8747  2175 7123 10534  2176 7767 7890  774 7235 8015  1275 3177 4566  2876 7414 9728  811 4252 9963  3361 4573 9132  1559 5047 6607  2162 5478 8533  3515 4535 6685  2004 6559 10728  479 5038 6046  1877 3812 5943  283 3811 6093  1942 5620 7058  2659 4560 4705  2368 4854 5624  2283 7858 7893  1041 8205 8504  4492 6006 6625  1455 4578 6878  2595 5380 5835  2041 5624 7393  2041 4706 4707  1368 2925 7405  2214 4724 8572  1522 5260 6333  2394 4820 6221  606 3265 4373  2476 5085 9198  1807 3596 5895  2526 3838 9350  2656 2922 9055  825 5294 6113  2222 3291 3433  4664 5975 9671  1017 6507 9327  852 6101 6504  1003 3013 7620  523 7684 9881  422 3616 9377  468 4349 10657  650 5852 6789  1676 3999 4419  2832 5274 10634  3372 4594 6178  2445 5343 7385  3210 4960 8558  2459 4990 10300  3098 7096 7267  992 9258 10199  4311 6348 8564  2875 9419 10691  835 3909 7553  447 4682 5221  1496 3439 6212  538 7682 8065  971 6519 10020  1867 3181 6957  1867 4690 5269  839 4021 8842  2400 4021 4128  1740 4303 5016  2936 4422 8294  1739 5054 6781  2191 7435 7436  1760 5416 6096  2575 5088 9443  1441 5411 7506  843 3721 5435  1063 4637 9524  2650 6234 8250  372 4489 6425  4375 8165 9186  41 5306 8508  1998 2990 5306  2391 5648 10117  1262 6397 6907  2288 6044 10397  904 5698 5945  1595 4753 9998  450 4346 4453  2762 4210 4669  2348 4109 6717  2744 3638 7627  480 4612 10690  2108 4386 7338  3859 6507 9327  1170 3574 8718  292 4401 5529  1926 4313 6752  854 5950 7001  1330 5421 8792  3396 5420 5421  2153 5833 9157  1172 3789 3790  1649 5691 9918  2210 6693 7880  1953 3175 4390  1003 3988 7620  1550 5164 7406  448 5242 8995  1038 6307 8154  3165 9903 9904  3563 7532 9274  862 3604 6350  1435 4373 9349  747 4528 5654  4085 5655 8469  2587 7111 9292  3026 6946 9853  2454 5716 7766  365 4965 7722  3100 6969 7163  866 6969 9034  2357 6531 7229  2047 4751 4752  0 3328 4461  2259 8149 9450  869 6245 6868  1255 4028 6743  870 6205 7740  2562 3464 5632  871 7424 8155  2535 7042 10115  1425 3635 8037  1719 5890 6947  1377 3113 3935  2590 3634 10728  2450 4577 10716  875 4434 4435  2581 5262 6027  3769 5525 8812  1544 5380 5835  2359 5706 8526  1775 4279 7358  1901 4461 9387  2234 5622 6977  879 5557 5558  2554 7768 9341  3582 5283 8209  469 3239 5446  1552 3827 5040  3148 5257 5948  1332 3571 6828  4115 6970 8233  1557 3726 7333  2861 5505 7452  2622 4857 5751  2861 5505 9537  3214 6652 6922  1909 6652 6922  2985 5589 8946  1995 6740 10355  522 9873 10086  1055 7154 8079  975 4131 8988  628 4835 7416  2049 6659 8073  1865 4021 4128  1323 4427 5629  2522 3676 4525  1256 3887 5241  1499 4183 4686  1592 5541 5545  3403 6638 8335  2787 4015 9937  361 4206 9197  2579 8166 8167  2368 5624 7346  1847 6284 7564  2923 6007 7090  1437 3657 7091  3805 8311 8908  1368 4504 7405  1620 4141 6131  2671 5528 5541  3887 3888 10755  2990 5263 5306  7719 9254 9394  900 5234 5236  900 3494 5215  3911 4487 6906  2657 6384 8207  4340 7071 10738  2665 9940 10018  3903 5337 8837  904 4309 5945  904 4106 7095  2281 3223 5370  390 2850 4993  2249 6635 7286  1335 3109 5070  2129 7099 7724  1738 3344 5092  1592 3132 5543  2670 9845 9846  909 4415 9747  1590 5319 5516  1963 4963 7572  3944 8722 8724  1102 7600 8552  2202 5387 8013  1871 6720 9410  109 6718 10275  4093 7159 10253  1565 3672 6486  2371 8693 8694  2551 7996 7997  2596 7147 9486  1790 5748 7147  1651 5000 8295  2701 4397 4398  2716 3489 3673  734 6898 7200  653 3666 9979  2717 6896 6897  2874 5279 6292  960 4666 9354  1364 5209 8203  2656 5332 9051  3439 7522 7523  1785 6125 10331  2637 4230 6045  2308 4477 9385  2479 4107 4726  500 5225 7733  2604 4321 5169  1352 4321 5169  1701 3967 5927  657 3366 6780  926 5929 8384  5871 8384 10180  3331 6132 6296  1388 4697 9441  3078 4720 7481  483 3331 7069  2194 3837 4472  2194 5592 6490  3090 8146 8147  930 7063 7172  4060 5437 6861  2856 6005 10736  4379 9080 9081  1377 4755 6092  2326 5223 6834  1583 3040 6382  2306 3192 7854  2228 7080 7081  1673 5551 5552  489 4387 7851  3390 9534 10582  3353 4946 6206  707 3043 4022  4999 8258 8259  1462 3999 4419  1657 6815 9463  2732 6786 8465  1620 3553 7245  1187 3832 5876  3202 4233 6536  2206 3202 7322  942 6996 7839  2269 7817 7839  1625 6377 8238  1576 10083 10416  944 4224 5189  1702 3379 6257  5121 5862 7489  2010 5140 6832  4946 8810 10262  355 6434 7530  380 4438 6435  1846 3073 4491  1203 3862 8026  2834 5590 10318  340 6917 9239  2406 6916 6918  1705 4074 6203  2060 3544 6310  951 5882 5942  5942 10886 10895  7084 8864 9343  1817 3742 6471  2146 3443 7084  1724 8315 9984  253 6697 6913  1045 6912 8759  1855 4777 6460  3173 5326 9573  3550 7845 8157  2718 5145 7323  957 2881 5187  3666 7323 9979  958 5722 6864  1419 4212 5924  1419 4536 5924  2850 4666 9014  1791 3223 5370  3571 3686 8402  668 4237 8772  1792 4311 6099  2473 4311 8564  1225 6902 9090  1152 3799 7695  1010 4290 6904  1709 3012 5393  3487 6118 7731  2541 4009 5473  1450 3134 5256  413 3333 8646  2276 4934 6968  1844 4080 8307  2035 4764 6874  3033 7537 8771  2784 9180 9182  1987 6795 7041  1799 4534 9195  2709 4481 10156  1917 4884 5499  492 3694 5841  1000 6201 6283  2540 4320 6231  2142 7063 9541  2470 5159 8217  2109 3622 7404  1357 3622 5315  3354 6973 7344  1357 4119 8928  1305 4112 5342  4294 6410 8339  2160 3542 7000  1737 2917 5951  2679 5138 9467  1888 3824 5138  3751 4927 8671  1974 3870 7171  2404 4288 9006  980 2886 6673  1790 6393 9229  3001 7243 7948  2906 3933 5986  1059 4841 8112  2907 10742 10743  1303 4134 7077  384 8754 9223  984 6337 8758  2896 4709 6560  1248 8224 10113  490 3672 8942  3675 8058 9018  987 6291 7009  2021 4172 9256  1004 2985 8946  382 4232 6599  2015 3808 7283  1127 7282 7986  2978 5669 8881  2626 4304 10466  3141 6946 9853  992 9291 9853  567 3351 7014  5505 7778 9537  698 5808 9973  2713 7498 8787  390 2850 4133  960 4666 9014  2694 3025 5963  1264 3025 6942  4009 5885 7901  359 6118 7804  5065 6597 7420  5252 6936 10219  1993 7131 9858  999 8704 10393  1387 4608 7117  1000 4934 6201  2917 5472 6981  4064 6102 7388  3060 6415 9419  902 3036 4959  1404 4358 4523  1003 3013 5913  2021 4120 4172  502 3440 7002  385 6042 7518  1548 4971 9362  1006 2987 3070  1664 2987 5740  3041 9527 9528  3042 8089 9527  1713 6060 8968  2820 5126 10586  3800 7235 8015  2720 5989 8598  2401 8180 8649  1709 5913 7341  2739 4574 5026  440 4180 5754  2153 5833 7419  2054 7313 7314  2131 3117 7549  2483 8078 8079  1014 3352 6730  554 3996 8757  2553 3806 8208  378 4222 6889  1681 5814 6800  1443 4604 7237  445 4312 8767  1017 5672 9177  654 3950 5947  1018 4324 8673  3408 9948 10703  435 5513 9539  2958 5253 5255  4469 7617 10631  1011 5840 7760  1021 4550 6077  1626 3380 8547  1626 5037 8547  5607 8666 10609  2428 8418 8665  1386 3102 7417  498 5116 5778  1507 3107 6925  613 5257 5948  1493 4103 8784  2685 6285 9855  3157 4850 9307  2327 6834 8365  1207 3718 7492  2960 4657 6422  1341 4271 7678  529 3414 4484  662 3179 6267  1768 3558 6294  2184 5849 5850  2802 8496 10463  304 7300 9323  1308 4407 4822  3123 4268 10678  3082 6908 10333  2998 7397 10376  1034 5099 6033  615 4170 8649  1035 3218 5344  3172 4268 8218  1882 4721 7838  2229 7825 10392  3047 3822 5816  2757 5358 10196  549 4393 10195  1540 5386 8766  625 3548 7263  3944 7492 8722  2145 4095 7689  3704 8205 8504  1564 3615 7062  2521 9290 10581  534 7289 7719  1802 4950 6227  871 7424 9113  670 6865 9573  3550 7529 7845  2112 5680 6912  3279 6914 8525  1046 4545 8643  2078 7496 7502  515 6232 10732  596 3451 4184  808 5021 6496  2811 9793 9795  2139 6052 8897  1089 8817 10464  2538 6493 10545  3159 7460 7461  3202 6584 7322  3532 7445 7446  2960 6175 10386  555 6065 8038  1284 3575 6043  1053 7038 10150  373 5125 8206  1434 8835 9650  1386 4195 7126  2659 4705 9874  3729 6594 7195  2547 4246 8683  1935 6838 10461  1057 5982 7376  4995 5871 9178  383 6726 7587  447 5221 6145  1827 4841 8112  806 4975 9233  1060 7226 7681  3029 4660 10151  2894 4102 9920  2232 4305 5375  376 6651 7306  4412 7830 7831  607 4413 5737  1885 6755 7716  1064 7739 8250  1066 5641 7708  1065 3318 6724  2258 7707 7708  1451 3254 7272  1067 3242 6122  2043 4407 4822  4743 8496 10463  1523 3588 4743  2675 6317 6319  3277 5382 8434  2427 8450 10158  2091 7429 7430  5199 6126 9118  3176 6833 8197  88 4766 10864  1072 9532 10338  783 7478 7480  1073 3295 4395  926 5928 9915  1687 6013 6014  2119 4033 8773  1075 3297 6924  2181 3287 5677  3089 6198 7729  2630 3650 5051  1573 5051 9439  1468 3084 4688  3084 4688 9410  2506 4720 7481  2069 3078 4720  1696 6038 10410  410 7470 7645  1696 4626 7047  1081 4149 10067  437 5269 6957  1561 4060 5437  3551 5297 8677  1083 5297 7033  2163 5634 5974  1084 7199 7773  826 3461 4824  1085 4664 8448  2010 5121 5139  3293 6820 8081  2286 3320 5028  5708 7753 9058  1467 3192 7854  1467 3192 9312  2197 4129 8817  356 5380 7968  1090 5707 6090  1833 4708 10155  2384 4758 8670  353 5255 8669  4994 6863 10602  3177 5614 9637  1093 3286 6082  1947 4062 4204  3170 7120 7797  3112 4569 10128  1095 7508 7826  2238 5688 8086  1505 3916 4225  2812 8712 10404  1883 3488 6835  542 6689 6736  2470 4939 9249  2470 3333 4371  1967 4449 7138  1099 3415 5195  1411 4429 6967  2486 4274 8317  2081 3931 9906  2485 9145 9226  453 7570 7898  1102 7571 7600  1762 6788 10105  2453 8630 9048  2422 3399 8801  548 3193 6236  2208 3193 7710  5238 9684 10587  1106 3501 4291  1106 5156 10278  1586 5100 5101  2302 7916 7917  5133 6421 10526  1002 6415 9419  387 8222 8540  1815 4583 10752  3499 8609 8953  1845 4172 5502  1111 5023 8902  1112 7386 10369  456 3679 8092  697 4785 6063  2239 8041 10578  1114 3186 5826  626 4567 6884  1115 4850 9308  3028 4260 8354  1445 4882 4883  410 4882 8708  2636 3508 8725  3215 5044 8053  1933 5859 6972  2494 3411 4375  845 8165 9186  1120 3066 7337  2245 3861 7040  2699 8191 9863  2748 9991 10105  2345 3866 6343  2001 3280 6793  2158 3993 7715  3280 3357 7723  428 3530 6255  2312 8426 8427  687 3518 6039  2467 7738 9567  2971 8528 10457  1698 3409 3438  2301 7012 7015  2199 6768 7986  2576 5123 8808  1917 5534 5601  3540 5303 9494  1609 5303 6744  1594 3207 7701  429 4584 9277  1131 3391 7531  1728 6018 6019  1959 3418 5288  1834 4570 4748  4023 7615 9032  1133 3048 5863  1134 3514 6882  1362 4543 8309  1761 4204 4783  2110 7664 9482  1136 5004 5035  1536 4700 10109  1367 4689 6306  1137 3624 8284  2336 8093 8433  3088 3285 9293  3215 5859 8963  1118 5044 9715  1849 5494 10477  3689 6932 10435  2233 3738 9587  3471 5113 6771  1733 3680 5760  140 4101 5006  689 4325 9876  420 4755 6226  3389 3707 10379  1416 4345 4749  1221 3828 5158  5391 6444 7356  3538 6165 10007  3538 9473 9474  2482 5978 6500  715 5978 6500  534 7719 9254  727 4622 4684  2389 6191 8042  3731 5071 8348  2408 8500 8501  1150 8916 10361  2012 5920 7068  1151 6641 9030  1152 3750 7882  717 3298 3734  294 3294 4457  1360 3294 4457  2147 5163 5307  1934 5860 6230  2430 5619 8892  4210 8279 10268  5667 7140 10390  187 3479 10786  1930 3629 4098  1668 5899 8283  1158 6995 10558  651 4285 4287  1238 3826 7368  454 3718 9201  3403 6616 8335  2190 6129 6130  582 3124 7403  1352 4322 8046  812 6822 8105  1162 3706 9709  1163 6823 6824  4606 7682 8065  1961 3836 6806  971 6519 7659  552 6605 8581  3706 5705 9709  1497 6479 7304  3076 10614 10615  5590 10036 10318  712 3862 6479  3378 6423 9331  2160 3906 7832  896 7485 10334  2179 5507 10569  291 5529 5889  853 8387 9718  3133 3601 5124  285 286 3601  431 4440 7823  1570 6667 7263  721 4455 7918  2385 5645 8361  1784 3753 7685  1784 3754 8336  1175 3370 6372  1876 6634 9927  2026 3839 9556  524 3612 8040  3359 9053 10129  696 5369 9836  2479 6078 6170  1716 3619 8056  1180 3453 9143  2325 5752 8752  3453 6192 7365  2452 8153 8154  1577 5137 9187  1536 4700 4701  3528 5611 6970  1182 4808 10207  1183 3409 3438  1698 5962 10457  2023 3654 6342  2023 6596 10608  1602 4222 10430  2349 5403 8103  1186 5420 9693  1330 4130 8247  1678 5815 6688  1187 3832 8145  611 5001 5476  1950 6803 6805  2054 5972 9529  1189 3698 8437  3641 8775 8776  3641 8775 8790  1612 5481 5770  2386 5770 9898  833 8255 8457  3605 8594 9662  610 3711 6608  1470 4234 8941  715 5978 9594  3589 5795 10596  1195 5795 10596  552 8783 8883  1837 4696 10711  1837 3331 5430  1593 3260 5784  3480 4898 7119  1476 4898 7119  4602 8842 9566  1738 5093 8978  1627 4217 5104  1628 4495 9745  677 3884 5177  3886 7936 10310  3222 5521 7482  415 3221 9612  3363 6002 10403  574 6714 7998  1451 4049 4840  1911 5391 6444  510 7690 9574  2647 6220 9575  1949 7073 9447  1206 3592 4231  1706 6332 10061  1207 7492 8722  1208 6695 9471  3594 6695 9471  1209 6003 7015  2009 7012 7015  1231 4240 10266  1210 3899 7319  314 7236 8865  2079 4139 8680  1538 4966 6025  446 3493 4668  1468 3261 7771  1213 6001 7861  526 4416 7005  3707 8500 10379  2168 7375 9310  1232 3743 3744  1794 4325 5495  831 3845 6178  3691 7568 9315  2334 6312 7569  66 3745 5937  2174 3608 7543  3031 4007 10607  1220 6710 10710  2688 2975 6710  729 6085 9731  2032 5158 10688  2380 8767 8768  827 8659 8795  2086 7135 7136  3272 5577 8185  2889 5546 9017  1997 4455 7918  2122 4888 6366  2075 6902 9097  1629 5710 8403  1226 3614 7044  2500 5855 6843  3998 8531 9689  668 4030 4848  1228 3633 6400  2273 7758 10103  3003 9793 9795  1230 6881 10692  3060 9136 9849  1266 4159 4160  829 4873 5358  1276 6443 9657  695 3663 4532  1233 8789 8803  3991 8789 8803  1538 6025 10247  577 3747 4171  1235 4042 9583  711 4578 5309  1236 3518 6836  3518 5831 6939  716 7187 7313  1237 4065 4066  750 3415 4449  1238 5320 10652  1239 3494 5215  2662 5314 9246  2247 3739 7265  2762 3880 10269  1241 4071 7747  395 2883 4072  4083 4556 8830  1630 3059 5717  1343 7807 8166  1243 7285 10085  1244 3840 7712  3840 4509 9519  495 4080 8307  4080 6446 7164  3366 6554 7152  1246 3967 8234  2251 3842 8130  3686 5572 8402  1968 4109 8256  1248 6717 8256  2989 4490 7517  2162 5477 5478  2269 7840 10517  1250 3817 7569  2682 4113 9887  693 4592 5150  1019 3130 6494  621 4205 8306  1405 4623 4624  1405 4069 9690  432 4032 4039  977 2915 5135  1398 2963 4901  1768 2963 5198  3888 10754 10756  891 6416 8570  2323 7937 10310  1704 3377 5189  1258 6814 7959  1581 3534 4054  3684 4932 7054  2556 7054 8811  4155 5246 7474  329 3178 4154  57 8451 10778  3660 8450 8452  847 7738 9567  470 8559 8568  3104 7592 9878  5963 6942 7349  1265 4111 6107  1607 4111 6107  2136 5524 7779  2469 5098 8989  3592 4231 5900  1267 3452 9447  1268 3969 5750  3801 9265 9266  2862 7440 7441  2166 7870 7871  1270 7703 8415  2394 8415 8637  1271 3562 9144  863 5655 8469  2466 5869 5870  5158 6085 9731  1273 8142 8768  433 4063 4905  1274 4062 4204  1344 5177 10507  2645 7954 9548  2672 5959 9530  1276 4139 8680  1494 3577 5155  2432 4280 8794  1278 4171 8505  2852 5338 9996  1279 3872 4714  907 5389 6191  1280 3926 7099  2031 3110 4954  1281 4215 4216  2670 5540 9768  397 5516 9748  133 6570 9719  3519 5399 8999  3023 6345 6644  532 4408 7148  644 3629 4098  1285 4099 8910  1286 3876 6364  1286 7041 8603  690 3802 4517  2027 4186 8695  2022 5300 6436  2022 5917 6436  2391 5648 6959  2391 4282 8334  735 6381 6700  367 4429 8200  2584 9345 9347  2977 5607 6287  637 4495 10244  637 4495 4927  4000 5418 9967  1553 4176 5418  2082 6406 9313  1872 3373 8195  2350 3316 6027  1295 7062 9607  2270 4295 8305  1356 3821 10164  1297 3335 3896  2122 4124 5759  1109 3225 10171  1298 4339 5265  1599 4277 4906  1840 4362 9336  1300 3142 7633  2201 4370 8463  1301 3914 7757  3367 3610 6465  1615 3610 9010  2682 4001 9888  1471 4306 5074  5160 8029 8446  282 6184 7790  4112 5342 6055  2931 8915 9149  1710 5339 8996  1621 4325 8409  2673 4681 6475  3302 6676 8203  2016 3242 7148  2016 7331 8121  951 10896 10901  1309 7011 9696  3112 4569 7011  2060 4387 8748  1311 4090 9290  1312 4423 5663  637 3751 4833  1313 4331 5042  1523 4743 8496  2545 8651 8652  1723 6032 8651  761 5952 8876  1958 5952 8098  1149 4058 8878  474 4058 8879  1954 3232 4821  5180 7546 10286  723 6355 7107  1758 3128 6855  632 3324 10322  1916 6686 8858  1945 4837 7079  2595 5789 9697  1321 3901 4435  449 9023 10716  1902 3987 5318  207 10095 10643  1677 4427 5629  1677 5629 5853  1324 9656 9687  1324 3290 4403  4271 7678 8268  3819 9606 10121  397 9614 9748  584 3887 3888  1327 5528 9379  462 9257 9844  1328 5006 6945  1328 7109 8884  1329 3490 4416  2408 3314 8502  2412 6158 6159  2674 8247 9694  2703 7879 8117  2564 6623 9000  1332 3571 3686  2650 8250 10304  3763 6097 7501  886 3359 9053  2338 6822 8105  592 4546 8433  1721 3109 4565  1335 4024 7688  743 5280 5925  3062 10087 10843  764 4363 4478  1382 4510 4533  2245 3861 5171  821 4724 8572  923 5660 8849  1742 4750 7912  2320 3952 4440  1340 4440 10669  3196 4430 6308  2296 3196 7655  147 8198 9399  2558 8895 8896  2491 4792 5902  1867 5269 6957  3343 4273 7526  677 3194 5177  3142 7632 7633  1346 3337 3973  1345 4402 10142  1346 4372 7957  1414 4820 6221  5013 10100 10101  2859 4757 10260  1567 5129 7558  3264 6826 10689  2476 4575 9198  1386 3101 4195  4195 7126 9476  2770 6215 8979  976 2921 6055  1319 4667 6919  3581 8046 8435  802 6011 7399  1353 4198 4654  392 3453 6192  765 3873 8600  1355 3816 6509  1948 4486 6509  2039 4295 8485  1356 4295 8485  2641 8928 8929  1915 5634 9011  2899 5796 6533  1358 2900 4732  1359 6512 7018  2776 5005 10344  1360 3467 7999  3467 4482 7999  880 5219 7809  1488 5220 10400  2625 6349 7782  1362 7622 10629  2013 6823 6824  3545 6824 10380  2656 2922 5731  508 2922 4846  2085 3904 6241  380 4762 9570  4187 5157 7250  754 7228 7873  425 3623 6516  1367 3855 5053  1272 4141 8002  1402 3712 4207  1776 6677 8824  1902 3185 6592  1370 3085 5976  1964 3600 6387  1371 3771 8273  3394 5089 8653  1372 3893 7499  2877 6993 8758  1777 6141 6818  4698 9009 10132  2812 5075 10404  595 5240 8976  5216 9830 9941  595 8615 9373  1376 4224 9289  1376 4224 7192  1481 3049 6441  3049 6226 6510  2938 4634 9584  1378 3461 4824  3096 6492 10134  607 3095 6258  1063 3327 6755  4414 8086 9522  1381 6499 9480  1381 4731 5469  4491 9481 9839  3073 4438 6435  6062 9610 10511  2116 3103 7673  1073 4800 7133  4774 8077 8742  1385 2964 8992  3861 5171 8116  3011 6403 8079  1386 3101 7417  478 4292 8346  2540 4292 8346  2275 3773 6043  2275 6043 8172  2230 3525 7966  736 4645 5181  2419 3420 8857  1956 3788 8557  1391 3281 3772  1623 3281 3772  2189 7545 7977  442 5721 10441  4628 4629 8324  1393 3737 9517  1982 4192 7200  1982 4642 9579  3151 7768 9341  1395 4122 10114  814 3692 5601  814 5601 5602  1618 3144 7864  277 3144 4555  940 5999 6247  4901 10479 10722  2858 6262 10653  1857 6262 10653  867 4470 7229  2884 5106 6558  3583 6788 9048  389 6522 6535  791 4207 4508  486 3712 4862  2065 3586 6591  1403 3997 4433  813 5647 6732  1404 3014 5295  2406 6916 9355  343 8134 9758  1406 3982 8987  2532 6235 8987  575 4293 10666  1129 7391 8851  1408 3785 4684  1148 3570 8755  492 4884 5841  947 3431 4235  436 6837 10248  436 3654 6701  1596 4586 4587  1952 4529 8248  488 5622 6977  1412 4418 4420  2080 4468 7381  881 5218 10588  822 4344 8733  2393 6333 8732  916 6498 10725  1865 4399 8405  2334 7568 9315  459 6646 7842  1036 4721 7838  838 4792 5902  2756 9060 9329  69 10188 10871  2471 5924 9993  2471 4536 5924  648 3793 9644  1420 4584 4679  2608 4889 4890  1653 5349 9646  10 3941 9515  672 3052 5987  30 4784 6334  2475 4377 5066  1424 4784 8310  2365 3635 7042  2029 5621 7105  1426 4703 4704  2183 4855 10623  759 4843 4844  3375 5359 10718  1428 3322 7166  1428 3631 4441  966 5210 10878  609 2941 5117  1492 4285 4286  5387 8013 8552  1431 3566 7365  1431 4718 9666  1754 3703 4157  1432 6661 8481  2476 4575 5060  2373 4871 7168  1434 3458 5125  3458 8204 8206  3265 8643 10686  1435 3265 4373  1580 4287 6731  3648 7233 8607  3201 9512 9513  2783 3251 6117  2261 4229 8213  1937 5347 6796  858 3250 6211  1440 4282 4283  2879 7846 8629  1441 4601 4998  1008 5126 10586  1442 4405 9129  2909 5814 10687  1796 4603 7269  2525 9072 9374  902 9830 9941  925 5564 10525  2721 8702 10187  1446 4660 10151  3242 6122 6251  732 4918 10899  1447 4917 9275  3097 6171 9544  1448 3778 4723  768 4254 5977  768 5403 8103  2942 5921 5923  929 5946 9956  760 5903 5904  3254 8593 10699  2911 7220 9361  1452 3696 6174  709 5793 10064  2088 5397 7253  3006 5073 8340  2875 4845 6915  876 7792 9417  2661 7732 7992  2821 5068 6728  1824 6562 6563  1458 3160 4190  843 5879 8982  1136 3018 5004  3018 6526 8027  1459 4991 5079  2696 4991 8551  911 5387 9865  618 6579 10551  2219 6144 9018  2429 5311 8932  830 5151 8286  1676 3999 8470  2065 3531 4029  1463 3372 4594  2816 7670 8219  3164 5161 7426  468 3899 5771  468 3899 8349  1665 5526 6677  1466 8311 8908  5560 10347 10565  2523 4519 9311  1468 4167 7771  107 4167 8441  630 5359 10718  630 3714 10718  727 4622 8606  414 3785 9261  982 5894 6125  619 4306 10742  1472 5145 7323  1632 3666 4756  1563 7667 8180  2300 7641 8871  1474 10243 10721  747 4317 5237  1475 3879 6120  612 3879 6877  2951 4825 7076  1994 4278 7025  692 3882 5300  1477 3420 8857  2631 6763 9269  2287 3777 7903  2893 5027 10651  1479 5131 8353  805 6392 7500  1605 3423 8697  690 4517 5936  1481 3339 6845  4680 9251 10047  2629 5065 9732  3424 3520 9372  719 3424 3520  4473 9966 9974  1484 4374 7494  5233 6229 7311  1485 3711 4618  2191 3796 5736  2646 5235 5615  1703 3305 5698  2571 5890 6947  589 4860 10146  4671 9755 9756  811 4739 7990  1489 4212 5884  1490 7233 7654  3289 4658 7855  1936 6990 10200  3288 6857 9260  3961 6900 10638  1436 2871 6900  2046 4436 6068  1494 3501 5825  1494 3577 5825  1353 4205 9351  1495 5164 7406  2187 7668 7669  2187 4682 5221  3160 4190 7304  3362 9708 10027  2577 3455 4892  2577 4892 9309  2671 5528 9379  1872 4396 4685  353 2958 4538  4758 7972 8670  2231 3191 4479  1501 5102 6727  2457 7529 7845  1502 4177 4931  348 5606 9672  1503 4442 9414  2405 4852 7991  1504 4853 9215  1505 3463 6736  1096 3463 7137  1506 3582 5283  613 5257 7850  1025 3107 6925  1507 4187 10170  754 7228 8272  1508 3148 5486  1086 3257 3428  1784 3257 5957  1041 6006 6625  1970 3766 6779  2604 4421 6550  2203 4421 7607  2218 7727 9411  533 3248 6278  1098 3333 4371  1513 5041 7029  364 5203 6433  1514 5205 9858  1516 3207 4655  1516 4655 4656  699 4868 9074  675 3645 5970  708 4214 10110  1536 7197 10395  1605 5443 5766  631 4347 4348  1519 7978 8162  2215 4925 10483  1520 5313 8364  3903 5337 9147  1521 7532 10227  638 4961 5554  822 4506 5260  1522 5260 5261  1031 10459 10462  1523 3248 6278  118 5465 9273  1524 4811 5465  684 4980 5037  2752 4793 9999  1666 3304 5242  1526 3636 6307  840 4867 9134  1740 5281 6103  4548 7139 9737  787 3059 5718  2706 10138 10139  2010 5121 10079  1069 3276 6399  541 3585 8434  533 5058 8059  1531 3256 5058  3224 4815 8737  3224 8138 8139  2512 9140 9247  430 6362 8997  2250 3912 4262  790 7469 8130  561 3880 10269  1535 3880 5595  499 3456 4700  2846 8479 10109  2952 3719 10062  3908 7464 9552  2888 10454 10455  1740 3057 6103  1740 5280 5281  1024 4948 7160  362 6457 10152  2134 7439 9004  218 7438 8672  1312 4424 5409  429 4127 4423  2000 5652 9745  1628 4495 10244  1544 4044 5835  2197 7969 7970  1545 4939 9249  1545 4258 4939  2156 3695 4447  789 7265 9581  1547 5333 8131  3304 5242 5243  2926 6123 6125  921 5367 6305  3907 5454 9609  2809 5277 6380  1550 4497 9037  2847 4872 10185  1035 3659 6982  1551 3988 4351  881 5040 5617  613 3827 5948  319 320 3168  1553 4176 9724  1554 3905 5463  2345 3866 8076  2232 4334 7878  1555 4305 4895  2376 8775 8776  1925 6999 8776  3995 5639 7815  1557 2959 5779  1453 4474 4858  1558 4267 7801  1559 5047 5627  837 5627 5646  1082 3406 6417  437 3405 8174  679 4628 4629  1561 4060 10735  813 4523 6091  2785 4452 5519  1563 3834 5325  3834 5325 5912  3604 9349 9650  2652 4492 6006  978 5488 7171  1565 3450 5489  2653 3929 3941  2653 3941 9861  1256 3889 7558  1567 5128 8565  740 7143 7664  2111 4825 7076  364 4153 4741  1569 4214 6526  3119 5407 5597  2366 9479 10152  1571 4274 6629  3118 4409 5355  526 5401 7008  737 3490 6154  1077 8538 9437  2630 5051 9439  818 5673 9386  442 4871 9826  727 4123 7292  610 3794 5615  760 4955 6369  2945 7272 10097  2438 4880 8703  1407 3292 10683  199 7030 10812  2240 4832 8911  3154 4745 10118  1743 5152 5756  1492 4285 4287  1492 4287 6731  1581 3997 8360  3997 8360 9188  2220 6861 7675  2221 3481 7389  1001 6102 7388  1583 3465 5556  977 2917 6981  1584 3040 5471  5010 8245 9174  2753 8245 9174  1586 7493 8261  846 5759 8471  771 7860 8289  3261 6001 6300  2693 5455 8295  623 3676 9026  2602 6692 9597  1589 5518 9815  4415 9746 9987  1590 3169 5515  2559 4953 5305  624 3977 5543  1592 5545 5979  1804 3403 6616  1593 4568 6892  1593 4568 7007  379 6169 6328  1594 5331 8315  159 4436 6068  1595 4752 4753  1411 3111 6967  1596 2993 4586  2713 6264 7050  1387 8787 10238  2386 3677 4661  2459 4464 8971  1085 3291 3433  600 5975 8635  2946 5554 10494  1879 4833 4834  3336 7810 7811  1601 3365 5557  1602 4222 6889  3356 4465 8765  2781 10415 10429  646 5559 10415  1605 3208 6948  631 5449 10580  1518 4475 4737  1605 5443 8697  1125 3044 5568  1869 6463 10233  1607 4742 5594  4205 5202 8306  1984 3647 5440  288 289 5440  2352 5428 8610  2966 9493 9494  1150 6511 8916  2347 5583 7273  896 10334 10572  1611 5676 9784  2827 6111 8823  1612 3958 5586  1615 3056 5969  1939 3996 6894  1052 7104 8216  3555 7327 9240  3610 6465 9010  165 3367 3610  1589 6365 7533  2693 5571 5726  1617 5531 8412  2420 3283 5323  1618 5703 6589  807 5020 5022  1774 5285 7756  1724 4342 6183  3553 4462 7245  1620 5715 6131  689 4310 4989  865 5495 8409  1365 4360 4368  1622 5728 5729  1623 3281 5742  5592 6490 10570  2504 7163 10576  746 5374 5682  943 7700 8529  4706 4707 10264  1626 4980 5037  1626 5581 6963  499 5278 10668  1627 4213 4217  2000 3640 5017  4495 5652 9745  2567 4933 10367  1629 5710 5711  565 5717 9064  1630 3059 5718  2343 5365 6856  1430 4735 7334  1632 4756 6378  1632 4426 5638  1868 6620 8923  1633 3341 4499  1635 3930 4230  3930 4230 6045  1478 5828 6280  1635 4489 4713  275 4831 6600  807 5019 5702  1637 4610 8763  1637 4610 4997  3010 4547 6029  1638 4610 4611  1431 4147 9666  1639 3375 5359  603 5993 9046  1640 3049 5744  2084 4645 8520  1642 3469 5181  1191 3678 3679  1642 5181 7696  2746 4076 8574  1758 3128 4356  2723 7694 8661  544 3278 3624  1119 3411 4375  1645 4713 5185  3045 4900 8331  1646 3142 5097  2830 5340 10015  2642 5186 9052  2021 3440 7003  2830 3189 5049  823 5060 10488  1649 5690 5692  711 4578 8592  1650 5039 10594  370 4128 5452  1651 5000 8459  4049 4840 6037  2284 5183 5184  1653 5350 10523  1930 4099 8910  1285 4098 4458  369 5291 6453  6060 8968 10475  3146 5552 8815  5881 9434 9436  2519 5852 9463  650 4418 4419  1658 5872 7931  544 3892 7772  1061 3559 9395  2275 4350 8171  3697 5484 10599  4909 7801 8686  1034 2997 5785  467 5934 8025  577 3747 5842  2772 4004 8362  1372 6993 8965  496 3847 5768  1664 2987 4779  518 7216 7339  2855 5526 6677  1665 5014 10713  5242 5243 8995  824 3304 6866  3823 4221 10114  378 8377 8417  997 6745 7803  1719 3267 7877  791 4508 6115  2397 5160 8029  1210 3900 7319  2291 4314 8474  5958 9241 10162  1671 3308 6177  681 5229 9284  1137 5228 8664  2905 5915 9679  649 2905 5916  1674 5914 5915  584 4431 9802  1675 5942 10895  3972 10515 10517  3233 5743 7559  1490 7654 7855  4333 6353 7884  3755 7884 8009  1678 3797 5980  660 3553 4462  2632 6181 9789  1679 5847 9978  2632 5846 6181  3560 6635 7687  969 7307 9248  535 6552 7847  322 323 3606  1682 3860 9960  2773 3527 5404  1683 4242 8168  2622 4857 9720  4857 7697 9720  365 4308 5723  904 2962 7095  1686 3664 4851  934 4115 7852  1074 6013 10350  1074 3593 7395  3381 4003 5268  1688 5266 5267  1936 5810 7892  4475 5693 9733  2142 3228 7063  1690 3134 5922  1691 2961 6031  413 3247 4744  1692 6007 7090  2144 4258 6250  3313 5415 9917  1693 5565 8725  493 7315 10316  819 3482 7970  946 6086 9102  3353 4946 10262  3028 4260 9126  4626 7047 9206  5114 7763 10575  1697 5952 8098  2736 10010 10011  360 5279 6292  726 3370 4673  2745 4673 9760  2409 4251 8420  1693 5564 8220  1246 3919 8254  383 6725 6726  1257 4105 4353  1702 4105 4353  2887 4116 10287  4571 5483 8436  1930 3830 5960  1704 3379 5596  2030 3584 5482  3668 7074 9142  2810 10041 10120  1159 8170 10120  1707 4228 6077  914 4732 6058  2900 6057 6058  1551 3988 7620  1709 5393 6135  2686 4965 7128  365 6035 9396  1711 8996 9063  1722 3943 6432  2820 5456 5457  2219 8058 9018  1713 4601 8297  2362 7361 9073  1798 4343 6172  1797 7546 10286  778 2999 3716  2507 4770 9255  953 5286 7084  1724 3476 6328  667 3935 6335  1717 3935 6335  1717 3113 3935  2939 9366 9367  2571 6947 8602  1719 4571 5483  1216 3943 6432  1720 3845 10321  476 4565 8239  1335 4024 7514  2633 5566 9654  1722 6133 6432  2545 4389 8651  4389 6032 8651  1619 4342 5286  5331 8315 9984  2543 4902 9533  1725 5549 10694  2517 4236 5244  2517 4236 7495  590 3727 7999  3467 8387 9718  3136 5606 6018  3760 6934 9586  381 8302 9561  5783 6097 7501  5173 5231 10428  760 4955 5903  509 3404 4498  3404 4498 5103  1898 3404 5103  3680 5760 9542  138 9237 10282  371 5480 9116  2221 4064 7388  3890 7541 7767  1735 5869 5870  1736 5069 10033  2638 5069 9568  394 2917 5472  854 7001 7857  3853 5093 8347  474 4337 10478  2106 5054 6501  1739 4767 6000  840 4499 5016  1740 4303 5280  1741 5856 8314  1741 3086 5856  1742 3152 5678  2268 5992 7734  1745 3834 5912  1745 5912 8243  1744 5756 7718  1745 4817 8243  2527 3756 9259  1896 6089 9259  3269 9235 10549  3973 5485 6657  2573 4638 6373  2923 6282 7564  1748 5645 8361  2383 5644 8555  1749 6210 10512  680 3531 4029  1772 5910 10641  1772 5909 10635  1751 4232 4579  2045 6375 10225  683 4140 7856  1752 5959 6273  2070 3768 7236  3701 9089 9959  1754 3703 4563  1754 4563 5875  2308 6921 8339  4563 5875 6865  945 6088 9505  1756 3143 6087  1591 5542 9997  2691 5665 9525  1759 3427 6311  1643 7628 8097  1086 3426 6358  1759 7253 9316  2057 5978 6351  2482 5978 6351  1529 5121 10079  1529 5121 5862  937 5994 10106  1121 8191 9863  1763 10489 10676  733 3970 7135  38 7509 10764  1764 2990 5263  3494 6418 8383  2147 5307 8676  2311 7160 9909  498 7364 9851  1113 3496 7274  1767 5307 6964  642 6294 7748  1768 2963 6295  735 4586 4587  2441 6381 6700  1770 3536 4237  668 4237 6553  1771 6320 10700  1775 4279 6190  3050 4559 10641  1838 6488 6489  1130 4073 6112  682 5331 9984  1774 3486 5735  1773 5735 6528  1771 5771 6320  1775 3308 7358  4597 5861 9163  731 3783 8060  927 4692 6141  1777 3125 6140  1778 4043 6561  2076 4915 9583  1779 5309 6270  1650 3080 10594  1780 5972 10093  1780 5972 9529  1781 3829 10714  1781 6017 10714  3754 8336 9886  1971 5490 9848  1758 3466 6855  1783 3065 6297  3257 5197 5957  1784 3426 6358  2364 4971 9362  1785 6124 8047  691 5709 6124  2582 3933 8960  1814 2935 4687  1441 4599 4600  1076 8146 9015  784 4100 6933  1012 3072 4663  2054 5972 9416  2298 4263 8198  148 4919 8516  2634 9013 10290  2850 9014 10290  2281 6100 8236  1792 6100 8236  4747 5484 10599  1793 4267 4858  1794 5495 10251  2027 7647 10470  3002 4805 10098  1794 4325 9876  5090 5511 10697  1469 4843 4844  1797 5604 8624  444 5604 6442  2340 4343 6173  2340 8351 8359  1294 4328 4329  714 3955 5082  2360 5082 5806  1799 3627 4712  661 4079 6196  2908 6022 6196  1346 2924 8184  1802 4380 6228  3274 7691 8331  3273 10501 10502  4183 4686 6084  1804 5979 7488  1310 3858 3910  1805 7120 7797  2058 3398 3425  1806 5150 6401  1666 5242 9041  1807 4592 5877  1251 3838 9350  508 9639 9887  1125 6463 9140  1809 4248 8524  1646 5640 10116  910 3807 5640  1811 4086 5982  1057 3325 7376  928 5797 6339  1812 6337 6338  5087 6482 8619  136 5087 6482  842 6095 10005  2482 6500 10364  683 8819 9117  1215 8954 10752  2529 8033 9985  1816 4140 7856  3742 6471 7086  645 3412 6716  2358 6429 9155  1818 6430 6470  2795 10305 10306  1819 3021 6322  4052 5491 8734  3071 5578 6202  3394 6476 6871  864 6476 6871  1822 3921 7885  2416 8596 8597  3110 4954 10750  880 5061 6563  1824 5977 6564  1825 5841 6254  2787 4015 5086  1212 3908 6521  4118 5693 9733  1059 3240 8112  1051 6584 7322  1836 4239 4265  2034 6477 7326  1829 6464 6484  2105 6501 7165  1839 4064 6102  1839 6102 9210  1130 3567 6112  639 4378 4424  1236 3518 5831  51 3116 5468  1833 4708 6052  2138 4020 7472  3419 6094 8299  2700 6498 10725  3355 6004 10889  1835 6004 6438  2213 5353 10721  1836 5237 8326  483 7093 9253  1837 3331 6132  1222 3804 6846  1838 6489 10640  2965 8113 8536  2965 5480 9116  3060 9419 9420  4906 7060 9012  3041 5808 9527  3042 6683 8089  3092 5981 9833  5408 9194 10370  2541 5473 7803  3041 6074 6076  1245 4080 8639  2712 3940 7582  4120 4172 5502  537 8163 9022  798 4360 5392  1846 3073 6435  2574 6284 7564  1847 6282 7564  1848 5182 9208  1848 5625 9208  752 4055 5494  1849 5494 6222  511 5079 8551  1060 7227 10265  4738 7825 10392  2045 5049 10225  2773 4637 9524  1380 8086 9522  489 4387 10902  4787 6955 8909  802 6011 10884  224 4541 7400  2517 4777 5708  1855 4777 5708  4040 8415 8637  1970 5906 6626  2149 6083 7513  744 7378 7512  3237 3287 7828  1047 3238 7613  2634 5369 9836  1859 3503 5783  886 3241 9053  1860 3968 7383  702 3968 6678  1861 5460 6293  2873 7009 9342  2874 6291 6292  1806 3383 10537  1863 3383 6612  1094 4422 10161  4199 4866 8080  1415 4397 9378  370 4128 4399  3614 6242 8936  1866 6256 8751  838 5902 6359  1867 4501 4690  1633 4303 4515  1125 3554 6214  2512 6463 9140  1647 3259 7065  3259 6690 6691  912 4269 9415  2609 4269 9415  891 4329 7554  1872 3373 6416  3939 4856 8818  458 5408 9194  1874 6253 6514  1874 6253 10062  944 4224 9369  1875 7192 9369  786 5137 9187  1876 8610 10157  3712 4207 8274  2593 4318 7302  1367 5053 10504  574 3363 3863  1292 5694 10052  2263 7609 7610  869 4635 6252  1880 3299 6245  426 6304 7061  1881 6708 9005  1882 3301 5820  5820 7221 9029  2642 6053 6054  1883 3947 6590  1117 3366 6554  2038 6628 7209  3214 6753 6754  647 4857 6640  2890 5673 9386  2890 5168 7598  1887 3187 5686  2333 3447 8143  121 3447 10868  1087 3321 6466  548 6236 8370  1890 5705 9709  1890 5705 6606  3450 5489 6721  1891 3450 6721  4854 6984 7894  1892 3644 6798  1893 3939 8818  3082 8818 10333  4226 6778 10375  1894 3046 6777  2673 4681 5509  2536 6289 6290  2024 3826 7368  1896 5896 6529  2760 8008 10122  408 5144 10191  817 9047 10626  2236 4476 7930  777 3922 6542  3442 3922 6542  66 3745 10865  1900 6476 6774  1901 5612 10246  5613 6954 8893  3950 5947 7421  1155 8279 10268  850 4210 4669  306 4460 10213  1904 6581 6583  16 9079 10087  1906 4369 7581  5329 7581 7791  1907 6770 9951  1907 5672 6770  1908 3276 6399  1069 6399 8560  2353 4895 8972  885 5761 7012  4053 6261 8122  355 6434 8811  1204 3442 7396  3067 5146 8593  2897 4008 10112  2844 3315 9558  1913 2993 4586  6699 7246 9125  1914 6381 6617  1914 6381 6614  2534 4829 5918  2621 6138 9686  1319 3099 4434  1319 3099 4665  1128 7503 7713  2256 3692 5601  479 6046 7819  1918 5602 6618  2576 5088 8809  1919 6886 6887  1233 3990 7113  3264 6826 6887  1921 3991 8789  1921 6826 10689  3572 4357 5995  1922 3700 5997  1923 4018 5504  1923 6769 8443  2544 6390 10374  1924 6390 10374  3445 4931 5379  2200 3445 5379  2355 4313 6752  2355 7812 7813  3150 9363 10720  1927 6220 6891  1234 3381 4003  577 4004 8362  2317 3999 8286  2317 5743 6368  2887 3830 5960  1930 4099 7363  2454 6897 7766  2717 6897 7766  2148 5746 8031  2366 3945 4922  1152 3749 7882  1933 6971 6972  1154 3734 9707  2433 3735 5414  2807 10460 10461  1916 4322 6686  2568 5772 8253  2568 8232 9628  2750 5347 6796  2037 3175 4390  2003 2957 4719  2957 4719 5217  2125 5537 9764  2731 5427 7857  901 5523 8530  300 9183 9204  1604 3081 3616  3081 3616 5720  1942 5620 6331  1836 4239 5911  1943 3104 6821  1943 6820 8081  3855 5053 7017  5205 6458 8269  1951 4451 6472  1945 3779 4451  1946 5712 8466  1263 3875 8169  772 3874 7905  1948 6344 6345  3023 6644 7300  2910 5631 10401  1267 4077 9447  2927 6696 8654  1950 2927 6804  1951 6473 6474  3156 6810 10633  4528 6654 8853  2064 4528 5654  858 6211 6314  2750 5347 9899  408 6863 10602  1954 3510 6864  1331 3962 4493  1331 3962 5939  1189 3698 4168  2096 3698 4168  3792 6286 10712  1957 6040 6041  386 5200 5325  1958 2955 5200  459 3418 6646  1214 3931 7844  1960 6511 7121  1960 4018 4281  538 6168 9484  1961 3836 6807  2838 6301 10085  2838 7635 9234  2481 7101 7572  1963 7101 7572  2214 4724 10444  887 4774 6402  2893 3460 5027  3826 5320 10529  750 3460 5027  1479 4126 5153  750 4449 7138  614 3196 6308  2293 4443 6830  3982 4739 7990  2552 6179 6180  665 3183 5166  665 3766 7599  1972 7824 9371  1783 6186 6187  1972 7107 9371  466 5065 7420  1069 3277 5396  2675 4467 8560  3870 5488 7171  1974 4799 10585  1641 3191 5809  1641 5809 9994  1012 3243 7314  1976 7188 7189  1237 4219 8275  551 6396 8917  1183 3409 3410  2023 6594 6596  1458 4190 4191  5004 7296 9427  4483 5333 7705  1980 7679 9192  3774 7158 8671  2695 9578 10220  1982 6279 7201  519 7848 7849  1983 7097 10352  3312 10350 10352  3632 10017 10315  718 3632 5211  980 6709 7741  2404 6194 9006  3378 9331 9332  3158 6944 9408  2828 5892 6521  535 4727 6552  4075 6742 10449  1988 4075 5681  2225 3034 7556  1631 5365 9242  3180 4955 8201  1990 4874 6370  4134 7077 10240  1991 5074 7686  2489 8634 9797  1880 2983 6247  3539 5204 9122  1993 7132 9470  1137 3623 8664  1994 3074 7026  415 3221 3222  1995 6740 9314  439 4045 6927  1996 3068 5508  1501 3098 8285  1997 7096 7267  3587 5356 10481  2056 3587 5356  1999 7275 7276  2297 6636 10717  2932 5291 6060  2000 3640 7475  2001 6793 6794  2001 3905 6794  1116 8354 9405  2002 3270 7180  2003 5050 10295  2590 7062 9607  2590 6559 10728  2344 8182 10655  2055 6389 6439  2006 7289 10272  534 7289 9491  2007 4358 4523  605 4358 7987  2008 5251 7285  2838 6301 6302  3351 6768 7014  3351 6768 7986  2010 5139 5140  2010 10079 10139  2011 5025 7310  2011 7976 10510  244 4967 7967  2012 3446 4674  2013 4211 6545  2336 4211 8093  3141 9291 9853  2587 3141 5091  2015 3808 5330  989 3808 6986  755 4407 8087  4411 7252 7332  1032 6345 6644  2017 6644 7300  1120 3199 4381  1120 3199 7337  2459 6197 8971  3068 5508 9356  1568 5213 7076  2020 2951 4825  988 6517 7003  2021 3440 7002  1809 5917 6436  2022 4250 10438  4007 6596 10608  3031 4007 10608  1238 3492 5394  763 4817 5152  2025 4588 5084  2025 7176 7178  2026 6725 7960  2328 3919 5432  2027 4186 7647  2027 7374 7989  1778 4887 5887  798 4887 10664  2996 7104 7827  2498 5621 8785  2030 5282 6882  3514 5282 6882  1149 3108 4058  2031 3731 6670  1273 3736 4202  2379 3736 8660  1204 3442 3922  2033 5158 6085  2466 4930 9961  2034 4576 7325  3122 6725 6726  968 9536 10734  2036 3836 6519  2036 6806 10604  2037 6313 8571  1531 6211 7584  1101 4896 9339  2038 7207 9020  2039 4541 7400  792 5586 10159  2040 5493 7386  820 4854 7894  2041 4707 7437  447 7251 8416  2277 7997 8104  2043 3765 3957  2043 4407 8087  2044 6240 7212  890 4525 5518  988 6517 10436  2045 3924 4579  1493 4103 4839  2048 5374 7608  1624 5373 7295  2504 6048 6049  2498 4103 8784  2048 6065 6383  396 4075 5681  2049 4525 8006  2074 3983 7695  717 3298 6971  2052 6053 6054  807 5019 5020  1636 5019 5020  2237 5019 5702  1618 5702 7864  599 5703 9490  3243 7187 7313  3243 7313 7314  841 5736 9744  2055 4953 6389  2056 3587 10203  2056 3473 5873  1195 5795 7204  1195 3665 5214  1808 5294 6113  825 7351 8925  2790 4616 5866  2790 5836 6309  1310 4387 8748  2060 3149 7451  2061 5667 7141  2743 10308 10309  2743 5585 6953  1303 4001 7297  2063 4001 7297  4530 6837 8952  2064 4823 6837  1403 4433 8425  2312 3586 6591  2066 7510 7511  899 4357 6259  1427 3813 4843  553 8091 9487  2068 6248 10166  2068 6802 9753  483 7069 7466  1777 6141 9868  1753 6160 9959  2070 3701 7235  2464 5700 7114  2529 5604 6442  4361 6392 8177  2290 6392 8177  1140 8263 8700  3750 7566 7567  963 4769 6960  2448 4969 6734  503 4711 5997  2448 4711 6735  2076 4365 7315  2891 10546 10547  2077 4084 7471  2381 4084 8780  2583 8640 9717  2211 4524 7964  2079 5649 7594  5649 7594 10324  4468 4860 7381  2080 8360 9188  2207 7843 7844  4757 8566 9339  357 4025 6406  2082 4329 7554  1550 4496 4497  622 4496 10089  2084 3725 10710  5585 6953 8017  2127 4360 4368  3752 7515 9094  2086 3843 4034  350 4034 4771  3877 8603 10601  969 3877 9248  2678 5397 7253  2088 6784 7628  2897 4945 10113  4945 8224 10113  2617 3669 4400  1864 4199 6238  562 7266 8567  2367 5406 7429  2281 5370 5763  2092 7110 9258  1200 3640 7475  2093 5454 8831  1219 3655 5248  513 3608 7543  3729 5984 8608  360 3438 5112  1956 4168 8123  2096 7656 7657  2097 5133 6421  2843 5830 8545  2098 4019 4782  1092 5161 7426  2099 7425 7427  2150 5372 7377  2100 5372 7408  1597 4913 7125  478 4608 4911  1001 7388 9425  2562 9113 9209  1181 3762 5829  5378 7197 9381  1015 5867 9774  378 6889 8377  2105 7578 7579  673 4377 5066  1739 6000 6781  2106 5635 7622  366 7580 9775  2465 4695 7580  1018 4323 4324  852 6101 8453  3354 5299 6973  2109 6973 7344  1135 3449 9482  1135 3448 9482  2111 3345 4278  2111 5045 10624  2164 5680 6912  252 6697 6698  1359 4595 9105  2776 3971 5046  1013 3103 4261  409 7281 8550  1058 4995 9178  2115 4554 7480  5116 8791 10000  498 6062 7364  3760 6445 8822  2789 3760 9586  1285 4100 7184  407 4099 7363  3089 7729 10733  784 6933 9585  3008 9123 10667  1198 3551 8677  2121 7491 7736  775 6366 8961  4888 7379 9097  2461 4888 6366  2123 4065 4066  2123 7432 7434  2124 5791 5792  2124 4695 7580  945 6088 7032  2982 7031 7032  2028 4887 5887  493 4042 5888  488 4420 7082  2128 4333 4540  1280 7693 10237  2129 7442 8478  3556 4929 8211  689 3556 4929  2131 3368 5417  2131 3368 7550  4379 7557 9081  1222 3804 4580  3542 7000 8252  1254 7291 9798  3998 4050 6299  1526 3166 6307  2135 7794 7796  1266 4161 7794  358 6028 9633  3155 4094 8303  2137 7603 7604  2815 7027 8303  2138 3833 7473  455 3599 7053  2139 4708 6431  2140 5505 7778  993 5505 7452  2582 5709 6124  2141 7445 7446  2942 5923 6030  2142 4148 8922  1345 4299 7190  785 7631 10143  2144 6766 9112  2707 4485 9772  1973 3585 6318  1040 7691 10501  952 6471 7086  2146 3742 7085  5163 5307 6964  2433 5163 6964  2148 3974 5746  2148 3945 8031  1057 5982 6838  2149 6083 7512  2823 5372 7377  2823 5372 7408  285 3601 5124  2151 6093 7629  2152 4693 7789  3215 4693 9400  3789 4437 9710  1571 4437 6931  2154 3239 7809  2154 7810 7811  591 3771 8653  2155 3394 5089  2156 3695 7223  512 3213 5637  2157 3497 7744  3993 5298 7715  2158 7714 9962  2159 4179 9042  874 4179 7865  580 7000 8252  1737 5950 10054  2709 6628 9020  970 7328 10156  1562 5477 5478  2162 5647 8246  888 5974 9011  352 5634 8728  2164 5680 10630  3892 4790 7772  2165 7462 8260  581 4659 7092  3408 9947 9948  2166 3130 7872  2167 3696 6156  1798 6156 6174  1452 4582 9433  2167 6134 7228  2169 6134 7228  3139 4187 10170  1239 5215 5569  2375 6418 8383  3402 8335 9818  3402 7151 9818  694 4412 8964  694 4412 7831  2173 3145 7677  1099 3414 5195  2335 5553 7941  2174 3212 5553  2095 7415 9540  2872 9954 10348  2176 4028 8020  2176 7767 7891  2177 4151 7646  4151 4417 7646  2508 4401 6067  853 3574 8717  2179 7886 8519  2821 6728 8582  1347 4507 8054  2611 4506 5260  1047 7576 7613  2181 4087 7577  3064 7289 7719  2182 6960 7719  2183 4531 7144  2183 4703 4704  4014 7367 8423  2747 7367 8423  1706 5781 7926  541 3592 5900  2186 4110 6371  392 3453 8503  836 3439 7523  1446 6122 6251  1392 4729 9983  795 8621 8969  1283 3519 5399  795 4730 8969  2559 6239 7436  2191 6749 7435  5736 7024 9744  2191 3796 6749  2192 4294 6410  2308 8072 9385  2193 7921 9224  2193 7920 8225  333 5154 8797  4331 9281 9283  2261 4812 5426  2261 4812 10241  3039 6149 8648  2196 6149 7683  2197 7968 7969  356 9278 9697  590 4482 7999  1116 7145 10236  2199 7013 9322  376 3350 4152  1635 4489 6155  922 5555 9021  2201 7444 8463  4181 5664 10426  2202 5387 6374  803 4735 5366  2604 6550 10252  2233 3738 6662  3220 6539 7527  2204 7527 7583  685 6152 8554  2205 4372 7957  2899 4233 9301  2898 5649 7320  3931 7843 7844  4013 9076 9077  3193 4144 6236  2422 3399 5492  3637 8973 9244  3637 8678 9279  2210 7881 9616  2210 6693 8106  2583 7496 8640  1396 3271 6738  539 5146 5391  1065 3318 7709  4265 5353 10243  5353 10243 10721  2214 6336 10445  487 4088 6116  1519 4925 10483  2215 7226 7227  1436 4717 6937  806 4925 7352  2217 5891 8074  2217 5891 7600  616 5114 7763  2218 3332 7726  2695 5270 9578  986 6486 7361  2221 7389 8431  2704 4647 8432  2704 6862 7390  2704 4117 8431  1085 3433 7750  3462 7867 7868  2223 3822 7751  2223 3047 3822  826 3047 7642  662 4702 8720  2202 5713 10707  2225 4319 7518  2343 4735 7334  453 4617 4734  3918 7860 7861  2532 5593 10617  547 7081 7456  771 3209 3918  1037 6266 9726  2796 4232 6599  6953 8278 10309  2230 5898 7776  5102 7623 8447  2231 5447 5448  443 7906 8129  2703 7162 10042  2558 4264 8896  2558 7324 9587  2128 4333 5725  2234 6977 10539  2235 3648 5753  2519 5852 6789  4364 5532 10427  1103 3206 4364  2237 4831 6600  2237 5702 7864  2238 5688 7508  2238 4412 8964  2360 5806 5832  2239 3612 8040  198 3761 5410  2241 3761 5410  2999 6724 7167  2241 6724 7167  770 4333 5725  868 5724 10006  1145 6444 7356  445 3075 4770  2244 3407 8424  2244 6036 8175  3133 8116 9428  594 9071 9964  2246 6653 9159  2246 5172 6069  2624 4175 9582  1240 8397 9582  628 3235 5587  2534 5918 7681  363 5955 6635  2249 6635 7687  2250 3841 6176  2251 4935 8130  2813 5611 10209  2651 3441 6234  3842 7469 8130  1460 3565 4978  2253 7522 7523  2253 7523 10900  618 5080 10073  2255 3766 6779  818 6779 9386  492 5086 8024  2256 3692 7713  1163 7611 8675  2338 6822 6823  195 7707 10532  3318 6412 7709  2259 4296 8150  2259 6252 9450  2851 5008 10281  226 6578 8933  177 8214 9250  2261 5426 8214  1254 4039 9483  5437 7721 8179  1524 3563 9274  913 4810 5206  2280 4863 8161  2280 4797 4863  2265 5343 7385  2267 8189 8191  2267 5579 8190  359 6118 7731  359 5579 7731  5225 7733 9444  500 7348 9759  636 5129 9145  2269 7504 7840  1353 4197 6503  2270 5202 8306  2271 4742 5594  4197 6503 9457  1279 6349 8140  748 4376 6464  3003 7758 10103  273 3003 7758  1118 5044 6667  752 4055 7788  4350 7896 8171  2275 4698 9009  661 6022 6968  2276 4934 6219  914 6582 7996  1708 6057 6058  2278 5667 8319  1021 4550 7661  2279 6901 8511  3195 7923 7924  2280 4228 8159  2092 3728 9103  2281 3728 5763  2282 8344 8345  839 4866 4886  2453 5201 9047  4521 7858 10590  1652 5183 5184  2284 7858 10590  480 4452 8533  2285 3391 7531  2423 6303 7198  2395 5514 8369  3241 5704 7612  2287 7612 7902  2686 7230 10039  365 6035 7722  2289 4903 9913  805 4903 9781  2290 5836 6309  2790 5836 5866  2291 4361 6392  2291 4804 7869  1240 3732 4045  1240 3732 8397  4619 9243 10890  79 4619 10890  5788 6461 9816  572 6461 6794  2295 8026 8028  3863 5938 8408  3079 4470 7229  2296 4327 5520  1999 6636 10717  2297 3893 7499  2298 4919 6167  915 6167 9840  1860 6678 6975  1333 8378 10010  5208 5707 9043  2527 5707 9043  2301 5761 5762  2301 5761 7012  1107 7914 9882  2303 6241 8898  1146 4256 9778  2304 5560 10565  1686 3528 10208  2813 3528 5611  2876 8852 9619  4115 8852 9619  4242 4806 8168  884 6520 7945  2308 4294 8339  756 4156 7921  150 10222 10814  2309 7243 7948  2959 5767 7591  2643 4469 9834  2311 4261 8944  2116 3103 4261  2510 8868 8869  2312 8425 8427  2313 3981 5576  3053 3471 6771  2314 3981 5259  2315 8455 8456  794 5113 5576  2316 8497 8498  1094 4569 10128  2317 6367 7808  2852 6367 6994  2568 6990 8232  2318 8232 9628  2841 4208 5388  893 8809 9443  1340 3952 4440  2320 4440 7823  4193 5148 8239  2321 4193 7692  170 6928 9825  2732 6786 9825  3885 7937 10310  2323 7936 10310  1394 8231 10040  519 4640 6279  1354 8022 8313  1354 5336 9422  933 5011 5223  685 4380 8554  1584 5472 8003  2327 5223 6834  1701 4928 5929  2328 3967 8234  1454 3306 3909  2329 3808 8341  1454 5033 7777  2331 8539 8540  3006 5304 9531  387 4404 7039  1748 3590 8361  2332 3590 7945  2333 4810 5206  913 4799 10584  2334 7569 9315  2334 6312 9297  809 4026 7122  2872 7940 7942  2336 4211 6545  812 8105 8392  403 9131 9762  403 3285 4006  3705 4238 9451  3275 6168 9484  2841 4208 7963  2319 5459 7962  1632 4426 6378  2340 6173 10879  1548 4972 7225  2359 6305 7218  1101 7589 8566  5128 8565 8750  2343 4735 5366  1631 5365 5366  2005 7134 8832  2344 7134 8832  2001 3280 3866  3280 3866 6343  2346 3688 8181  705 5107 7273  2347 4789 6024  2348 4109 8618  1603 8102 10509  2794 5403 10313  875 4435 7563  3963 7799 7800  710 4239 5911  1188 5961 6217  1609 3540 5303  2352 3661 8611  844 7305 8419  2353 4010 7306  483 3331 9867  2991 5523 8530  3542 5950 10054  2355 5949 6752  866 6048 6050  2356 6308 6829  2357 6048 6049  2357 6049 6531  2358 6470 9417  3769 7792 9417  643 5706 5967  2359 6305 6643  1799 3955 5082  1800 6081 8158  1000 6283 9085  895 4320 6231  1981 5445 7158  490 5445 8942  2363 6164 7056  1374 8740 10598  1005 6212 8493  2364 8493 8494  2988 5373 8495  2988 6065 8038  2366 5496 10659  1540 3979 4948  3728 5763 9103  2367 3778 8517  2368 4854 10482  398 6302 8120  4051 8620 8621  1283 4051 8620  1086 3427 6311  663 5121 5139  308 6580 6581  399 5492 7597  823 4728 5692  2373 4729 9983  2373 4871 9826  704 6994 8745  2374 4897 8744  1765 4785 7173  4814 8125 10336  560 4661 5109  1190 3355 3958  3063 7660 7661  2377 4767 7660  626 4567 9008  2378 5765 8216  1222 3802 6360  2379 3804 8658  2380 3075 3859  2107 3859 6507  737 7471 8780  2381 5506 8490  267 6163 6164  883 5645 7837  883 8007 9124  5255 8668 8669  353 2958 5255  2861 4648 7452  2385 4648 8007  1190 8777 8805  560 3677 4661  780 4788 7720  1438 8021 8213  2228 3621 7456  2388 7080 9360  3731 4136 9535  4058 8878 8879  388 5094 8609  3499 5094 8609  995 6614 6959  569 5648 10117  2392 5294 6015  2922 5731 7175  2611 5260 5261  2581 5598 9389  1270 4040 8415  2394 4344 8733  2516 8999 9028  2395 4203 8367  2396 3996 8757  554 3455 4892  283 6184 7790  2397 5160 8030  249 7019 7020  2398 6641 6848  1756 3143 6088  2399 4932 9102  2400 8842 9566  2400 4021 8842  2300 7639 8871  828 5964 7639  2402 4867 9134  2402 3341 4499  891 6416 7981  2403 3330 8841  2404 7741 8862  980 2883 6040  398 6301 6302  2405 5226 8120  2406 6918 8867  3007 5618 8404  2407 5669 8881  1572 5402 8502  1214 8500 10379  2509 8717 9750  4463 9749 9750  4420 7082 9430  2410 5151 9430  3364 8581 10553  4301 9708 10027  2412 4130 8321  2412 4165 8322  544 5872 8514  2413 4988 5802  2414 7496 7497  3604 8835 9650  2004 6738 6923  3604 8833 8835  2416 4599 4600  3921 8596 8597  1911 4169 10645  2417 8905 8906  2772 6879 7552  446 4003 5268  1477 3881 5582  1100 8855 9926  666 5531 7028  2420 5323 9084  1244 3840 9519  2421 3840 8802  2895 3399 5492  2895 5492 7597  2423 4144 6236  2208 3193 4144  4928 5929 8384  2424 4776 7587  2425 5245 10353  2785 6895 7983  851 5245 10353  2426 5095 10552  1261 7066 8450  1070 5780 10398  2428 5607 8666  1271 3879 6120  3787 6376 8553  2430 8890 8891  2430 3459 8890  3079 4796 7590  2884 4470 7590  1595 4751 4752  849 4752 4753  742 5746 8031  742 3687 8488  971 7659 7963  2434 4613 8270  538 3457 9484  2435 5795 8883  3914 8518 10242  2346 4780 9221  4387 8460 10902  2865 4962 8919  1181 2992 4383  2438 8704 10393  936 3905 8276  2684 5642 8390  2440 6395 8700  2940 6395 7432  2441 7246 8826  2441 6381 6614  1045 6452 7841  2442 7841 8631  2625 8137 8140  1134 8137 8138  3554 5433 6214  1606 3631 5510  2445 3798 8914  2970 8943 9031  3 7330 8226  1680 2881 5955  2774 5954 10377  2448 4969 8355  4969 8355 9461  1681 4621 4727  2449 4621 8870  2159 4179 7865  1295 3615 7062  2847 5287 8994  860 4110 6109  3873 4110 6109  2452 8352 10413  1103 6788 9048  2453 4521 8630  1710 3814 8996  734 3814 9875  2455 4957 9070  1289 4282 8334  1213 3918 7861  2456 4167 8441  2457 5804 7529  439 4045 5803  1598 5447 5448  560 3677 5633  1173 6727 7267  2459 3791 8457  1205 3585 6318  658 8724 10548  2461 6366 8961  2461 4888 9097  1317 3230 10434  2462 4445 8921  2463 5700 7114  855 4165 6158  2071 5700 6448  2464 5700 6448  1222 4580 8796  2379 3804 4580  3553 9066 9067  1620 4141 8002  2022 5917 10438  470 4248 8524  2468 6907 7738  2468 3778 4723  2757 4873 10197  1231 5098 10266  1691 5159 6031  2470 3333 8646  1725 5747 7833  1725 5747 10305  518 4779 7215  2472 4323 8977  962 6114 6347  3221 6114 9148  2474 4201 7242  2475 4377 8083  4545 5085 9305  823 4575 5060  2584 5503 9346  2626 6287 9487  385 7521 8228  385 4978 6042  1716 6078 6170  2479 4726 8863  954 5680 10630  2480 4694 8186  1300 3142 3807  2481 7101 10519  1822 6500 10364  1822 3685 4394  1384 3541 4774  3011 8078 8079  2484 4323 8453  852 6504 6505  766 7843 9076  2485 9076 9077  3258 4879 6991  856 5296 9925  611 3429 9121  856 6748 6804  878 5603 6848  2488 5603 6848  1402 5063 10589  1402 3712 4862  1343 3181 4552  2490 9151 9153  1417 4792 5574  1417 4721 4722  1331 4494 9838  844 4305 7305  845 7953 8165  2040 6111 7124  1478 6280 7903  845 4298 4332  2495 7490 8736  2675 6911 7490  1137 8284 9086  2496 9087 9088  1457 3120 8981  2497 6427 8983  5621 7105 8785  555 6065 6383  1866 4597 8908  556 5501 6256  990 5710 10367  2500 5855 8691  2501 3823 9192  2501 4662 9191  1329 4151 4417  526 3925 5401  1479 5131 7412  2503 5302 9034  450 4346 6049  2504 4346 6049  445 4770 6549  2505 9150 10727  2506 4720 8407  2506 5062 8407  5672 6770 9211  2507 4770 8903  2508 4457 8388  3153 8421 8719  3153 9749 9750  3657 7973 9202  617 4433 5498  1318 3466 4404  3006 5073 9531  2512 6463 10233  1533 3518 6039  2513 7908 9160  1223 4694 5390  3938 6965 9905  3882 5300 9407  2515 3994 9167  412 9166 9294  2880 9918 9965  2395 5514 8367  2517 4777 7495  132 4236 7495  1843 6074 10021  2518 10357 10480  2519 5777 9463  1657 5852 9463  2520 5154 5946  2520 8947 8948  1311 2933 4581  4090 9290 10581  2044 4046 5389  2522 3676 9026  3637 6760 9244  2523 8973 9244  1450 2941 5117  929 5018 7525  2525 4630 9375  2565 5075 8614  2526 3523 7248  448 5895 6408  3061 5208 7640  3061 5208 5707  2528 6655 6656  628 6655 7416  1232 6609 9432  3663 6327 6609  1278 4760 9220  2530 5338 9219  2531 6283 6647  2769 5141 9561  1406 3982 4739  2532 5317 8289  6867 7560 9214  414 3799 7560  1060 7226 7227  2534 4829 7565  2535 3635 7042  2535 7761 10124  1895 6289 6290  602 5332 6289  2537 7693 10237  396 6660 10245  2538 9331 9332  2539 7068 8327  2276 4292 6219  2540 4292 6219  997 4571 6745  2541 4009 7901  843 3721 8595  2542 5879 5880  1247 9365 9533  2543 5747 7833  4920 5570 9504  2544 4920 6390  2763 6541 8363  2343 5365 5366  2546 5367 6305  2547 8469 9057  863 5869 9961  4677 8223 10566  2548 4677 8223  2132 3339 5659  2549 7182 8650  1020 4469 7591  2310 4469 7591  3765 3957 7904  914 4732 6582  1969 6179 6180  424 6179 9723  1601 7046 7810  3365 5557 5558  1602 3365 5558  1602 5558 9340  2599 5098 10266  4873 9404 10197  1259 3684 4932  3684 7054 8811  2189 6615 7977  1392 7544 10293  1342 4263 9007  915 4264 7324  2560 5055 5840  2559 4953 6389  2691 6361 7507  2691 5544 6361  2561 4654 5584  621 9353 10705  6102 9209 9210  1001 2864 4132  2911 8609 8953  1797 3663 8624  1819 6322 10307  1819 6324 6623  2565 5075 8338  2565 8338 8615  1374 8614 10598  269 3848 8070  1437 3201 5501  3201 5501 9512  377 4616 5866  377 4616 5772  2181 3646 7576  2569 6924 7980  873 5012 6920  2570 9455 9648  1719 5483 8993  2571 4996 9647  5483 8993 10167  471 3628 5697  1747 3296 9440  3296 6012 8005  1747 3296 5580  3296 8005 9321  1208 6096 8877  2575 3594 9596  464 6888 9092  2576 5088 9092  4850 8374 10332  701 3157 9307  2733 4556 8830  2578 7049 9234  3123 7793 9935  2579 5056 7448  1522 6333 9389  393 5261 9803  2581 3316 6027  2581 3316 9390  982 5894 10744  1785 6123 6125  814 5602 6618  2078 3692 7502  2477 5239 5503  5239 5503 9346  2585 3165 9902  2585 4718 9666  416 4388 9638  3671 6312 10648  527 3728 7111  2587 3141 9291  3088 4573 7294  2588 4573 9132  1461 4678 6064  2208 7712 9683  1295 8998 9607  2590 5827 6559  250 4461 9706  2591 7020 9098  5272 5406 7429  2592 9103 9104  2593 7238 8888  4504 7238 8888  1108 6421 6622  738 5965 8422  3769 8812 9698  1320 4837 6268  4798 8731 10222  2309 4951 7243  889 5571 5726  5450 5755 9498  2598 7286 9543  1413 4468 4860  468 9477 10657  2599 5098 9827  2600 4159 4160  2600 8133 9634  2601 6551 6552  2601 8188 10299  1616 4920 7476  2602 5299 6692  2603 5450 5755  2597 5755 9498  2203 4421 6550  530 4086 5805  2913 3682 10432  1932 6457 9479  2606 5933 8025  467 3885 7937  1581 4054 7835  1361 4671 9756  1421 4889 4890  2608 4889 9645  1871 3386 4269  4269 5015 6719  1078 3387 6538  912 3386 4269  2611 9678 9803  2676 4507 4650  1272 3384 4930  897 4141 6131  1532 4266 8068  935 5547 9615  2614 4787 6955  2613 6955 8909  2615 5551 5552  2615 7407 9615  1564 3704 8183  2616 8204 8206  2617 4397 9264  3671 9263 9264  2553 3582 8209  5040 5617 10026  2619 4503 4859  2619 7087 9406  2109 6973 8235  2620 3622 9779  2163 3015 6138  2621 9687 9688  2307 4242 4806  2307 4968 10044  1409 3073 4438  1825 4590 6518  3739 7265 9581  2624 3739 9581  2272 6349 7782  2625 8138 8139  3505 5752 10729  991 7539 9545  3507 5348 10446  2779 8022 8313  5518 9814 9815  1324 3290 6825  2629 6597 9266  2294 3969 5750  2630 9437 9438  2768 4041 5467  3777 6763 9269  2631 2919 9271  1679 5848 8950  2632 9787 9788  2633 5070 9653  2633 5566 5738  1730 4182 6394  960 3282 4182  4724 6809 9625  1370 4724 10444  410 3334 4882  2636 4881 8708  922 3445 7889  922 3058 5555  1271 6376 8553  127 5069 9568  2639 4909 9821  1444 5083 5573  2640 5362 5363  2640 8928 8929  2248 3847 6146  3847 6146 9508  451 6691 9052  2642 5186 9695  2140 3809 7270  3809 8114 10631  3468 7260 8302  2908 10326 10327  2324 3886 8018  519 4640 7848  2646 7024 9744  1486 3796 7024  6220 6891 9575  2647 4095 9574  2648 4081 9107  2648 4081 8156  2649 4623 4624  2649 4624 9828  2252 4935 8128  2252 3782 8241  2651 3441 8772  2157 4030 4848  2652 4492 6363  2255 6779 9386  1566 3052 5987  4257 4875 9252  2654 6497 9106  2654 4595 9105  2655 5389 6191  2655 4046 5389  2656 9049 9050  3499 8953 8954  2957 7520 10451  901 5523 6844  2658 8859 8860  1945 3779 7079  522 5976 7144  4561 9832 9872  1766 6063 9934  968 4764 10022  1235 4915 9583  711 5309 6270  3796 5736 7024  2833 5234 5236  1485 3711 6608  2663 3495 9932  1298 3036 4338  2664 5573 9908  4225 5240 8976  2666 5907 9831  2666 5216 9830  1299 3036 4959  1591 5544 9845  624 5466 5542  2668 4431 9802  898 5515 5541  2669 5516 9748  2669 5319 5516  2691 5544 5665  909 5540 9768  2671 5541 5545  2671 4830 9844  1752 5959 6274  941 5509 6273  1895 3683 4681  3683 4681 6475  2674 7277 7955  1186 3395 5368  421 7490 8736  1028 6317 6911  1347 4507 9678  2676 4507 9791  1304 7629 9907  815 5172 6069  1484 4474 7666  1660 4747 5484  3824 5138 9467  122 9467 10795  4106 9621 9971  676 7211 9272  4561 8970 10086  1055 6403 8079  1251 3838 5346  5524 9691 9769  920 9691 9769  358 7781 10034  1695 4627 5354  2684 4627 9714  1026 7105 8785  1026 3430 6285  2454 6898 9875  1394 4642 9579  2116 5116 8791  2687 5116 10000  2550 4223 8875  2688 4664 8448  898 5515 10048  2689 6783 10050  736 6658 9303  2690 3995 5699  1757 6129 6130  1591 5544 5665  2692 3286 6082  1263 7202 9878  2700 8299 9613  1616 4920 5570  2260 6942 7349  2694 5276 8599  2219 3400 5270  2219 5270 6144  4991 5079 8551  2696 5387 9865  2697 10072 10073  911 5387 6374  1243 7049 10085  1022 7346 9571  3644 6797 9863  2699 5247 9658  5000 5455 8295  916 4570 6498  1415 4399 6751  2701 4749 10014  2700 5000 5455  2702 6751 9496  1332 4986 8118  844 7879 8117  432 5437 8179  432 4032 4647  1755 6070 6216  2705 5326 9573  2968 6275 7033  4092 10138 10139  4402 10142 10143  1747 4485 6128  1413 4503 4859  589 4860 7381  970 4328 6213  2709 6213 9424  1483 3293 9675  2710 9675 9676  2711 7934 8264  661 6022 6196  1841 5808 9973  698 3041 5808  1842 5408 10370  994 4904 6264  2714 9915 9916  926 5928 5929  3250 8578 9806  2715 5616 8571  917 5847 6896  2716 10192 10193  1679 5846 6181  2717 5847 6896  1679 5847 9893  2718 7323 9979  478 4292 4608  2719 4911 10037  312 8729 8730  2720 4081 8729  590 4482 8702  2721 4564 10186  3533 5119 8623  811 4212 5884  1644 3892 4790  592 4300 7694  2724 5600 5914  2724 7308 7961  2725 7907 8937  2725 3648 5753  1084 3015 4011  6733 7907 8937  2727 9924 9987  564 4266 8068  2728 4691 4692  2728 10130 10131  3331 5430 9867  2729 5430 9869  1150 4626 10361  928 6140 7094  2396 5427 7857  2396 3996 5427  2322 4985 5998  2732 4985 5998  2578 4083 4556  1242 4083 8830  1600 4584 4585  1521 4780 5351  3563 4943 7532  2735 4781 9273  2971 5962 10457  2736 4651 8528  360 6292 9680  919 4861 10011  2738 6842 8379  2738 5460 6842  2739 4180 7256  2279 6901 8861  1284 3773 3776  2740 4406 10024  1284 4091 7169  597 4696 10711  713 3829 5811  1826 4475 5693  793 4738 7825  1389 3469 5424  764 4478 9777  2744 4256 9778  1175 9534 10582  2745 9534 9759  4652 8222 8540  2746 4652 8222  4014 7367 7770  2747 5461 8423  3206 9991 10105  5994 10106 10123  573 9136 9849  573 4340 10738  2750 6917 9239  1731 4200 10083  509 4498 6026  2752 8238 8529  943 3667 9175  3667 5212 9173  2753 3667 9175  2187 4682 9193  2754 7668 8044  2755 4063 9822  772 4062 7905  1418 3484 9329  1231 9404 10197  2757 4393 10195  4290 6066 8332  2759 4290 6904  964 2892 4535  3515 6685 9294  2760 6279 10122  2760 5199 9118  203 3071 5578  203 3071 5834  1155 3459 5376  2762 4210 10268  2763 10372 10373  2763 6604 10372  2764 6993 8758  2764 4789 6024  2765 5256 10346  1450 5256 10346  1256 5241 10218  2766 5127 10217  1216 3943 5671  4108 7785 10249  2768 8788 10190  2768 4041 10190  3388 5141 8749  1077 8147 9593  2770 6215 6216  2770 5555 10053  2771 9075 9133  3503 5783 6097  2772 5843 6879  797 4966 6025  1683 4637 8414  2773 4637 9523  2774 5956 9225  2774 5954 5956  1135 5530 8926  2775 8926 10056  1359 5005 10344  2776 10342 10343  2778 5273 9491  1042 4164 6852  4164 4797 9325  2853 4164 6852  579 5276 8599  2779 5276 8638  2780 8280 10339  1770 4237 6553  1603 3535 8381  3535 8381 10429  2782 4593 7953  845 4298 9139  1169 5067 8090  3251 4933 6117  2928 9286 9287  2784 9248 9286  851 5245 7983  1131 7531 10256  2786 6761 9204  2319 4208 7963  1128 7503 8808  2229 5732 7825  2788 8901 8902  2789 6199 6200  2789 3760 8822  2790 6309 6756  1491 4285 4286  2791 5758 9413  2791 4226 7066  1253 4012 7887  2792 5064 10232  1356 3976 5384  1269 8468 10313  2794 10311 10312  400 7174 8625  959 3397 10694  2796 4232 9726  1037 3047 5816  1794 5683 10469  2797 3556 8211  1500 4759 5254  883 7972 8670  1674 2905 5916  2984 6996 7839  2800 6233 8229  2800 10515 10517  2801 4936 4937  2801 6278 10458  2802 4331 5042  2747 5461 6663  523 7684 10038  1089 6277 7036  1278 8505 10538  2804 10539 10540  1224 10044 10384  2805 6772 10385  1935 6838 6839  1029 9606 10121  3196 7655 7913  4271 8268 9837  2808 8268 9837  2808 9431 10205  1200 5454 8831  2809 3746 9847  3020 5782 10041  3020 10041 10120  270 8714 8945  2812 8712 8713  1229 3898 10719  2812 5075 8945  568 5611 10209  2813 4808 10207  1475 3658 4838  1475 3879 6877  2815 4094 8303  2138 3155 4094  810 3232 4821  1317 3230 4446  2817 4494 10419  585 4494 8894  3947 6590 9557  2818 8918 9557  1814 2935 5591  2819 8663 9521  1712 5456 5457  2820 5238 10587  2179 6728 7886  1456 5068 6728  1466 4597 5861  2499 7091 7485  981 7243 9485  4537 8016 10298  4260 8354 9405  1153 3727 8010  1443 4603 7269  2825 6637 7982  1604 4347 5434  2826 5434 6637  2040 6111 7386  2827 10140 10141  3908 6521 10257  5892 6521 10257  1175 4355 10582  1339 3390 10611  5340 5845 10015  2830 5340 10016  2831 4948 8839  601 3368 7550  4324 6209 9298  1463 3372 4632  610 5235 5615  610 6608 10649  1944 3855 7017  1514 5203 10658  1878 6713 6714  2835 5590 10036  1878 6712 9995  1878 3764 7203  1966 5668 9391  2837 5131 9685  2838 7049 9234  2838 7049 10085  4186 8695 9705  4559 5910 10641  1684 5761 5762  647 4857 5751  2969 4613 8270  2969 4613 7659  1768 5198 6743  2983 5999 6247  2843 6836 7656  1236 3116 5474  3315 6237 9558  2844 9559 10746  2845 10282 10283  2845 9542 10282  1136 6526 9236  2846 9236 10110  2451 5287 8994  2847 4872 8131  2848 4405 9129  2848 4828 9664  3409 3410 7112  570 3410 5653  1440 4133 4666  2850 4133 4666  2852 6876 9996  2852 6367 7808  2279 5754 6899  2853 4164 9325  2854 8828 10411  1338 4504 7238  2822 5081 5425  428 5081 5425  1560 3406 6005  931 4501 4690  2857 5991 10359  3929 5991 9862  2858 6558 10082  2884 4470 10043  2082 3303 6406  2859 4896 9640  2860 4439 8481  1432 4795 7146  2798 4648 7452  2861 6003 9538  2862 4050 9004  4050 7439 9004  2863 8333 9517  1393 4803 9517  2864 4132 7702  457 5662 7423  1675 3310 5942  2865 8919 10885  2866 5881 5882  2866 4926 10901  1448 4723 9069  905 5370 5763  2425 4096 5245  2868 5647 8246  2869 6405 10597  3835 4649 10002  1983 7097 9445  2870 4381 10004  1580 3961 6900  4048 7570 7898  502 4715 6543  2872 7940 10349  2873 4715 9954  2872 4715 9954  1861 6291 6292  2874 4158 10654  1002 4652 7293  2875 4845 10692  1489 5193 5884  959 3397 8626  2877 6338 8965  2877 6337 6338  2878 5798 7100  1023 5176 5798  3653 8628 10051  3652 3653 10051  2557 5690 5692  2880 5514 10081  1680 5954 5956  2881 7087 8196  1508 3148 5257  506 2882 5258  2883 6040 6041  395 2883 6041  1399 9456 10043  608 5106 6558  2885 8263 8746  2940 7434 8746  4196 6709 7741  1903 2886 6673  1157 5608 10287  5596 10408 10409  446 5165 10454  2742 3493 4668  1985 5546 6757  4809 7826 9507  2890 10441 10442  442 4871 5721  1622 2892 5729  2891 4365 10316  1622 4368 5730  964 2892 5729  751 4947 5668  751 4836 9866  3029 6579 10551  2894 6956 9921  1104 3399 7198  2895 10153 10154  84 9989 10784  2896 4709 9989  1912 3315 6237  2897 5009 10111  2898 7320 7321  2898 5989 9729  2899 4233 6536  2206 3202 4233  1358 2900 6072  593 6057 6072  3284 5014 10612  2901 7216 10613  2594 3347 5575  3347 5575 6396  2903 7914 9592  1108 3474 7917  2238 4284 8325  2904 5688 7336  1673 3146 5550  1673 2905 4326  406 5175 8148  2906 4631 9871  1307 4137 4631  4306 10742 10743  3468 7260 10327  3468 10326 10327  2601 8188 8934  620 5814 10687  5631 7073 10401  2910 5631 9330  2563 4432 7220  2911 9884 9885  2912 6414 6467  698 6467 10679  3298 3734 9707  2913 9707 10431  1373 4691 4692  2297 6636 8484  1582 4117 6979  641 6382 7389  2133 4032 7291  2916 10054 10055  5950 7813 10424  977 2917 5951  961 3782 8249  961 2918 3782  633 2919 6782  633 6782 9780  1995 6388 9271  415 6104 6740  1634 3930 6045  2919 5774 6388  2392 6015 7175  2392 5731 7175  1692 2961 6008  2923 7564 8152  1346 2924 5429  685 4380 7271  1368 2925 8318  4207 4508 8274  1471 5864 5894  983 2979 9785  1172 3790 8654  2927 6748 6804  2087 7255 7307  239 9286 9287  913 4810 7183  2929 10584 10585  3221 6114 9095  3221 9148 9612  2155 6674 7179  591 5089 8653  1543 3774 6532  979 3774 7158  3195 8709 8710  1042 3195 8709  2934 8966 9344  4241 8966 9344  2935 4687 8663  4687 8663 9521  1539 4422 8294  2936 4422 10161  2937 5788 6461  1122 4135 5788  1870 4908 9176  2938 4908 10107  937 5878 8189  2939 6119 6335  2940 8263 8746  2940 6395 8700  1429 3588 4743  2943 5196 10877  1690 5921 5923  966 2942 5921  966 2942 5210  2943 5210 10878  4466 6938 8681  2944 7360 9674  3319 5641 7708  3067 10698 10699  429 4127 9277  1600 4584 9277  794 2947 5341  1510 2947 5341  2195 7460 7461  780 4812 10241  1395 4121 7679  1495 4518 9641  1665 3284 5014  2950 9510 10713  666 2951 5213  666 2951 7028  2952 5271 9739  796 4816 9552  1783 6186 6297  2953 6597 7420  1268 6597 10047  2937 6461 6794  1958 3659 5200  1315 3573 3867  1577 5136 5137  1515 3617 7995  1938 9730 10451  2003 2957 9807  1500 5253 5255  1020 2958 5253  1557 2959 7333  2959 5767 7157  1614 4392 4567  2960 6422 6854  1691 2942 6030  1692 2961 6951  1685 4106 7095  1306 4310 5072  870 2963 6295  599 3477 9490  286 287 2964  1171 3647 4778  782 6862 7390  4502 6546 9169  2126 6275 7033  576 7031 8753  2120 5522 7391  2967 9230 9231  3551 5297 10675  2968 5297 10675  3836 6807 10319  2969 6519 10319  3328 5025 7310  1730 3557 7170  3557 7170 10075  3210 4960 5780  2972 7266 10398  2973 6397 8567  2973 5780 10662  2141 6145 7447  691 5709 7446  2223 7749 7750  520 3822 7751  289 5440 7387  2976 5211 10058  2067 5798 7100  553 5444 10069  2978 8532 10842  1671 3308 5967  505 2979 5968  2980 4646 6028  2980 4134 10240  1579 4963 7572  454 9201 10212  1756 2982 6849  2399 6086 6849  599 2983 8521  2053 5703 9490  1256 2984 7308  2984 6996 7308  1862 6544 9342  702 6293 6544  1845 6021 6593  2986 5589 8946  1369 2987 9045  2987 7004 9045  1624 4346 5373  2988 5373 7295  1146 3638 7517  2989 9473 9474  1297 3572 4357  1764 5650 6259  1940 5523 8580  2991 5523 10603  3521 8267 10683  1181 2992 3311  1410 4530 8952  1596 3111 5476  2931 7186 10647  2994 9224 10531  2995 4108 10472  4108 7785 10472  1052 2996 4657  1425 2996 4657  1661 5412 5785  677 3884 5412  1682 3860 5099  2998 3860 5099  2212 5391 7356  2999 3716 7602  3000 7628 8097  1758 3000 3795  3001 8731 10222  2596 4798 8731  1143 7394 10098  3002 6510 10506  272 3003 9793  272 273 3003  1923 5583 7273  3004 9222 9223  669 4726 8863  1742 3152 4750  2329 6986 8340  2329 3808 6986  1226 3613 5618  211 6813 7802  3008 3539 10666  3008 4293 10666  2438 4880 8704  364 4741 4880  3010 4547 10490  4211 5029 7035  3011 8550 10567  3102 8550 10567  1003 3012 5295  412 3012 4827  1709 4984 7341  3013 5913 7341  4351 6499 9480  605 3014 4731  2726 4011 7636  3015 4011 7636  1265 4111 8429  1550 3016 9037  3187 5686 10542  86 10541 10542  1979 5004 7296  3018 5004 9427  604 9039 10423  1564 3019 9039  3492 4836 9866  3492 8688 9866  3022 6324 6623  400 3021 6322  1447 3801 8271  3022 6623 7762  3023 7300 9323  3024 6687 9829  1381 3024 6687  3025 7380 9546  2694 3025 8599  3046 6777 6850  3096 6142 9158  1228 3027 4031  516 8490 9126  3028 5506 5764  2894 4102 6579  3029 4102 6579  1284 3773 6043  3030 7038 10366  3031 4823 10248  4823 6837 10248  3033 7016 9502  514 7258 7477  1383 4764 4765  783 3103 7673  921 3034 7055  1989 4972 7055  1433 4871 7168  1054 6525 9704  1298 3036 5265  902 3036 5265  2549 7182 9080  3037 8223 8366  1694 4290 6066  1694 4365 5562  523 7130 10038  3039 6149 9881  1583 3481 6316  933 5556 6228  1843 6074 6076  698 3041 6074  3042 9527 9528  3042 6683 6684  1893 6683 6684  707 4852 7991  692 5300 6436  692 6436 8584  3045 6325 10030  354 3337 4372  1894 6778 10375  1894 3046 3437  1037 7643 10747  1037 6266 7643  1281 4023 7615  563 3048 4216  1481 3049 6510  420 6226 6510  1287 8695 9705  3050 4559 10639  3051 10589 10592  1402 4207 5063  1527 3052 5328  672 3854 4527  1141 7457 10102  3053 10100 10101  1342 4264 8896  3054 10101 10102  1613 5679 8389  1613 4392 4567  168 5536 5537  2125 6786 8465  1527 5329 7581  840 4867 5328  3058 5555 10053  1044 8157 10053  787 3059 8175  3059 6036 8175  3060 6415 9136  3060 4362 9849  3061 7130 9943  2803 5076 7130  1336 4125 7178  1336 3062 4125  673 3063 7660  673 3063 5066  3064 7289 10272  2006 7288 7290  998 3065 6297  1695 4627 5252  3066 4800 7258  3066 4800 7133  5146 7355 10642  539 5146 8593  724 3197 9356  781 5379 6999  779 3069 7298  1006 6202 8287  2987 3070 4779  3070 9701 9951  3071 6202 8287  1006 2987 7004  1789 3815 6413  536 5833 7419  1409 3073 6182  947 3073 6182  1367 3855 4316  1367 4316 10216  3075 4770 8903  3075 3859 9327  2411 6706 9811  3077 6706 9458  426 6304 9611  1194 3077 5352  2730 4149 5797  1081 7047 9206  3079 4470 7590  1400 4796 7590  5039 10594 10664  479 5038 6459  3081 6565 9403  829 5720 6565  2405 6908 7991  3082 6908 7991  2486 3258 4879  2486 4274 8316  3085 8970 10086  4561 8970 9832  1587 5593 10617  1587 3086 5822  3087 8943 10510  1133 8743 8943  1334 3285 4988  3285 4988 9293  3360 8146 8147  1076 8301 8749  1077 6649 9437  1077 6649 9593  1430 3091 4734  804 6309 7335  1873 5981 6110  3092 9194 10370  1393 3093 4803  88 4766 6142  4031 9532 10234  3027 4031 10234  3096 6139 10134  1072 6492 10134  2467 6907 7738  847 3097 4276  1501 5102 7623  1501 3098 6727  582 7079 8860  3099 4434 10090  3100 7486 10115  1267 5302 7486  3101 5096 8687  601 3101 8687  1013 3102 5057  1013 3103 5057  783 7478 9588  4554 7478 7480  262 3104 8237  3105 8451 10778  1507 3106 10577  507 3383 6612  1506 5617 10026  1025 3806 8208  2031 3731 4136  3108 4136 9535  3109 5070 5413  1721 3109 5413  1823 6568 10750  4607 6568 10750  2487 5001 9449  1411 3111 5001  3329 8498 8556  3329 8497 8498  1640 3113 4736  4755 6092 6226  788 4228 8159  788 3114 4228  920 5533 9769  3115 6866 7779  4782 5474 10450  1340 4409 5355  3952 7822 10329  1340 3789 5355  1039 3118 4409  1039 3118 5597  1039 3119 5597  1458 3120 4297  664 3120 4297  3676 4525 5518  1323 4428 6758  2026 6704 9556  3122 6704 10734  3123 4268 8218  1873 3172 4268  582 3124 4837  3124 5525 8812  3125 6140 7094  2069 3125 7094  3126 9363 9817  3273 6151 7690  1850 6631 8499  3127 3913 10383  3128 5490 9848  3128 5490 8576  2166 3130 6494  801 3626 7870  1019 3130 4562  435 3130 3992  1252 3662 4562  3130 3992 4562  1160 6616 8335  1160 3132 3977  1385 3133 3601  5171 8116 9428  1450 3134 6847  966 5921 6847  1170 3574 4522  2509 8717 8718  2426 5095 5661  5095 5661 9992  1493 3137 4514  1850 4243 4835  511 5891 8074  2168 4145 8847  3139 6885 7873  1786 4841 5175  3140 5175 7249  1821 6573 6946  864 3141 6573  1646 3478 5640  3807 5640 10116  1509 5139 5140  1509 3143 5197  3144 4555 5400  1618 3144 5400  614 3145 5149  1325 3145 5149  1656 3146 5883  3146 5550 5883  996 7349 10280  1607 5464 6107  957 2882 5486  957 3148 5486  745 3149 7451  1905 4588 5084  1926 6859 6860  3150 6859 10720  2554 6889 8377  1863 3383 6613  3152 4750 9135  3619 8056 9135  925 4881 9388  3153 6108 8421  1579 3154 4745  3867 7718 9782  3155 6810 10633  2137 3156 6810  1951 4451 6473  529 3156 6474  1028 3157 6891  1028 6891 9575  3158 5419 6524  3159 9335 10545  3159 7460 10829  1497 5938 6479  1458 4297 4864  162 3137 3161  2824 5050 10296  3162 5050 10296  2198 5764 7145  590 3163 7910  1464 3164 5003  588 3164 5003  2585 4718 9902  549 5357 9667  824 5605 7795  2451 5243 8995  3167 6293 6544  3167 6544 9342  2674 5420 9693  319 3168 7277  1590 3169 5466  624 3169 5466  1868 4270 7985  1336 4270 7985  3092 5971 10088  730 3171 5971  1417 4721 5563  587 3172 4335  3703 4563 4795  4439 6661 8481  220 7418 9813  3174 9947 9948  3175 5347 9899  1953 3175 9899  1897 5199 6126  408 6833 10191  640 3177 5614  2099 3395 5614  1391 3178 6411  3524 6411 8537  1870 6690 6691  1030 3259 6690  192 8464 10335  1343 3181 6161  838 3181 6161  144 3576 7638  3576 7449 9393  3183 5166 5167  1142 3183 5167  1813 5674 6481  1142 5760 9542  1369 3975 6592  205 3185 4865  2172 4413 9212  1114 5684 7829  3187 5308 9383  1114 5684 9383  737 3188 6154  1572 3490 6154  1648 5838 5839  3440 6517 7003  2336 6545 8641  3190 4209 7755  1091 3191 4479  1641 3995 5639  3192 7021 9312  1088 3192 7021  1889 6790 6792  548 6791 7634  1293 4000 5418  677 3846 6480  2264 7923 7924  3195 8710 8711  614 3196 7913  1341 7655 7913  2019 6450 7343  1556 3197 6586  1129 5303 9494  3292 4245 8851  3199 6910 9071  594 3541 5194  241 3200 9181  1169 3201 5507  1437 3201 5507  593 3240 6585  593 3202 6585  1068 6073 7725  3248 5118 6468  1713 3204 7786  979 4992 7786  2452 6371 8352  392 6371 8352  603 4736 9551  3206 4364 7619  1130 3567 8541  1517 3932 10292  1518 4987 10579  1518 3208 5449  2228 3621 5628  1088 3192 3621  3210 5343 7899  1070 5780 7899  3211 7059 8480  3500 8954 9670  1219 3212 5248  2094 3655 5248  2157 6681 7744  1062 4895 8972  1885 6753 6754  1062 3214 6753  4693 7789 9400  3215 5044 9715  1449 3336 7811  2821 5068 5977  277 278 4555  278 279 3217  615 4984 7341  3218 8180 8649  1958 3659 6982  1958 5952 8876  3219 7527 7583  484 3220 6539  1859 5521 8487  1177 5521 7482  1202 7501 9075  3222 8119 9119  696 5369 6098  1791 4993 9013  1134 3584 8737  2625 8137 8138  1660 5321 6966  1298 3225 5322  3226 6152 10502  1803 6152 10502  1349 3227 4391  3265 4545 8643  3228 7063 7172  2768 5467 7172  452 5029 10491  3545 10380 10381  3230 7670 10434  810 7546 7670  1059 3231 6056  3231 5383 6056  1714 3232 5722  810 5180 7546  417 6368 7653  1676 5743 8470  2910 4947 9330  3234 4947 9330  1850 6356 6631  1850 6420 7746  1692 3236 6951  3236 6766 9112  1047 7576 7828  3237 4155 10214  1391 3524 6411  720 5051 5666  3239 7217 9770  1488 3239 7217  1708 5383 6056  2900 6057 6072  3241 5704 8378  1333 9053 10129  2016 4408 7148  1067 7252 7332  1849 3434 6515  3434 6515 8395  726 3244 6930  726 3370 6930  2613 5289 5547  1532 4815 5289  3936 6189 7575  129 7366 7575  1429 4744 6073  1068 3248 3588  1512 5118 6468  1068 3248 6468  1513 4466 6244  1513 3249 7029  1439 4936 4937  858 3175 5347  1169 5507 10569  3251 4659 8090  3252 5023 8645  5023 6593 8645  401 3253 8515  1361 3597 8515  539 3254 5851  1451 3254 5851  3283 5323 9843  259 260 3255  761 7583 8876  1512 4056 5114  1509 3257 5197  663 3428 10518  1789 6249 6909  3258 6340 6991  1647 5340 5845  1030 5845 10015  234 7241 7242  2456 4167 7771  645 3385 6391  1660 5484 6966  1643 3262 8962  1919 5088 6888  3264 6886 8544  3264 6886 6887  700 6826 6887  1349 4545 5085  606 5085 9305  3266 3783 8069  208 4977 10325  3487 9366 9367  667 6119 6335  2102 7422 7423  3268 9235 10549  3269 6657 8230  674 6012 9440  2002 5062 7181  3270 7180 8376  3937 9717 10893  862 3271 3937  251 5985 6281  2145 3274 7691  510 6151 7690  1646 4900 10080  2145 3274 10548  1559 3275 5627  837 3275 5627  1069 3276 5396  629 3452 5178  3585 5382 8434  1973 3585 5382  2164 4790 7772  2164 6912 8759  254 3279 6914  254 255 3279  3357 6530 9418  586 3280 3357  331 3281 8760  1730 3557 4182  1126 7943 10456  1359 4595 6512  258 259 3283  1664 5739 10612  654 3975 5739  1334 4300 7755  1334 3285 4006  1093 3255 5323  1093 3286 3512  3287 5677 9068  3237 3287 10214  2318 6857 8323  3288 7855 10558  1929 6995 7653  417 5743 6368  1323 3290 8689  890 6825 8689  1599 4277 7088  405 3291 4277  1181 3521 8267  1407 8267 10683  263 3293 6820  263 264 3293  294 295 3294  1360 3294 5893  3295 4775 8382  2114 5057 7281  2574 5580 9321  3296 5580 9321  2118 4033 7484  407 3297 7483  3298 6971 6972  3298 6972 10431  599 2983 6246  4555 5400 9771  3416 8475 9464  1597 4911 10037  1830 3301 6409  2063 4846 5209  1364 4846 5209  1348 10754 10755  891 7554 9495  1526 3304 5605  824 3304 5605  471 3305 5043  1487 3305 5043  2140 3306 8114  504 4845 6915  1715 3483 5821  778 5232 10727  983 2979 6177  1775 3308 9958  455 3309 6431  3309 4708 6431  1656 5881 5882  649 5550 5883  3008 3539 9122  3008 9122 9123  3312 6013 6014  3312 6014 7098  2714 7395 9917  2714 3593 7395  767 3314 7121  3314 6511 7121  2897 3315 5009  985 6560 10112  1295 3316 3615  3316 3615 10423  3317 8855 8856  367 4429 8856  197 3318 8588  3319 5641 9056  1889 6466 6791  1889 3321 6466  2638 5069 10033  1087 3936 7783  1057 3323 6083  3325 6083 7512  3324 6838 6839  632 3324 6839  3325 7376 7378  3325 7378 7512  1852 3527 5404  1852 5404 6023  1885 3327 6755  3214 6922 7874  1901 3328 4461  1539 5280 5281  1094 3329 10128  3330 10754 10756  3888 10754 10755  3331 6296 7069  1196 6132 6296  2218 7725 9411  616 3332 7726  3247 7725 9411  1098 3333 7727  3334 4882 4883  1080 3334 4883  846 5356 7278  846 3335 3896  1603 4289 10509  4289 7516 8579  354 5097 7632  354 3337 4921  1138 3338 9763  3338 4598 9763  1481 3339 6441  932 7182 8650  426 4190 4191  1457 5435 8109  1633 3857 10660  3007 6813 9659  3342 6813 9659  3194 4273 7526  640 3343 4273  1422 3344 7089  1738 3344 7630  740 7240 7664  3708 7143 10476  3346 7886 9850  3597 4054 7626  1977 7103 7194  551 3347 7103  2730 4149 8754  3348 4149 8754  1955 6680 7116  732 7115 10899  3350 6680 7116  1127 3350 6680  2015 3351 7282  3808 7283 8341  1014 3055 6137  1014 3352 6137  1782 3723 7413  703 4946 6206  1616 5571 6692  975 5570 9504  3355 3958 10159  3958 5586 10159  1667 4465 5733  4465 5733 8765  2722 8477 9963  586 3357 6530  633 6280 9269  1635 3930 9780  886 3359 9133  3359 9075 9133  3388 5141 9561  2769 5141 9560  3552 6354 7998  2411 4301 10553  3361 3552 6354  3361 6354 9132  1203 3863 5938  3363 3863 8408  1890 3364 6605  1166 6354 9132  1601 3365 7046  646 3365 7046  1884 3920 7152  1884 6554 7152  165 3367 10838  1350 9832 9872  601 3101 4195  2112 3369 6913  3370 4673 9054  2745 4673 9054  1910 6434 7530  936 3905 6157  2065 4632 8667  476 4632 8667  1872 4685 8195  3955 4534 9227  1084 4011 7907  3413 7773 10508  3081 5720 6565  1639 5358 10196  2022 4942 10492  3376 7765 9631  407 3297 6577  407 3377 6577  4220 6858 10276  3378 9332 10277  1702 4105 6257  944 3891 8848  2578 6668 10693  565 5581 6668  2852 6876 6994  704 3381 5360  1271 3562 6120  1806 5150 5867  1366 5157 7250  3384 8061 9562  368 3384 8061  1468 6391 9981  1078 4688 6720  6059 8770 9738  1078 3387 6059  3387 6059 9738  2610 8770 9738  2644 7260 8302  3388 8301 8749  767 4281 5115  1959 3389 3707  3390 7348 10611  3390 7348 9759  1728 5606 6018  725 3391 6019  423 9684 10587  3675 10271 10708  1641 3393 6557  1091 3393 6557  3394 6476 6774  1371 3394 6774  1553 5368 5988  640 3395 5988  3396 7425 7427  588 3396 7427  1725 5548 5549  2471 3397 8626  507 3398 7443  2058 3398 8288  3399 6303 8801  3399 6303 7198  656 3400 10554  4601 4998 9668  3207 4655 10632  379 3401 4655  3402 7151 9114  374 3796 6749  6638 8335 9818  892 3403 6638  1652 5183 6556  4707 5610 10264  1560 4690 5269  1560 3406 6417  1393 3737 4628  1082 3737 5335  1528 5335 8333  4548 8107 9879  1019 6989 10704  3408 6989 10704  1126 7112 9669  3410 5653 7112  1978 6594 7195  3653 7196 8628  1860 3968 6678  461 3411 6679  1587 3412 5822  645 3261 6300  352 3413 8728  2163 5634 8728  2137 3432 7604  529 3414 7603  3415 7051 7052  1099 3415 7052  135 3416 9465  1132 3417 6962  1132 3419 6962  1834 6094 8299  1834 4748 8051  3419 8399 9613  559 4920 6390  1390 3986 7939  1477 3985 5745  1400 3421 6208  2047 3421 10751  1252 3992 4768  3356 4768 10358  1480 4903 9913  1605 4791 6948  2710 5313 8364  719 3520 4474  2390 5901 7150  1366 5901 7150  1086 3426 6311  1784 3426 7685  2370 8491 8492  433 4063 6952  2370 4061 8491  1086 3428 8492  3429 5961 8248  1188 3429 5961  1302 8124 9302  3430 8124 9302  947 3431 9481  947 3073 4491  2137 6810 7605  2139 3432 9549  826 3461 7866  3433 7749 7750  1849 3434 6193  391 3434 6193  1696 3435 5034  3435 5034 8406  1218 6950 9060  1371 3436 8273  2092 3728 7111  834 3437 7191  2095 5132 8698  1183 3438 5132  836 3439 5120  1496 3439 5120  1648 3440 6517  502 4715 5837  3536 4237 7538  961 4405 5292  3442 6522 7396  3442 6522 6535  3742 7085 10897  1619 3443 4761  3444 6790 6792  1105 3444 6792  922 3445 7909  1502 3445 7909  797 5843 7067  5271 9682 10063  1888 3447 3824  1529 5122 6893  402 4092 10138  1135 3449 7401  1617 5530 8412  986 5270 6144  3672 6486 7361  1314 7474 10371  5246 7474 10371  3452 7761 10124  629 3452 7761  2325 3453 8503  1180 5752 10730  1835 5185 6004  372 4713 5185  1613 4567 6884  554 3455 5679  3456 4700 8479  4700 8479 10109  3457 4238 9451  3705 8105 8392  1434 3458 8605  1054 8204 8605  3459 9243 10890  1965 3599 7053  750 3415 7051  1096 3461 7868  1096 3462 7868  2222 7867 7868  405 3462 7867  1096 3461 4964  1096 3463 4964  371 4722 5574  1830 3301 5820  1583 3465 6566  457 3465 6566  3466 6355 9792  3466 6355 6855  2508 8386 8387  1360 4457 8386  381 3468 8302  1729 5290 6201  456 3525 7966  456 3469 5424  1501 3470 8285  3470 7971 8555  2315 8108 8456  794 3471 8108  2068 3611 7232  1197 3472 7231  2903 7914 9882  2056 3473 10065  3474 10526 10874  1647 3475 7065  451 3475 7065  1716 3476 6169  953 7084 8864  599 3477 8521  1398 3477 8521  658 3944 8724  3274 4900 10080  1626 4981 6963  3758 8319 8793  2967 6664 10405  2967 8677 9230  1583 3481 6382  3481 6382 7389  2076 4365 5562  2076 3482 4915  1578 3483 6705  779 5264 7298  2193 6950 7921  3484 6950 9060  1723 4802 7397  757 4389 6032  1420 4585 7680  1420 3486 6346  1718 6118 9367  3487 6118 9367  3488 4634 9584  542 3488 4634  1897 3489 6833  1071 6126 9118  4084 7471 8780  737 3490 5436  2024 5896 7369  3020 8170 10120  3020 4836 8170  3492 4836 8170  1688 3381 5268  1689 5812 9156  3494 5405 8039  1113 3494 5405  2663 5405 8039  463 3495 9932  1113 3494 6418  1113 3496 4551  4848 7739 8266  1555 4305 5375  2081 6958 7588  1101 8566 9339  3211 5094 8480  3499 5094 8480  602 4583 9050  3500 4583 9050  4291 7947 8067  3501 4291 8067  2100 5372 7410  1857 3502 10278  1202 5783 7501  3557 10075 10456  3504 5348 10446  3507 5348 9545  2626 4549 7539  3507 4549 7539  2067 5361 5444  1427 4843 5361  1179 8752 10729  1179 3507 4549  2177 4151 7645  1117 7208 7644  1789 6249 6340  686 6413 9416  1472 3510 5144  4756 6378 8244  280 3511 8149  280 281 3511  557 3875 8836  2020 7028 8412  359 5579 6075  2518 4444 7804  23 3514 5282  1249 3515 9167  1249 3994 9167  3516 5905 7244  940 3516 7244  1891 6144 9018  612 5489 6721  1832 5831 6939  687 3518 6939  2189 7544 7545  3519 6615 7977  1484 3520 4474  1483 4035 4374  1577 3762 8126  1181 3521 3762  956 5326 6765  1546 4439 9700  693 5150 6401  1807 3523 7601  1047 3238 6502  1047 3524 6502  2827 3525 4876  456 3525 4876  1991 5824 10619  3526 5209 8716  607 4413 9212  1852 3527 5737  934 4520 7950  2305 5611 6970  652 3529 10638  3648 8607 8938  2822 5675 10628  1124 3591 8426  1749 4324 6209  1124 3531 6210  1059 3532 7445  4841 5175 7249  3021 3533 4135  400 3021 3533  617 5676 8869  1258 7626 8868  2781 5559 10415  3216 8102 10509  1442 4828 6985  97 3841 6176  1249 3538 6165  1249 3515 4535  3539 7131 9858  1993 5205 9858  576 3540 9493  576 3540 8122  2018 5194 10610  1384 5194 10610  3542 5950 7001  2160 3542 7001  1654 4009 5885  495 3760 6934  1853 4074 6203  489 5881 9436  3545 10381 10382  2013 6822 6823  3546 4885 7611  659 3546 4885  2274 3851 7814  1118 6667 8320  2274 3548 8320  625 4437 6931  687 3549 9247  1606 3631 4194  1502 3550 8157  1044 7845 8157  3551 7663 10675  402 3448 7663  3552 6713 6714  3552 6714 7998  2466 9066 9067  660 3553 9066  1606 5433 6214  1809 3554 8524  626 8215 9240  1302 6465 7327  1795 4929 7394  4929 7394 8211  3282 4182 7943  3557 4182 7943  870 3558 7740  3475 6205 7740  1659 4350 7896  1061 3913 10383  3560 6997 8951  918 7687 8951  1792 6098 8236  1177 7482 9095  125 3382 3562  638 3563 7609  3563 4944 7609  2495 6911 7490  4849 6175 9618  5080 8043 8050  836 7668 8044  1427 3813 3902  630 3714 3813  1130 3569 4073  699 4213 4454  1773 5919 9392  1130 3569 4672  429 4584 4679  429 4679 7944  2005 7292 8832  5754 6899 8755  2543 7519 9533  882 3571 7519  3335 6265 6665  503 4888 6265  1958 2955 8098  2955 5818 7548  2178 5529 9702  2178 3574 4522  3575 4923 9860  1284 3575 4923  2314 5113 7449  2314 7449 10443  154 3577 5825  1253 5064 10232  3578 7987 10891  188 3579 9624  1700 3580 5928  657 5930 6780  3581 8435 9790  1352 8046 8435  3107 5695 6437  1506 3827 5695  1762 3583 6788  540 3644 5247  3584 4815 8737  769 3584 4815  541 3585 5458  2460 3717 5458  1403 8425 10224  1721 3372 9446  5356 7278 10481  42 3587 7280  1429 3588 6073  3247 4744 6073  552 8581 8783  3589 10595 10596  1748 3590 6520  3590 6520 7945  1124 3591 6127  1611 3591 6127  3717 6880 7928  1206 3592 7927  1687 4995 5871  3312 6013 10350  1920 6694 6695  3594 6694 9596  2210 7880 7881  1208 6695 7880  859 7674 9191  1547 4483 5333  3346 7886 8519  3346 6814 7959  3294 5893 8583  295 296 3598  1099 7052 9549  1965 7051 7052  3600 4448 5817  487 3600 5817  286 2964 3601  1385 2964 3601  2431 4572 9110  608 3602 4572  2960 4849 6175  1614 4849 9618  2415 8833 8835  862 3604 8833  2458 6197 8255  560 3605 8594  3846 6480 8692  1293 3846 5775  3607 5334 10328  182 3607 5334  1735 3608 10145  513 5868 10071  1595 4436 5441  1615 3056 5535  620 3611 7232  1443 5813 8188  1765 4551 6321  4785 5865 7173  556 5501 9512  556 5711 9412  1866 3613 8936  731 3614 6242  1564 3615 9039  3615 9039 10423  422 3616 6639  1604 3616 6639  3617 5992 7734  1178 3617 5992  1178 3617 5800  1178 3618 5800  3619 4750 9135  669 3619 4750  684 3620 6377  1625 3620 6377  3209 5628 7340  3621 5628 7340  5634 5974 9011  3622 5315 10530  2496 5636 9086  425 5045 6352  1658 5229 9284  544 3624 5872  3625 4990 8974  2459 3791 4990  3626 7870 7871  1269 3626 7871  497 3630 9424  3627 5453 10078  1157 3628 5608  4116 5608 10287  1668 5395 6745  1157 3629 5899  3630 4534 9227  1799 3955 4534  832 3210 5343  832 3631 4441  3135 7097 10352  3135 7239 10351  512 3633 7744  3633 6681 7744  373 3634 6737  2616 8206 10077  1425 3635 4218  2535 3635 10465  1526 3636 6079  860 3636 6079  2209 3637 8678  2209 5190 8678  480 5478 8533  480 3638 4490  1655 5879 5880  1200 3746 6812  2093 3907 5454  3640 5454 9609  781 3641 8790  1556 8775 8790  28 3642 3722  1423 3642 3722  1454 3909 6630  1209 3643 5033  1892 4022 6797  540 3644 6798  3645 3932 8872  1517 3645 3932  1858 3646 7613  3090 6232 10732  3647 4778 10396  4253 7233 8607  1490 4253 7233  1950 2927 6805  1942 3649 8726  1858 3650 6649  720 3772 7118  2660 4785 5865  3651 9536 10734  3652 7246 8826  995 3652 8826  1184 3653 7883  1184 3654 6342  1913 6699 6701  1184 3654 6699  2095 5132 5984  1219 3655 7415  3656 5439 9712  580 9408 9712  1258 8868 9202  896 7485 7973  124 3382 10740  1475 3658 8907  1035 3659 7667  1563 3659 7667  59 3660 10797  726 3661 8611  1699 4673 9760  3662 9352 9353  1252 3662 9352  2529 5604 8624  1797 3663 4532  2304 3664 4851  1881 5111 10330  3665 5214 9594  653 3666 6787  1632 3666 6787  1576 3667 4200  943 3667 4200  1705 3668 3835  2090 3669 7534  1217 7535 9661  2586 7535 9661  1309 4388 9696  635 4397 9264  1217 3671 9263  2362 5445 8942  1565 3870 5488  1071 3489 3673  1931 6897 6898  2806 9604 9605  1161 6472 9604  3675 6722 10708  423 8058 10271  623 3676 6365  1589 3676 6365  1598 5633 9078  1191 3678 5423  634 5809 7624  634 5447 7979  1612 5586 10140  1612 4876 5481  1733 3680 8813  1733 4101 8813  2027 4185 7989  3681 5936 10433  2605 5044 8053  362 6457 9401  1307 4631 9871  406 6475 9870  1259 6261 6929  1259 3684 6929  1822 3685 7885  1814 3810 8636  443 3686 7929  443 4334 7162  1154 3735 8194  1932 6457 10432  3688 4247 8293  2152 3689 7787  571 7789 9400  1416 4570 4748  1144 3691 7568  5129 9145 9226  1144 4013 9077  2078 5123 7503  814 3692 7502  2257 4885 7611  1164 3856 8066  3694 5841 6254  3694 8024 10604  1546 5327 6537  75 6537 9740  754 3696 6034  1452 3696 6034  709 3697 5479  2678 5397 5479  2594 8422 8437  2594 5965 8422  3699 7193 7194  3699 7382 8123  963 8355 9461  1922 5996 7742  2464 6448 9358  4138 9657 9767  2322 5998 9786  1168 6858 10276  1432 4563 4795  1564 3019 8504  1564 3704 8504  2337 3705 8392  1162 3706 8394  2337 8393 8394  3706 5705 9131  1959 3707 9168  3707 8500 8501  2110 3708 7664  1198 3551 7662  414 3709 9261  3709 6603 7455  2050 6603 7455  717 3749 7454  1470 3794 4622  1470 3794 4234  1368 3712 8318  486 3712 8318  651 3713 8323  1491 4286 6756  1469 3813 4843  1469 3714 3813  2243 5398 8141  729 4202 6799  2505 5232 10727  1145 3716 9150  2185 6880 7928  541 3717 6880  1706 5781 5782  1207 3718 5781  243 3719 4967  1537 3719 4967  1881 3340 6304  1822 3720 8682  1147 3721 8597  3921 8597 8682  1423 3722 8083  1423 4377 8083  946 3723 7413  1756 6086 6849  1975 6658 10303  3724 6658 10303  2975 3725 6710  520 2975 3725  2688 4664 5975  1220 3726 8449  3163 3727 8010  590 3163 3727  2092 7110 7111  2281 6100 9317  2095 5279 7415  3729 6594 8955  1577 3730 5626  675 3730 5626  2389 3926 5071  3926 5071 8348  3732 6315 8397  724 3732 6315  7011 8885 9696  688 3669 7534  1934 5860 6229  1934 6229 7311  1154 3734 5860  1154 3735 5860  2549 9080 9081  2032 3736 4202  3737 4628 8063  3406 4628 8063  2558 4264 7324  2203 5031 8438  1996 4177 6927  2247 3739 5803  3740 9071 9964  3740 6910 9071  161 3137 3741  1493 3137 3741  1817 3742 10897  485 7085 10897  1815 4471 8819  4471 8819 9117  2911 7220 9884  1215 3744 9885  1371 3436 5937  1371 3745 5937  3746 6427 8983  3746 6427 9847  1151 3747 5844  3747 5842 5844  248 3748 10849  2050 7453 7454  1152 3749 7453  2073 7566 7567  571 3750 7566  1292 4614 5694  3751 4833 10052  2303 3904 7515  3904 7515 9094  3753 4356 8576  3128 4356 8576  1782 3353 6206  1782 3786 5854  650 5852 5853  1462 4418 4420  1745 3756 10555  1745 4817 10555  1490 3757 10557  1580 3961 4253  185 8262 8319  3758 6224 8428  3759 5581 6963  565 3759 5581  1801 6196 6445  495 4080 6446  2240 3761 7030  1577 3730 3762  3730 3762 5829  2736 9890 10010  550 3763 9890  3764 4598 8781  681 3764 8781  3765 9564 9565  755 8087 9565  1510 3849 7083  1970 3766 7010  2019 7343 7895  724 3767 7343  2720 4940 6998  3768 4940 6998  876 6470 9417  876 4044 5835  2460 8722 8724  1205 5458 8723  4156 7921 9224  591 3771 7920  1391 3772 7118  1391 3524 6502  3773 3776 7038  3776 7038 10366  2932 5291 6532  1543 5291 6532  2025 4125 7178  745 3775 7176  1284 3776 7169  2740 4091 7169  3777 6280 7903  3358 5828 6280  2367 7429 7430  1448 3778 8517  3779 8859 8860  1161 8462 8859  2956 7995 9187  2956 5626 6642  1311 2933 3781  37 2933 3781  3782 7906 8129  3782 7906 8249  731 3783 3949  3783 3949 10425  1355 4487 6906  597 3575 9860  1408 3785 6867  414 3785 6867  3754 5854 9886  3786 5854 9886  1736 3787 7284  728 3787 7284  716 3788 7382  1956 3788 7382  1571 4437 6629  4437 6629 9710  3790 6696 8654  431 3790 6696  3791 5102 6727  833 3791 5102  721 3792 6286  721 4288 6757  2436 6346 6627  648 6346 6627  610 3711 4234  610 3794 4234  3466 4404 7039  387 3795 7039  374 5314 9246  374 3796 5314  1678 3797 6688  940 3797 6688  1428 3322 3798  53 3322 3798  3749 7453 7454  414 3709 6603  1211 7594 10324  2070 3768 7234  1268 6597 9266  732 3801 9265  690 4185 6488  690 3802 6488  2465 4580 8796  2465 7580 9775  2132 5659 8548  543 7557 9081  3805 8311 10572  1466 4597 8908  1863 3806 8192  1025 3106 6611  2481 4181 5664  3807 5664 10426  989 8904 9344  989 3808 5330  2140 3809 8114  504 7617 10631  501 3810 8636  1787 6385 8806  1304 3811 7629  3811 6093 7629  3812 5160 8030  1304 3812 8030  3566 3902 10137  3813 3902 10137  734 3814 7230  1710 3814 7230  1789 3815 6909  1012 3815 6909  1355 3816 7206  1355 4488 7206  3817 7504 7840  636 3817 7504  2135 4161 7794  549 3818 7796  3819 6472 9604  3819 9604 9606  2104 5867 9774  1015 3820 4662  223 3821 10194  2062 3822 5816  520 5585 8017  1667 4122 4221  4122 4221 10114  121 3447 3824  747 3825 5237  1828 6527 10092  1965 5320 7053  1238 3826 5320  613 3107 5695  613 3827 5695  1401 4813 7142  389 4476 7930  1936 6017 10714  713 4475 4737  1704 3830 6675  1930 3830 7363  1187 3831 7767  411 3831 7891  660 4462 5980  660 5980 8838  1833 3833 6277  1089 3833 6277  1563 3834 5964  828 3834 5964  21 3835 10794  2036 6519 10020  2036 3836 6806  720 3650 5051  1623 3837 5666  2682 4113 5346  1251 4113 5346  3651 6704 9556  776 3919 5432  2208 7711 7712  857 4144 7711  3537 3841 9376  1182 3537 3841  2250 7468 7469  1182 3842 7468  733 3843 3844  1503 3843 3844  3895 5538 9368  1728 4442 9414  3845 8296 10321  831 3845 8296  677 3194 3846  1293 3194 3846  3847 5768 6926  2248 3847 6926  268 6163 8585  268 269 3848  665 7083 10211  1328 4385 5006  3850 7536 7829  2172 3850 7829  3851 8458 9157  752 5494 6222  3852 8344 8345  1199 7791 8345  3854 8347 8978  5093 8347 8978  1199 5329 7791  3854 4527 9454  1994 4899 9883  739 3855 4316  1961 3275 6168  1164 6806 10604  14 3857 10780  2437 6983 8984  578 3858 6983  2380 3859 8769  2380 4633 8769  323 3860 9960  323 324 3860  3740 6495 8992  3740 8992 9318  3862 8026 8028  712 3862 8028  2835 6712 9995  1203 3863 8786  1883 3864 6835  1883 3864 7259  1851 4120 5502  1851 3865 7342  2001 3866 8276  2001 3905 8276  3249 3867 6941  1315 3249 3867  3868 5041 7029  616 3868 5041  2584 4304 9347  3869 8665 10793  1565 3672 3870  490 3672 3870  4543 8308 8309  2625 6349 8140  26 7625 10661  2083 3873 6109  765 4497 9037  1943 6819 7202  772 3874 6819  3286 3875 8836  1263 3286 3875  796 3876 6666  796 4816 9739  1286 8603 10601  969 4621 8870  1815 4037 5487  3500 9049 9050  3879 5311 8932  612 3879 5311  2624 5377 5595  1535 5377 5595  2514 3938 6965  2514 7595 7765  1477 3881 3882  1477 3882 3985  1638 3229 8647  1638 3883 8647  1201 3885 5786  1201 5786 8956  467 5625 5787  467 3885 5787  2324 6153 8019  1201 3886 8018  2724 6996 7308  584 3887 7961  2668 8562 9802  3888 8562 10756  2984 3889 7817  1256 2984 3889  1187 7541 7767  2174 3890 7541  944 3891 9369  1875 7192 9200  2413 8514 8850  1644 3892 8513  1372 3893 8965  2877 6993 8965  3894 6746 7259  3894 6746 10258  1763 4611 5538  725 4610 4611  1297 2990 3896  1998 2990 3896  1621 4308 5723  4325 5495 8409  1229 3898 8918  3947 8918 9557  1210 3899 8350  1210 4804 8474  1670 4804 5958  4279 7358 9725  3901 6429 9155  449 3901 6429  1180 3506 3902  1427 3506 3902  719 3903 9147  1520 5337 9147  2303 3904 6241  2085 4762 9570  1554 6936 10219  1554 3905 6157  1986 6423 9331  580 6944 9408  1627 3907 4378  639 3907 4378  4816 7464 9552  1212 3908 7464  835 5073 8340  835 3909 6630  3858 3910 6105  745 3910 6105  300 3911 9204  300 301 3911  95 3912 6574  1061 3913 9395  1659 3913 9395  1301 7925 8293  1301 3914 4801  1093 3915 8958  1617 3915 8958  1375 4225 5240  3916 4225 8976  5190 6136 10882  2227 7860 7861  771 3918 7860  3919 4712 8254  776 3919 4712  1701 3967 5609  657 3920 5927  1822 3921 8682  1147 8597 8682  2417 7247 9338  1204 4169 8906  729 3715 6992  729 3923 6992  3179 6267 10606  1030 3179 3924  526 3498 6958  526 3925 6958  563 3926 7724  3926 7099 7724  3927 7185 10473  3927 7185 8837  2248 6146 6656  1372 5768 6926  9 3929 7698  3930 6782 9780  1634 3930 6782  2081 5036 7589  1214 3925 7588  1516 3780 3932  4868 9074 10292  2582 3933 5986  1786 3933 8960  1617 3512 3934  557 3512 3934  2571 8655 9647  667 3935 8655  1736 3936 7783  2211 6618 7528  862 3937 8640  1769 4587 5858  1769 6967 8200  458 6683 8089  1873 3172 6110  1844 6414 6467  1844 4080 8639  10 3941 8506  2402 4867 10591  2767 3942 10250  2767 3942 5683  1720 5371 8957  671 5070 5413  658 3944 8096  1810 3944 8096  1024 5496 10659  2148 4639 7364  2217 4975 9233  806 3946 7352  1229 3947 8918  1883 6746 7259  1800 4480 5512  1499 4685 6080  1776 3949 3950  1322 3949 3950  1902 5947 7421  1322 3950 7421  2440 7354 9608  2075 4711 6735  3117 7318 10329  1340 4409 7318  3953 9455 9648  2130 4310 4989  2224 4702 8720  1751 6267 10606  1294 3373 3955  714 3373 3955  1002 6415 8573  2330 3956 7293  2043 4460 10213  306 307 3957  2386 4661 8805  1612 5770 9898  1777 3959 6818  598 3959 6818  3960 7424 8155  1043 4638 6576  652 3961 10638  1436 6900 10638  376 3350 7116  376 3962 5939  2350 7799 7800  2450 3963 10716  309 3964 8693  309 310 3964  1541 6989 9947  1541 3965 5110  524 4480 5512  892 3966 7862  3920 3967 5927  1246 3920 3967  1119 3411 7383  1119 3968 7383  1268 3969 9199  2954 4680 9199  3970 7135 7136  3970 7136 9160  2654 5301 6497  2654 3971 5301  1217 3670 6357  3670 6357 8400  1746 5485 6657  674 3973 6657  1766 3974 6062  2147 7458 8676  1369 2987 5740  1369 3975 5740  1296 9948 10703  1296 5384 6447  3132 3977 5543  1757 5665 9525  1658 3978 8804  3978 8514 8850  1024 4948 5496  1540 4948 5496  1692 3980 7090  972 3980 7090  2314 3981 5576  142 3981 7108  3982 6235 8987  424 3982 6235  6932 7354 8461  1152 3750 7567  1869 4227 6462  1390 5696 7938  1390 3985 7938  3044 5696 7938  1477 3420 5745  686 3420 3986  1322 3949 10425  1322 3987 4977  1381 3988 5469  3014 4731 5469  3594 6694 6695  1920 3990 7113  3990 8799 8800  1233 3990 8800  399 3991 9511  2895 6750 7597  3992 4768 10387  3422 4768 10387  2345 6343 6974  586 3280 6343  1249 3538 7006  1249 3994 7006  353 5639 7815  1975 3995 7815  3352 6730 6894  1939 6730 6894  1581 3997 5498  3997 4433 5498  216 3998 10855  1462 3999 5151  1462 4418 4419  4176 5418 9967  321 322 4000  2683 5524 9691  1303 4001 8099  1542 4423 5663  637 4833 4834  1234 4003 10183  2418 6879 7552  1234 4004 10422  1234 3381 5360  1851 4005 7342  1851 5502 6166  3706 8393 8394  2337 3190 4006  758 4007 6596  2094 3655 7373  4008 6560 10112  2348 8617 9968  1654 4009 6980  965 4009 6980  1909 4010 6651  1062 3214 6652  4011 6733 7907  2726 4011 6733  1253 4012 5539  851 4012 10353  2207 3690 4013  1144 3690 4013  336 337 4014  2184 5850 7769  4015 5086 8024  4015 9937 10020  2805 4968 10384  521 5644 6772  4017 8008 10122  4017 7954 9980  705 5107 8444  1610 4018 8444  2097 5965 5966  2097 4019 5133  2138 4020 7593  2197 4020 8817  1864 4199 4866  4021 4866 8080  1892 4826 5983  1121 8258 8259  5 4023 10848  906 4193 7692  906 4024 7692  1348 3303 4025  3303 4025 6406  2175 4026 7122  1255 5838 7123  642 4027 5839  4027 5838 5839  4028 5198 6743  411 4028 5198  2832 10635 10636  680 5790 10437  2780 8280 10338  668 4030 10339  4031 8280 10338  1228 4031 8280  1582 4647 8432  1582 4032 4647  784 6200 7345  2118 4100 8356  350 351 4034  351 5985 6281  4374 7494 8085  4035 4374 8085  1922 3572 5995  2182 5996 7742  1752 4037 6273  1752 4037 7658  3158 8371 9408  780 2948 4038  4032 4039 7291  1254 4039 7291  4040 8455 8456  1270 4040 8456  1077 8147 8538  4041 9437 9438  1778 5888 6561  4042 5888 6561  2661 7992 8592  1235 4044 8522  4044 7732 8522  876 4044 7732  4045 5803 7745  1240 4045 7745  4046 4337 6703  2044 4046 6703  1005 6212 7522  1548 4971 7225  2216 4048 7570  1102 8013 8552  760 4049 8535  1451 4049 8535  216 3998 4050  4051 8621 8969  1283 3519 6615  201 4052 5491  2399 8721 8753  1259 4932 8721  1361 3597 4054  1581 5497 7835  2885 4055 5494  2152 4055 7788  1512 3256 4056  761 3256 4056  1968 4443 6830  4109 6717 8256  474 3853 5093  2655 8878 8879  2477 4609 8472  4059 4609 8472  4060 7816 10735  931 4060 7816  6952 7988 9933  663 4061 8491  2755 7494 9823  1274 7988 9822  4063 6952 7988  4063 7988 9822  782 4064 7299  1839 4064 7299  775 4124 5500  1237 4065 7736  4066 7188 7189  391 4066 7189  1977 7193 7194  1977 4219 8275  314 315 4068  342 7431 8867  4069 9690 9758  561 4070 8398  561 4175 8398  980 2883 4071  2883 4072 8586  2019 4072 7895  4072 7895 8586  1312 3569 4073  1831 4073 4424  1705 3835 4649  769 3584 5482  2537 7428 10237  396 4075 7428  1643 4076 8962  1109 8574 8962  2503 8353 9036  1267 4077 9035  2712 7582 9972  1245 7582 8639  4079 7934 8264  1245 4079 7934  1801 6446 7164  1245 4080 7164  2648 5796 6533  311 4081 9107  1242 4082 7888  1242 3059 6036  565 4083 9064  3059 5717 9064  2077 3334 4084  1080 3334 4084  1828 4085 5655  1056 4823 6527  2604 5805 10880  530 5805 10880  2119 4087 8773  2181 4087 9623  2246 4088 7127  487 4088 7127  2793 8173 10165  1296 4089 9288  2066 7509 7511  899 4090 7510  2741 4923 9860  2741 4923 8761  4092 10079 10139  3448 5122 6893  2929 4614 10583  2929 4093 6741  356 7472 7968  2815 5789 9278  2145 3273 7690  2647 4095 9115  345 6379 7045  345 346 4096  4097 7115 10899  1955 4097 7115  644 5885 7901  4098 4458 9448  1285 4099 7184  2118 4100 7184  1285 4100 6935  1285 4458 6935  140 4101 10835  1659 4102 9920  1659 4102 7896  2046 4839 7975  1493 4839 7975  2323 7935 7936  1685 4104 9621  2680 8075 9970  1257 9621 9971  2680 8075 9971  904 5698 8075  952 4107 5857  2146 3742 7086  1711 4108 10471  1711 4108 5339  82 4109 10362  2452 4110 6371  860 4110 8153  3016 8429 10513  4111 8429 10513  2920 6740 9314  1305 8915 9044  1808 5294 6015  1251 3523 4307  1588 5452 8843  2603 5450 10487  2305 5548 5549  934 3528 6970  1703 4116 7211  676 4116 7211  2915 5135 6979  1582 5135 6979  2742 4668 10175  713 5811 10174  2641 4119 8928  1915 4119 10495  1851 4120 6764  988 4120 6764  1550 2949 7406  622 2949 4121  1495 4197 4198  1395 4122 4518  3794 4622 8606  727 4123 8606  775 4065 7491  775 5500 7491  17 7177 9079  2025 4125 7177  1967 5153 10231  614 5153 10231  1542 4834 7370  1542 4127 4423  2400 4128 8843  4128 5452 8843  2196 7036 7684  819 6610 7683  317 4130 8321  2109 4131 7404  975 3354 7344  4132 7424 9113  4132 7424 7702  390 4957 9070  390 4133 4957  2683 8099 9691  2683 7781 10034  1123 3533 4135  2937 4135 10663  2031 4954 10221  749 3108 4136  3302 4137 6676  619 3302 4137  1276 4138 9657  2071 6443 9657  1752 6274 7658  545 4139 5959  4140 6274 7658  1276 4140 6274  2612 9562 9563  1272 3384 9562  2339 6096 8877  2339 8569 8877  2425 4143 7045  857 6303 8801  2208 4144 7711  2390 5901 6671  2168 4145 5901  281 4146 8510  281 282 4146  1431 4147 7876  630 5359 7876  972 3980 8922  972 4148 8922  3078 5797 10067  4149 5797 10067  1465 3081 9403  4347 4348 9982  2077 3334 7470  1329 3490 5436  1909 4152 6650  4010 6651 7306  2295 8027 8028  2295 4153 4741  2763 5246 6604  3237 7828 9453  596 4155 10214  4156 6921 8339  4156 9189 9224  70 6841 9751  2335 7940 7942  1219 3212 7941  2136 5524 7781  1266 4161 7780  2469 4160 8990  877 6320 9827  2136 7779 7780  824 6866 7779  505 2926 6123  1548 4972 8439  4163 8300 10453  1455 4163 8300  2264 4797 4863  1042 3195 7924  1330 5420 5421  855 8921 9819  1862 4166 6870  2021 4166 9256  1468 3084 7057  1468 4167 7057  4168 6362 8997  1956 4168 6362  1204 3923 8064  1204 4169 8064  615 4170 4984  1473 4170 4984  2530 4760 9220  577 4171 8467  1004 4172 9256  1845 5023 6593  2462 4445 10724  588 3396 8920  1275 3177 4174  640 3177 4174  561 3880 5595  2292 4175 8398  320 4176 9724  320 321 4176  439 4177 8590  439 5804 7529  4178 4524 7964  1396 4178 7964  3271 6738 6923  874 5827 6559  2279 4180 5754  2739 4574 9911  4181 7444 8463  2481 4181 10519  2634 5173 6394  1730 5173 6394  1499 4183 4396  462 4183 4396  2569 5677 9068  1376 6577 7980  4185 6488 6489  1287 4185 6489  517 4186 8601  1720 5670 10321  1507 4187 10577  507 4187 10577  2349 5513 9539  1269 4188 8468  4189 7462 8260  3626 7441 8260  426 4191 7061  3340 6304 7061  1458 3120 4191  1457 3120 4191  1931 4192 7952  1071 4192 7952  4193 6276 9188  906 4193 6276  1606 3549 4194  687 3549 4194  601 4195 9476  2681 7126 9832  531 4196 10605  531 5009 10111  2271 6503 9457  434 4197 9457  4122 4518 9641  1495 4198 9641  688 3733 6238  688 4199 6238  2751 8238 8529  943 4200 7700  1197 3472 5784  2474 5176 8111  1273 4202 8142  4202 6799 8142  2395 4203 4807  1104 4203 8367  1274 4204 10235  1761 4204 10235  2561 4205 9351  3662 9353 10705  2482 6095 6351  361 5416 6547  791 3812 5160  4207 5063 10535  2339 4208 5388  893 4142 8569  592 4209 4300  4209 4300 7755  2293 4210 8279  2293 4210 6830  1363 9162 10490  1363 4211 5029  4212 8477 9963  1419 4212 8477  1517 4701 10226  1517 9074 10292  1569 4214 6883  708 4214 6883  3048 4215 4216  1133 3048 4215  563 4216 6670  563 3926 8348  2093 6380 10668  499 4217 5104  1908 3276 4218  629 3276 4218  1976 3434 8395  1237 4066 7188  378 4221 4222  1667 4221 4222  4222 9643 10430  1667 4222 9643  1840 4362 6508  1840 4223 9012  4224 5189 9289  3377 5189 9289  1505 4225 10337  1375 4225 4675  59 3660 4226  1533 6836 7656  1533 4227 4894  1707 4550 6077  2280 4516 8160  3093 8021 9141  4229 8021 8213  2200 4489 6155  2200 3445 7889  1949 5631 7073  1530 5178 7072  1751 3954 6266  3179 3924 10606  2899 5796 9301  2206 7320 7321  1193 3711 8941  3711 4234 8941  1917 4235 5499  2623 4884 5499  1726 3300 6570  1726 4236 6570  4237 8604 8772  3441 8604 8772  538 3457 4238  2338 4606 7682  1474 4239 4855  710 4239 4855  2555 4873 9404  4240 9477 10657  466 6186 6187  4241 7824 9371  419 5688 7336  4637 8414 9523  1060 6356 10265  1060 4243 6356  1988 6353 6742  770 4333 6353  1407 3292 4245  2120 6664 7392  2094 4007 7372  3212 5248 7820  2436 7925 8991  4247 7925 8293  1288 4248 7048  1288 5917 10438  4249 8304 9544  3097 6905 9544  4250 6905 8304  569 4250 8304  4251 5930 6780  1700 4251 5930  811 4212 9963  811 4252 7990  1580 3757 4253  1490 3757 4253  3216 8102 8103  1449 3336 7516  1824 3253 6563  1449 4255 6562  2085 4533 4762  1146 6241 8898  749 4257 4875  1823 4954 10750  2201 6121 9897  785 4258 9897  3577 5155 6185  3162 9405 10296  516 5034 8406  2116 4261 5778  2311 4261 5778  790 4262 8644  1534 4262 8644  4263 5630 9007  146 4263 5630  915 4264 9840  2298 6167 9840  2034 3825 4576  368 7325 10702  2727 9986 9988  1282 9746 9987  719 3903 4267  1558 3903 4267  1033 4268 10678  1873 3939 4856  2609 5350 8727  2609 4269 5015  743 5925 9398  743 4303 4515  4271 6218 9526  1341 4271 6218  2807 6218 9526  418 7513 10460  4174 9554 9980  640 4174 4273  1571 4274 5833  536 4274 5833  2014 6348 8564  864 3141 5091  1288 4276 7048  2467 4276 7048  1299 4341 4906  405 5907 9831  3345 4278 7025  425 6516 7026  1771 4279 9725  643 7358 9725  2431 6208 10394  1277 4280 8735  1959 5115 9168  767 5115 9168  4133 4282 4957  1440 4133 4282  4283 7846 10179  995 4283 10179  1912 5931 5932  694 6237 9558  1491 3713 4285  651 3713 4285  1492 4617 10907  804 4286 10906  651 3757 4287  1580 3757 4287  721 4288 6286  1957 4288 6286  1603 3535 4289  646 3535 4289  1010 3039 8648  1010 4290 6633  2309 4951 7946  153 8067 10832  2276 4292 7117  4292 4608 7117  2120 4245 4293  1407 4245 4293  670 6987 8959  1755 6215 6216  2270 5202 6223  1356 4295 8305  869 4296 6868  3299 6245 6868  1979 4297 4864  1979 4297 8561  1645 4713 8889  1645 4298 4332  3973 4299 7190  674 3973 4299  1644 4300 7694  1334 4988 5802  1167 4301 10027  2411 8581 10553  31 5431 10178  1868 4270 4515  743 4270 4515  3507 7539 9545  2584 4304 5503  2353 4895 7305  4305 4895 7305  1991 7077 10240  1991 4306 5074  1251 4307 8014  1808 4307 8014  2962 6035 9396  1306 4308 9801  2962 9396 9801  904 2962 4309  1306 4308 6632  1306 4310 6632  2473 4311 6099  527 6100 9317  2243 6799 8142  445 8141 10204  1498 4313 4891  1498 4892 9309  805 4314 9781  2289 4903 9781  2165 7441 7463  581 4189 7462  3074 4316 10216  1994 3074 4316  1952 5961 6217  747 4528 6654  4318 6336 10445  1338 4318 6336  2478 4319 7518  803 5366 7555  1847 6283 6647  895 8005 9321  2676 8435 9790  924 6662 10414  1811 5169 5944  1811 3324 5944  2472 4323 6101  1018 4323 8977  680 6209 9298  2484 4324 9298  4310 6632 7919  1621 4325 7919  1326 4326 10050  4326 6783 10050  2149 6702 7513  4327 5520 9456  3630 6213 8939  4328 6213 8939  891 4329 8570  3373 6416 8570  1313 4330 6663  4330 5461 6663  2524 9281 9283  1313 4331 9281  2494 4375 9186  1478 4653 9184  1988 6353 7884  1412 4333 7884  2232 4334 10042  4334 7162 10042  2490 9153 9154  587 9061 9153  1929 6367 6994  3289 6995 10558  2282 8343 10478  1316 5451 9566  3225 4338 8240  1298 3225 4338  1660 5321 5322  1793 3697 10599  1299 3036 7071  1299 4340 7071  405 4277 4341  4277 4341 4906  1619 3443 5286  682 3568 5919  695 6172 7836  1714 4532 5180  2180 4344 7703  822 4506 8330  1416 4345 5687  1416 4748 5687  1624 5374 5682  1624 4346 4453  1480 4348 6329  4348 6329 9982  631 4348 4791  1480 4348 4791  1480 4150 6329  468 4150 4349  1659 4350 9083  404 9009 9083  1551 3220 4351  484 3220 4351  800 4417 7646  2038 6628 9020  467 5934 7937  1702 4353 5934  3632 7239 10315  4354 7239 10315  2345 3371 4355  1339 3993 6974  706 3000 4356  1758 3000 4356  4357 5650 6259  1297 4357 5650  1404 3014 4358  605 3014 4358  1622 5728 7317  627 4359 5730  3752 5392 9603  4360 5392 9603  2072 4361 8177  528 5365 6856  2550 5767 6881  1230 4362 6508  1637 4478 8763  1638 4610 8763  2236 4476 5532  4476 5532 10427  819 5562 6610  1694 5562 6610  1942 4366 8726  2351 5911 9518  2069 4367 7093  1079 8407 8913  4359 4368 5730  1365 4359 4368  438 5281 6103  5324 7743 7775  2143 7632 7633  785 4370 7631  2944 4466 8681  1545 6121 7360  4372 6325 10030  2205 4372 6325  1434 3035 7618  4373 9349 9650  1483 3520 4374  1484 3520 4374  2493 4375 8165  1119 5589 8164  4376 6464 6484  1829 3642 6484  2105 6781 7578  1423 4377 7579  1627 4213 4454  1831 4378 4424  1221 4379 9080  2032 5158 9731  2924 5429 7271  685 5429 7271  2870 4381 10003  4381 5657 10003  4194 4382 8701  687 4194 4382  2103 3730 5829  2103 4383 9381  665 4384 10211  3849 7083 10211  141 4385 8814  1907 4386 7219  518 4386 7219  2866 8460 10902  2866 4926 8460  4962 8919 8985  416 4388 10885  3451 4710 8187  4389 4710 8187  949 4390 7735  2037 4390 7735  399 4391 6827  2372 6750 7597  1613 4392 8389  3455 5679 8389  2469 3818 4393  549 3818 4393  842 5591 7875  2482 6095 10005  1384 4775 9501  1384 3541 5194  2403 7153 9257  462 4396 9257  2617 4397 9378  2617 9263 9264  2701 4398 9228  2702 4398 9228  370 4399 9496  4399 6751 9496  4400 6020 8405  688 4400 6020  2178 4401 6067  2178 4401 5529  2143 7631 7633  1345 3337 4921  2621 4949 9687  583 4403 9688  2331 4652 8540  1318 4404 8539  961 3441 4405  1442 3441 4405  2740 10023 10025  1032 4406 10024  4407 7331 8121  1308 4407 7331  4408 10023 10025  1308 4408 10025  3117 4409 7318  1039 3117 4409  3667 5212 7834  1576 3667 7834  2016 4411 7332  2016 4411 8121  2172 7830 7831  1380 4412 7830  3527 4413 5737  1380 3527 4413  2773 4414 9522  419 8414 9523  909 4542 9924  2669 9746 9747  1329 4416 8900  1329 4417 8900  800 4417 9306  2502 8899 9306  3755 7402 9300  650 5853 7402  650 4419 6789  1676 4419 6789  4333 4540 10418  4420 4540 10418  1511 7607 10680  4537 10298 10680  1539 3329 4422  1094 3329 4422  1312 3569 4423  429 3569 4423  5017 9776 10533  639 3640 5017  2249 7286 9543  3560 7687 8951  506 2882 5638  506 4426 5638  3121 6660 10245  1323 4427 10288  4403 4428 6758  583 4403 4428  3317 4429 7759  3317 4429 8856  867 4470 5520  2356 6829 10148  1674 5600 5914  1326 4431 5915  2168 6034 8847  2168 6034 7375  4433 8425 8427  617 4433 8427  2580 9268 9590  1319 4667 9591  4434 4435 10090  1321 4435 10090  159 4436 10176  2274 6931 8458  1571 6931 8458  1382 4533 4762  1409 4590 4591  1546 3522 4439  956 3522 4439  3790 4440 10669  431 3790 4440  1428 3798 4441  2445 3798 4441  4771 9459 9734  1503 3843 4771  1968 4109 6831  1718 4444 8000  997 4444 8000  2463 4446 9082  855 6158 8094  2463 5700 6759  1317 4446 9082  789 4447 7411  3695 4447 8679  1964 3600 4448  1964 4448 4725  3415 4449 5195  614 4126 5153  656 4450 10554  1712 8212 10554  1945 6268 7027  1945 7027 10536  2285 7531 10256  2285 9109 10690  2047 3421 6587  2047 4453 6587  1831 4454 7043  1831 4073 6112  1224 4455 9635  1997 4455 9635  1971 3786 6903  1971 6903 9238  293 294 8388  294 4457 8388  1654 5886 7951  1654 4458 7951  1557 3726 4459  1220 3726 4459  305 4460 7301  305 306 4460  250 7019 9706  3797 4462 5980  1992 3797 4462  853 4463 9718  4463 9718 9749  2019 4464 9919  2459 4464 10300  678 4122 4465  1667 4122 4465  525 7101 10519  525 4466 6244  1908 4467 6854  421 4467 6854  906 4024 9337  906 4468 9337  2310 4469 7617  2310 5767 7591  4470 9456 10043  4470 5520 9456  1215 3744 4471  3500 8954 10752  929 4472 7525  1573 4472 7525  4473 9974 9975  433 4473 9975  4267 4858 9380  4474 4858 9380  1518 3208 8534  1518 4737 8534  1401 4476 7142  3828 4813 7142  491 2921 4477  1351 5342 6055  2744 9777 10672  1637 4612 7627  1501 4479 9172  1091 4479 9172  2170 5512 8125  524 5512 8125  800 4481 7207  2161 5567 8899  1727 4482 10187  4482 8702 10187  1547 3596 4483  859 3596 4483  2173 7678 8268  1325 3145 7677  2707 4485 6128  2574 7564 8152  301 3911 4487  302 9553 10731  1355 4486 4487  1196 3784 7206  1196 4488 7206  1635 3358 8889  1635 4713 8889  3638 4490 7517  1562 7006 9473  947 4491 9481  1650 5769 9839  818 4492 6363  1856 5906 6626  2492 4986 8118  2492 8894 9838  2817 10420 10421  1331 4494 10419  1543 3774 4927  1543 4495 4927  622 2949 4496  1550 2949 4496  765 4497 9946  2083 4497 9946  1731 6026 7129  1731 5903 7129  4303 5016 9955  4499 5016 9955  1282 4266 7614  1282 4500 7407  1734 8113 8536  1734 4502 9169  1734 4502 8113  782 4502 8113  363 6635 7286  1413 4468 8380  4504 8828 10411  897 7405 8828  4505 7371 7704  558 4505 7704  2180 7371 8330  1347 4505 7371  2233 8054 10414  924 6550 6662  2593 4508 6115  1368 4504 8888  546 3990 8799  2819 9519 9520  764 4510 6707  1337 4510 6707  1337 3546 4511  659 3546 4511  2668 4431 4512  1326 4431 4512  765 4513 4557  765 4557 8600  3137 4514 8034  1026 4514 8034  1868 4515 8923  3857 6620 8923  1707 4302 4516  32 4302 4516  1481 6510 10506  1481 4517 5936  1495 4518 6243  1395 4518 6243  4519 5560 10347  101 10347 10565  1467 4520 9945  1467 4519 5560  2283 7893 9217  2284 7859 10590  1170 4522 10017  1608 9702 10017  1404 4827 9165  1404 4523 6091  479 4178 4524  479 4524 6459  3121 6660 8006  2049 6660 8006  441 4526 9100  1510 7010 7083  672 3052 4527  1527 3052 4527  1952 6654 8853  1410 4528 8853  1596 5475 5476  1410 4529 5475  1410 2993 4530  436 6701 9889  2635 4531 7144  1474 4855 10623  695 4532 7836  4343 6172 7836  2085 4256 4533  764 4256 4533  497 4534 9195  497 3630 4534  1249 4535 6165  2892 4535 6165  1419 5119 8623  400 3533 4536  1511 4537 10680  4421 7607 10680  1557 4459 4538  1975 4459 4538  2854 4539 7805  1338 4504 10411  488 4420 4540  2128 5622 5623  225 6009 8821  1854 4541 6009  1362 8309 9986  1362 4542 9986  2272 8308 8309  748 4543 8308  4544 9986 9988  564 4544 9988  3227 8544 10689  1349 3227 4545  2513 7908 9162  5390 9161 10031  4547 9162 10490  4547 7908 9162  787 8175 9879  4548 9737 10328  553 9138 9487  3505 4549 9138  3063 4550 7661  1424 3063 4550  1765 4785 7161  2375 4551 6321  2733 7807 8166  1343 4552 7807  2579 5056 8167  4553 9061 9153  2114 4554 7478  1073 3295 7479  278 4555 9771  1397 5400 9771  894 7635 9234  2733 8166 8167  4513 4557 8022  1354 4557 8022  1354 4557 8440  1354 4558 8440  831 4559 5910  2839 8296 10321  1350 3368 4560  3368 4560 5417  4561 9873 10086  4561 9872 9873  3662 6988 10705  3662 4562 6988  1432 4563 6865  670 5875 6865  2198 7145 10236  1445 4883 7911  1721 4565 9446  476 4565 9446  1897 4566 8197  1092 4566 8197  3603 8215 9008  626 8215 9008  237 4568 9462  2090 4569 7551  1094 4569 7551  1416 4570 10013  4570 10012 10013  1668 4571 8436  1668 4571 6745  1277 5155 6185  2431 4280 8735  4573 9131 9762  3088 4573 9762  440 4574 9911  2055 6439 6440  2372 7932 8684  823 5692 7932  4576 7325 10702  368 4265 10702  449 6429 6430  1818 4578 6878  1455 4163 6047  1455 4578 5309  2045 3865 4579  382 3865 4579  4580 8659 8795  2465 4580 8795  2777 4581 9500  1042 4581 7222  2563 4582 9433  695 3663 6327  602 3878 4583  1815 3878 4583  3486 5735 6528  1773 4679 6528  861 4585 8991  4585 7680 8991  735 6381 6617  735 4587 5858  1596 4587 9326  1769 4587 9326  1905 6405 8715  4904 10045 10046  661 4079 8264  659 4590 8880  4590 4591 8880  1382 4591 8036  1382 4762 8036  1807 4592 7601  693 4592 7601  537 6593 8645  537 5493 7774  1772 5909 5910  1463 4594 5909  257 7106 9106  1261 8450 10158  2091 5758 9413  731 3949 9163  731 4597 9163  1165 3764 4598  1165 4598 9894  1441 4599 7506  2542 5411 7506  1787 4450 4998  501 4600 6385  4450 4998 9668  656 4450 9668  2282 4602 8343  839 3852 8344  1443 4603 7237  2825 4604 7237  1443 4604 8188  5813 8188 8934  2068 3611 10166  620 3611 4605  2257 4606 8065  3546 7611 8675  5 4023 4607  2719 4608 4911  2719 8787 10238  2477 4609 5239  725 3391 4997  725 4610 4997  725 3895 5538  725 4611 5538  4612 7627 9384  480 4612 9384  361 4613 9197  2841 7659 10019  1292 4614 10583  2263 4614 5694  2428 4615 8666  233 6773 9179  1491 4616 8253  4616 5772 8253  3091 4617 4734  3091 10906 10907  1193 3710 4618  1934 3710 4618  2293 4443 9003  2293 4619 9003  903 4973 9072  2382 6164 8741  1681 4621 6800  969 4621 6800  1470 4622 8115  4622 4684 8115  949 4623 9355  1405 4623 8866  3578 4624 5064  605 3578 4624  2300 5208 7640  1473 4170 7641  1150 4626 9743  1696 4626 9743  998 5252 6936  4627 5252 10219  1438 4629 8324  1393 4628 8324  1438 4629 8483  4629 7752 8483  2525 4630 9373  1374 4630 9375  2906 5986 10273  2906 9870 9871  1463 4029 4632  2065 4029 4632  2379 4580 8659  1273 3736 8660  3463 4964 6689  1378 4634 6689  2489 3516 8632  869 4635 8634  911 4636 9397  1460 4636 9397  1063 4637 9852  1683 4637 9852  2101 6576 9232  2361 4638 9232  2148 4639 9304  1024 4639 9304  4640 6153 7848  1394 4640 6153  2324 6153 7848  848 4641 8019  2686 7128 10040  734 7230 10039  1397 3299 4643  599 3299 4643  2743 6953 10309  793 4644 10308  4645 5181 9062  3469 5181 9062  1775 4646 9958  983 4646 9958  2220 4060 6861  2704 4647 7675  2798 4648 8007  2385 5990 8589  1705 4649 6203  950 4649 6203  393 3581 9790  2611 5261 9803  1698 4651 6940  1698 3438 5112  3956 4652 7293  2331 3956 4652  4653 9184 9185  461 4653 9185  3356 5584 8385  4654 5584 8385  3618 5800 6873  1515 4656 6873  1516 3780 4656  1515 3780 4656  1425 4218 6422  1425 4657 6422  417 4658 7559  2235 4658 7559  1456 4659 10311  4659 7092 10311  3029 10150 10151  2254 8044 8045  2376 4661 8777  2376 4661 5109  4662 7674 9191  2104 4662 7674  1849 4663 6515  1012 4663 6515  1599 4664 7088  1085 4664 7088  2658 3674 8858  2658 4665 5381  1440 4666 10391  1440 4283 7846  1319 4665 5381  2580 4667 9591  2888 4668 10388  2888 4816 7464  1903 2886 4669  2762 4669 10270  68 4670 10783  2756 4670 9328  2607 9755 9756  589 4671 9755  1773 4672 9392  3568 5919 9392  1699 3661 4673  726 3661 4673  2012 5920 8662  1096 3462 4675  3462 4675 5907  2202 4676 5713  2226 4676 5713  4364 4677 7619  1401 4364 4677  3444 4678 6064  2429 3517 8930  1773 4672 7944  1773 4679 7944  2953 6597 10047  2953 9251 10047  1895 3878 7155  1895 4681 7155  2042 4411 7252  447 3231 8416  1120 3066 4683  3135 10350 10352  2006 3570 7288  1408 4684 7290  714 5082 6081  714 6081 9190  2170 7862 10340  1499 3948 4686  3810 6386 8178  1008 6386 8178  1468 4688 9981  3385 6391 9981  2836 5053 10504  681 3764 10503  2856 7816 10735  1560 6005 10736  3559 7275 7276  1373 6636 8484  1373 2914 4692  2914 4692 6141  2152 3547 4693  1118 3547 4693  2723 4694 5390  2480 5577 8185  2107 3859 6506  2107 6504 6505  597 3575 4696  1388 3575 4696  4698 10130 10132  927 4697 10131  2728 10130 10132  1388 4698 10130  1010 3039 4699  1473 3039 4699  499 4217 10226  499 4701 10226  3645 5970 10395  3645 10395 10406  2938 10107 10108  662 4908 10107  2659 9872 9873  1426 4705 9874  431 7058 7823  710 4704 6331  2320 3952 7822  2320 5620 9285  509 3404 4706  1652 3404 4706  4707 5588 7437  1625 4707 5588  1833 6277 10888  2139 4708 6052  4709 8617 9968  83 4709 8617  1875 4710 7070  757 4710 7070  3700 4711 5997  503 4711 7379  1799 4712 5806  776 4712 5806  1835 5185 10620  1645 5185 10620  2443 8137 8140  25 7574 8265  2873 4715 6543  2175 4715 5837  1436 4716 6937  2216 4717 6937  453 2871 4717  1436 2871 4717  3205 8352 10413  1431 3205 4718  296 3598 4772  296 4772 9506  4720 8407 8913  2069 4720 8913  3172 5563 6110  1036 4721 5563  1882 4721 4722  371 4722 9029  2455 9019 9069  847 3097 9019  2635 6809 9625  821 4724 6809  1055 3085 4725  1370 3085 4725  669 4726 8764  1741 4726 8764  535 4727 8282  535 5892 6795  4728 9983 10293  2557 7544 10293  2188 7649 7650  442 4729 7651  4730 7649 7650  1392 4730 7650  2649 6687 9829  605 4624 9828  2900 4732 6058  2371 4732 6582  3091 4617 10907  1430 3091 4733  2226 4048 7898  1430 4735 7897  803 4735 10625  803 5713 10707  603 7619 9991  2548 4736 9551  713 3829 4737  1781 3829 4737  793 4738 7965  2062 4738 7965  2388 5193 5884  2388 5884 9276  2228 7081 7456  771 3209 5628  1569 4741 8703  4741 4880 8703  3147 6011 10884  1607 3147 4742  1450 2941 6847  2941 5196 6162  413 5159 6811  1429 6162 10877  1810 2981 9201  2981 9201 10212  11 4746 8242  1660 4747 7984  1660 5322 7984  459 3690 5687  459 4748 5687  2701 10012 10013  635 4749 10014  669 3005 7912  669 4750 7912  2046 5105 10881  746 4751 10881  2047 4752 10751  849 4752 10751  3609 9998 10182  4753 9998 10182  2051 3475 6205  2051 5022 5222  2570 7023 9455  1377 9647 9649  1472 3510 8244  1472 4756 8244  2342 4757 8566  2342 4757 5127  1091 3393 4758  2383 7971 8555  883 4759 9124  2798 8007 9124  2410 7082 9430  3999 5151 8286  485 4761 8052  1421 4761 8052  380 4438 8036  380 4762 8036  3033 7016 10094  1383 4765 7016  2687 10000 10022  1383 8791 10000  1058 4765 9502  4765 7016 9502  1379 4766 9158  4766 6142 9158  1011 5026 7586  1739 5055 5840  1185 5733 8765  1185 3422 4768  2533 4969 9461  1408 4769 9460  2505 6549 10201  1715 9255 10201  350 4771 9459  2003 4719 9506  2003 4772 9506  1425 2996 4773  2365 3635 8037  4775 8078 8742  887 4774 8077  3295 4775 9501  409 4775 8382  2035 4765 4776  1058 4765 4776  131 4777 10828  2964 6495 8992  287 2964 4778  2901 7215 7216  518 7215 7216  2734 4943 10227  861 4585 10228  117 4781 9800  49 4019 4782  557 3934 10056  557 4783 8023  1424 4550 6269  1424 5431 6269  697 3496 7161  697 4785 7161  2635 4531 6809  1474 4531 4786  489 3544 4787  1853 3544 4787  2387 7752 8483  2387 4788 7720  1663 5362 5363  2347 4789 7487  2723 5390 10031  2164 4790 10630  1605 3423 4791  1480 3423 4791  2490 6161 9151  2490 6161 8927  1525 4980 5776  1525 3579 5776  705 3417 6961  1663 5362 7487  72 3703 4795  1400 3421 4796  450 4453 6587  2264 4164 4797  788 8159 9325  4798 5748 7147  913 4799 5206  1888 4799 5206  2115 4554 4800  1073 4554 4800  114 4801 10769  114 3688 4801  325 4802 7397  325 326 4802  179 3093 4803  1210 3900 7347  1210 4804 7347  1795 4805 7023  420 4805 7023  2622 4806 8168  884 4806 9721  548 4807 7634  2286 4807 7634  2251 3842 4808  1182 3842 4808  2904 4809 7336  4968 10044 10384  2263 4944 7183  1524 3563 4944  119 4811 8820  780 2948 4812  2195 2948 4812  3037 7182 10500  1401 4677 10566  2170 4814 9765  3966 7862 9765  2613 6263 10484  769 4815 5289  4816 5271 9739  1538 4816 5271  1744 5152 5756  1744 4817 5152  1856 4492 6625  1414 4820 6624  3019 9039 10291  1414 4818 4819  1856 6624 10314  441 5906 9100  810 4821 8219  1464 4994 9895  1308 4822 9928  2017 4822 9928  1828 5654 10092  4823 6527 10092  1378 4702 4824  2224 4702 4824  740 4825 8690  2111 4825 8690  707 4852 5983  2405 4853 9215  2515 4827 9165  3515 9166 9294  93 4828 9555  1915 4829 10495  974 4829 10495  4396 7153 9257  1327 8562 10756  1636 4842 6600  275 276 4831  778 3307 8911  778 4832 8911  1879 5554 10494  1879 4834 7370  637 4002 4834  1542 4002 4834  2528 6655 7416  628 3235 4835  4836 6332 10061  3020 4836 10061  2815 5789 6268  1320 5789 6268  2814 9622 10563  978 5488 9622  746 5374 7608  4751 5105 10881  4840 7247 9338  777 4840 7247  1786 3532 4841  1059 3532 4841  274 4842 7994  274 275 4842  759 6802 7100  759 4843 5361  1796 6248 10166  4844 5511 10697  2310 5767 6881  504 8114 10631  2063 4001 9888  2063 3526 5209  2444 4847 8559  4960 5780 10662  1064 7739 8266  2157 4848 8266  1614 3564 4849  421 3564 4849  1115 4850 8374  2577 9307 9308  934 3528 4851  1686 3528 4851  1504 4826 5983  1504 4852 5983  2368 7730 10482  4853 7730 10482  1504 4826 6984  1504 4854 6984  2183 4704 4855  710 4704 4855  1873 4268 4856  1033 4268 4856  1684 5761 10497  1684 4857 6640  1793 3697 4858  1453 3697 4858  2708 10146 10147  2708 10400 10588  4860 10146 10147  1413 4860 10147  2299 5704 8378  919 6842 8379  2489 4862 9797  4635 8634 9797  34 4863 10035  1458 3160 4864  712 3160 4864  205 7505 7561  1906 4886 7743  1864 5324 7743  3052 4867 5328  1566 3052 4867  1516 3207 4868  699 3207 4868  1054 4870 7706  606 3035 4869  1433 4869 7706  1433 4870 7706  1433 4871 8887  4871 5721 8887  622 4872 10089  4872 10089 10185  2757 4873 5358  2555 6565 9403  193 4874 6370  3344 4875 5092  749 4875 5092  456 3679 5481  456 4876 5481  1418 5874 8782  1418 6841 8782  756 3484 4878  1418 3484 4878  3083 4879 6991  3083 5296 9925  364 3009 4880  3009 4880 8704  1445 4564 10186  1445 4881 10186  4881 4882 8708  1445 4881 4882  2198 5764 7911  1080 5506 5764  2256 5534 5601  1917 4884 5534  1164 3693 8066  659 3693 4885  839 3852 4886  1906 3852 4886  2127 6428 8454  798 4887 8454  2122 3335 6265  2122 4888 6265  2610 8052 9738  912 3386 8770  1774 6260 7756  1774 5284 5285  701 4891 6860  701 3150 6860  2396 8756 8757  1498 4892 8756  2355 7813 10424  1498 4893 7812  4227 4894 6462  430 4894 8997  1062 4895 8627  1555 4895 8627  2161 4481 7328  1101 3498 5567  2318 8323 9628  799 6990 8232  1476 3345 10476  1198 3708 4898  1993 3480 7119  739 4899 7132  3274 4900 8331  1646 4900 10029  2842 10479 10722  2842 5815 10479  2251 4902 8542  568 4902 8542  1480 3423 4903  805 4903 9703  2711 10045 10046  1387 4904 10045  4473 7666 9966  433 4473 4905  1299 4340 7060  1299 4906 7060  2914 6141 6818  1373 2914 4907  1870 3179 4908  662 3179 4908  2639 7185 10473  473 4909 9821  2520 5946 9956  1313 4330 8947  4638 6576 9232  2101 4913 7125  3301 4912 6409  730 3301 4912  1597 4912 6409  1597 4913 5643  2628 4914 5517  460 6973 8235  1235 4044 4915  1544 4044 4915  1447 4916 9275  3022 4917 9275  2817 4918 10421  585 4917 10420  1447 3801 4918  732 3801 4918  2693 5455 7476  559 5455 7476  1345 4402 4921  2143 4402 4921  742 3687 4922  1932 3687 4922  4091 4923 8761  1284 4091 4923  1519 3374 10508  352 3413 4924  3529 7978 8162  1519 4925 7978  2437 4962 8985  1310 8460 8984  637 3751 4927  3774 4927 8671  1701 4928 5609  383 4928 5609  689 4929 4989  1795 4929 4989  3384 4930 6477  2466 5869 9961  4177 4931 5819  781 4931 5819  2399 4932 8721  2399 6086 9102  2567 9512 9513  2567 5710 10367  1729 3468 10326  1729 4934 6201  2251 4935 9365  1247 4935 9365  2184 4014 7770  2184 5849 9409  1439 3250 4937  533 5058 8578  858 3250 4938  1439 3250 4938  4258 4939 6250  973 4939 6250  312 313 4940  2123 4941 7433  1225 6395 7432  2022 4250 4942  569 4250 4942  638 3563 4943  2734 7863 10228  1524 4810 4944  4810 4944 7183  531 4945 10605  2089 4945 10605  3065 10522 10616  1695 8810 10522  2910 4947 9391  4947 5668 9391  3979 4948 8839  2831 4948 7160  2620 4949 9656  888 9011 10530  457 5662 6227  1746 6657 9235  2100 7409 7410  981 5030 8016  2113 5897 6452  741 3971 5301  1011 4953 7586  4574 5026 7586  1823 4257 4954  749 4257 4954  1731 5903 10083  4955 5903 10083  578 8498 8556  2437 4926 8984  1289 4282 4957  2455 6171 9019  3141 6573 6946  6571 6572 9170  2666 4341 4959  1299 4341 4959  2444 4847 9652  2444 4960 9652  2734 7863 10267  638 4961 9722  2437 4962 10896  951 4962 10896  3154 9096 10118  3154 9096 9799  1378 4964 6689  1378 3461 4964  1621 3897 5723  3897 5723 8071  1537 3446 4966  797 3446 4966  1537 3446 7967  1537 4967 7967  2307 4806 4968  884 4806 4968  753 6734 8825  2074 6734 8825  1548 4162 4970  505 4970 6123  1989 4972 7225  1989 4047 8375  2341 8439 10903  921 6305 7218  4973 9072 9374  1444 4973 9374  2665 5216 5240  1444 4974 9940  2216 4975 7571  4716 6937 9038  3150 6859 6860  394 5949 6752  208 3266 4977  1460 4636 6042  1460 4978 6042  1541 3129 4979  801 3129 4979  684 4793 5776  684 4980 5776  3479 6224 8428  3479 6224 8829  905 2867 4982  1448 2867 4982  1448 2867 4983  390 4993 8705  1473 4699 6135  1473 4984 6135  171 7648 10009  2322 4985 7648  4494 8894 9838  2492 8117 8118  2826 4987 10579  2826 6637 7982  2413 4988 8850  1138 4988 8850  2130 3953 4989  1795 3953 4989  395 4990 10300  395 3625 4990  2697 9929 10072  911 9865 9929  3204 4992 7786  5445 7158 8100  1791 4993 9111  4993 8705 9111  4821 8219 9895  1464 8219 9895  3032 7537 8771  1687 3032 4995  2570 4996 9649  873 6920 9648  2285 4997 9109  2285 3391 4997  1787 4998 8806  4600 6385 8806  2266 4999 8258  1007 6076 9949  916 4570 10012  916 5000 8459  3111 5001 5476  2487 5001 9121  45 5002 10782  3474 7916 7917  2816 4173 5003  588 4173 5003  1979 7524 8561  1979 5004 5035  2420 3283 7018  666 5531 8696  1733 4101 6945  4101 5006 6945  2206 5007 7322  545 5649 7320  2260 4059 7350  1912 3315 5009  1912 5009 5932  188 3579 5010  1584 5011 9348  933 5011 9348  2130 6920 7958  5012 6920 7958  2180 7371 7704  4344 7703 8415  5014 9510 10713  2901 5014 10613  110 5015 6719  1740 5016 10059  840 5016 10059  4424 5409 9776  5409 9776 10533  1450 5018 9488  1450 5117 9488  2052 5020 5021  1636 5020 5021  2051 5022 8747  2052 5020 5022  1636 4842 7993  1636 5021 6496  2053 5222 7672  2051 5222 7672  3252 5023 8902  1845 5502 6166  744 3502 5024  1857 3502 5024  2011 5025 7976  868 5025 7976  1011 5026 9969  2377 9910 9969  1966 5462 9685  1966 5027 7398  1087 5028 8473  2286 5028 9058  452 5029 7035  3010 5029 10491  4537 5030 8016  1511 4537 5030  1790 5748 8516  1511 5031 6393  3643 5032 5033  567 3643 5032  1209 5033 7778  1209 7778 9537  1696 5034 10410  2381 5034 8490  1136 3456 5035  1549 3456 5035  2081 5036 9906  766 5036 9906  684 5037 10365  2008 5037 10365  3080 5038 6046  1650 3080 5038  1846 3752 5392  1846 5392 5769  1552 5040 9406  881 5040 9406  1513 3332 5041  616 3332 5041  1031 7367 7770  2802 5714 10462  2572 5012 5043  1487 5012 5043  2605 9401 9402  2605 5044 9402  1568 5045 9087  5045 6352 9087  2496 6352 9087  741 5046 9088  1890 6605 6607  3364 6605 8581  1559 3457 5048  1162 3705 9451  1851 3865 6764  3865 6764 8778  2003 5050 9807  722 5050 9807  5051 5666 8827  3837 5666 8827  2765 5018 7525  482 5256 10345  948 5053 7017  2836 7203 10505  475 5544 6361  475 5054 5055  2560 5305 7760  2560 5840 7760  894 5056 7635  1962 5056 7635  409 7281 8382  2114 7281 8382  1531 5058 9806  5058 8578 9806  761 3256 5059  1531 3256 5059  2373 5060 7168  2476 5060 7168  3253 5061 6563  2607 5219 9754  516 4260 5062  2002 4260 5062  1669 5063 10592  5063 10589 10592  1405 4624 5064  8134 8135 9758  4241 8904 9344  1482 5065 9736  1424 5066 8310  1424 3063 5066  4659 5067 8090  1456 4659 5067  2794 7092 10311  768 5068 10312  1736 3936 6189  2633 4425 9655  671 5070 9653  1149 3108 9535  2655 6191 8878  1306 4309 5072  1487 4309 5072  3956 7553 9091  835 7553 9091  983 5074 9785  1471 5074 9785  1048 5075 10404  1048 5179 8338  1833 5076 10155  1090 9943 10155  3244 6261 6929  726 3244 5077  2697 5080 10073  1459 5078 10072  511 6631 8499  1459 6956 9921  1460 3565 8050  1460 5080 8050  1124 3530 6127  428 3530 5081  2360 5082 6081  1799 5082 5806  2664 4339 5265  2664 5083 5573  1905 3149 5084  745 3149 5084  2476 5085 9576  606 5085 9576  2256 7713 9939  492 4884 5534  135 3416 5087  5088 8809 9443  1919 5088 9595  2931 6674 7179  2155 5089 6674  1469 4844 10697  422 5090 5511  864 4275 5091  2014 4275 5091  1738 5093 7264  749 3108 5092  3108 5092 7264  1738 5092 7264  3211 5094 10905  3211 7351 8925  346 5095 10552  346 347 5095  2831 5096 9909  2831 7160 9909  3045 4900 10029  354 4372 10030  2469 5098 9426  1231 5098 9426  1034 5099 9741  1682 5099 9741  4124 5759 8471  1586 4124 8471  2056 5101 10065  1107 5101 10065  2231 7623 8447  833 5102 8447  777 4840 6037  1898 6148 6534  1627 3907 5104  2093 3907 5104  1595 4436 5105  2046 4436 5105  2431 5106 9110  2431 5106 10394  1923 4018 5107  1923 5107 7273  385 5108 8228  4047 7521 8228  3605 6586 10363  560 3605 5109  3174 5110 9813  1881 5111 9005  715 5111 9005  1698 5112 6940  2737 5112 6940  794 3471 5113  2314 5113 5576  616 3203 5114  1512 3203 5114  1610 4281 5115  1959 5115 5288  498 6062 9610  2116 5116 5778  2524 5117 9488  609 4331 9283  533 5118 8059  1512 5118 8059  3357 5119 7723  1123 5119 7723  2187 7669 9193  2187 5120 5221  1761 5862 7489  663 5121 7489  3934 8926 10056  1529 5862 10057  5088 6888 9092  2078 7496 7497  283 284 6093  284 6093 8699  3458 5125 8206  2415 6923 8834  4509 9519 9520  1008 4687 9521  2766 5241 10218  357 5127 10217  766 5036 8750  766 5128 8750  636 3889 5129  3889 5129 7558  1479 4126 5130  866 6050 7798  375 5131 9036  5131 8353 9036  5132 5984 8608  1183 5132 8608  47 5133 10526  939 5134 7262  3996 5427 7262  2133 7291 9798  1582 5135 7467  1577 5136 8126  1876 5136 10157  1876 5136 5137  1876 5137 9927  978 5138 6601  1888 5138 6601  663 5139 10518  1509 5139 10518  945 5140 9505  3143 6088 9505  3360 5141 8749  930 5467 7172  1127 3349 5142  1482 5142 5143  3349 5142 5143  732 3349 5143  2716 5144 10191  1472 5145 10192  5145 10192 10193  917 5145 10193  2212 5146 7355  2212 5146 5391  841 6389 6439  1575 5147 8182  476 5148 8239  476 3586 5148  1967 4449 5149  1325 4449 5149  2058 6401 8288  1806 6401 8288  830 5151 10544  2410 5151 10544  763 3491 5152  1743 3491 5152  1479 5153 7412  1967 5153 7412  2194 5592 8797  333 334 5154  3602 4572 5155  1494 3602 5155  1106 3501 5156  1494 3501 5156  3398 3425 5157  1366 3425 5157  1221 4379 10688  1221 5158 10688  2943 4744 6811  413 4744 6811  791 5160 8446  1669 8029 8446  1464 4994 5161  1464 3164 5161  613 3107 5162  1507 3107 5162  742 5163 8488  2147 3974 5746  1495 4197 5164  434 4197 5164  5165 10454 10455  1538 10247 10455  2255 3766 7599  1574 5168 7598  5167 5207 9421  1142 5167 9421  2188 7650 7651  1574 5167 5207  1352 4322 5944  1352 5169 5944  1264 3025 9546  2477 5170 8472  2245 5171 5172  815 5171 5172  2677 5310 6069  815 5310 6069  1859 5231 10428  1730 5173 10428  2752 5174 10695  1585 5174 10695  406 3933 5175  1786 3933 5175  2878 5176 5798  2474 4615 8110  4017 9554 9980  1344 3194 5177  629 3276 5178  1530 3277 5396  2818 8918 10574  1505 6736 10573  810 3232 5180  1714 3232 5180  736 5181 5699  736 4645 8520  1848 5182 10028  757 5182 10028  1898 6148 6556  817 6147 6148  2041 5624 7437  1652 5184 7393  372 3454 6004  372 5185 6004  1870 5186 9176  1097 5186 9176  1552 3148 5187  957 3148 5187  2410 4760 5188  1278 4760 5188  1704 3379 5189  944 3379 5189  104 5190 8678  99 3664 5191  1686 3664 5191  4115 7852 9619  1489 5193 7414  547 5193 9728  5193 7414 9728  594 5194 8373  2018 5194 8373  3414 5195 9065  1325 5195 9065  1429 4743 6162  5196 6162 10877  477 5197 5957  477 3143 5197  2963 4901 5198  411 4901 5198  1897 4566 5199  1275 4566 5199  386 5325 5912  2955 7548 9205  817 6147 10626  1103 4364 5532  802 4742 6223  2271 4742 6223  1514 3009 5203  364 3009 5203  3009 5204 8704  1514 3009 5204  1944 6458 8269  739 5205 8269  2333 3447 5206  1888 3447 5206  2188 5207 10099  2188 7651 10099  828 5208 9043  4170 7641 8871  3302 5209 8716  3302 5209 8203  1691 5159 6811  1691 2942 5210  1984 5657 10003  2976 5211 8527  190 5212 9173  2951 5213 7076  5213 10342 10343  2057 5214 10320  1195 5214 10320  2662 5215 5569  900 5234 9245  2665 5216 9941  1375 5216 5240  2786 6761 6762  2618 7217 9770  881 5617 10184  3239 5219 7809  1488 3239 5219  1488 5219 10127  1488 5220 10127  1496 5221 7447  5221 6145 7447  807 5022 5222  1618 5702 6589  4380 6228 8509  933 5223 8509  5224 6634 9927  1699 5224 6634  1699 5224 9444  1699 5225 9444  1033 5226 7793  1962 5226 7793  2421 8799 8800  857 3840 8802  1658 5228 7931  3624 5872 7931  681 4689 10412  681 5229 10412  1579 2981 5230  2981 5230 6419  696 3561 5231  1859 3561 5231  778 3307 5232  1715 3307 5232  1934 4618 7311  463 5233 6229  2662 5314 9245  1486 3796 5314  2833 6608 10649  1486 5235 10650  2663 5236 9931  900 3494 8039  3825 4576 5237  1836 4576 5237  2589 5238 9684  1244 7712 9683  229 4609 5239  2665 5240 10018  595 5240 10018  1348 4025 5241  2766 4025 5241  2526 8591 9041  448 5895 8591  1526 5243 6079  1526 3304 5243  3519 8999 9028  955 8369 9027  2426 4096 5245  2426 5245 7983  1260 4154 6604  1260 5246 6604  540 3583 5247  1762 3583 5247  2094 4246 7820  2094 5248 7820  1578 5249 5491  1578 5491 8734  1971 4456 5250  1971 5250 9848  2008 5251 7784  1022 5251 7784  1783 3065 10616  998 3065 5252  2643 9834 9835  1020 4469 9834  2643 4469 10631  1500 5253 9835  2384 8668 8669  1500 5255 8668  3134 5256 5922  2765 5256 10345  2169 7850 9357  5257 7850 9357  2167 7228 8272  506 6173 7450  143 3981 5259  822 5260 8732  5260 6333 8732  2580 9268 9589  1522 5262 9268  5262 9268 9590  875 5262 9590  779 3483 5264  1578 3483 5264  2664 5265 10301  902 5265 10301  1689 5810 7892  1688 5266 5812  1688 3381 5267  704 3381 5267  1689 3493 5812  446 3493 5268  1082 3405 6417  3405 6417 9196  3400 5270 9578  986 7361 9073  1538 4966 9682  1538 5271 9682  2592 5272 5406  2091 5272 9413  2006 3570 5273  1148 3570 5273  366 5908 6487  1750 5791 5792  1964 5275 7154  887 6402 6653  1265 8429 10448  2694 5464 6107  1549 5035 7524  1549 5277 7524  1549 3456 5278  499 3456 5278  2095 5279 8698  360 5279 8698  1539 3329 8497  1539 5280 5925  1539 5281 8294  438 5281 8294  23 5282 10289  2618 5617 10184  469 3239 9770  682 4342 5284  1619 4342 5284  1619 4761 5285  1421 4761 5285  4342 5286 6183  953 5286 6183  3596 5895 6408  448 6408 8995  1610 3417 5288  1132 3417 5288  1532 3245 5547  1532 5289 5547  1729 3468 5290  381 3468 5290  2000 5652 6453  1543 4495 5652  2918 8241 10673  961 2918 5292  95 6574 9599  1534 5293 6574  2058 5935 6113  1808 5935 6113  1404 4827 5295  3012 4827 5295  2487 5296 9449  856 6804 9120  2968 5297 7033  1083 5522 6664  923 5298 7715  2829 9713 10126  460 5299 6973  2602 5517 9598  2022 5300 10492  1290 5300 10492  741 4952 5301  2113 4952 5301  3100 5302 7486  2503 9035 9036  2352 5428 6744  3198 5428 6744  2511 7107 9371  2511 5304 9792  908 7435 7436  2560 6361 7507  1998 7278 10481  697 5307 10757  1767 5307 10757  4766 9295 10255  2028 6270 7596  1779 6270 7596  815 5171 9428  815 5310 8088  2429 3517 5311  612 3517 5311  2710 5313 9677  266 5312 8844  1520 5312 5313  1486 5234 5314  5234 5314 9245  1357 4119 5315  1915 4119 5315  91 3536 5316  1770 3536 5316  2227 5317 5422  1587 5317 5422  1902 3185 5318  206 3185 5318  1590 5319 10621  1590 5466 10621  1965 3460 5320  3460 5320 10652  3225 5321 5322  1109 3225 5321  1298 4339 7984  1298 5322 7984  3915 8696 9084  2420 8696 9084  438 4369 7775  438 5324 7775  3659 5200 5325  1563 3659 5325  956 3173 5326  2457 5326 6765  3695 6537 8679  1546 6537 8679  1740 3057 10059  1527 7581 9601  4527 5329 9454  1527 4527 5329  2934 9736 9953  2934 5330 6523  682 3568 5331  1594 3568 5331  2536 6676 8203  2536 5332 6289  622 4872 5333  4872 5333 8131  182 5334 10206  3407 8175 9879  1082 3407 5335  1179 3507 10446  5752 8752 10729  1520 5312 5337  2363 5312 5337  2530 5338 10368  830 5338 10368  1710 3897 5339  865 3897 5339  642 5340 7748  3558 6294 7748  2315 4526 5341  1510 4526 5341  2994 5342 9189  1351 5342 9189  2445 4441 9262  2445 5343 9262  1035 3220 5344  1551 3220 5344  3218 5344 5345  1551 5344 5345  920 5346 5533  4001 9489 10665  858 4938 5347  1937 4938 5347  579 5276 8638  2627 7380 9546  2608 9645 9646  912 4889 9645  112 6195 10242  1653 5350 8518  2346 4780 5351  6816 8181 10407  1881 5352 10330  1194 5352 10330  368 4265 5353  2213 7805 10682  4627 5354 7637  355 5354 7637  625 3118 5355  625 3789 5355  2056 5100 5356  846 5100 5356  2585 9665 9667  1639 4147 9665  1639 3375 5358  829 3375 5358  1639 4147 5359  4147 5359 7876  1234 5360 10422  1928 5360 10422  1427 3506 5444  1427 5361 5444  4789 5362 7487  496 4789 5362  2544 9503 9504  1663 5363 9503  1663 4794 5364  705 5364 6961  2546 9241 9242  528 5958 9241  1631 5367 7556  1631 5366 7556  3034 5367 7556  921 3034 5367  3168 7277 7955  1553 3168 5368  1791 3223 5369  3223 5369 6098  2867 8705 9111  2867 9111 10527  3943 5671 8957  1720 5671 8957  744 7378 7410  2150 7376 7378  1624 5374 7295  872 5373 8495  2047 4751 5682  746 4751 5682  1555 3497 5375  1064 3497 5375  1155 3880 5376  1535 3880 5376  2156 4447 8312  1535 5377 7224  2103 7197 9381  1536 5378 7197  1925 6999 9127  1925 6425 9127  5380 7968 7969  1544 5380 7969  1319 5381 6919  1916 5381 6919  1069 3277 5382  1973 6317 6319  3231 5383 8416  1708 6058 8144  3976 5384 6447  2793 9288 10165  362 3119 5385  1540 3119 5385  1540 3119 5386  1039 3119 5386  2478 6374 10467  2202 6374 10467  2339 5416 6096  2339 5388 5416  2044 5389 6240  907 5389 6240  2513 5390 9161  1223 7136 9160  1911 5391 10645  539 5391 10645  798 5039 5769  798 5392 5769  412 3012 5393  2758 6904 9280  1159 5394 9692  2024 5394 9692  1668 5395 8283  3629 5899 8283  1530 5178 5396  3276 5178 5396  709 5397 5479  5793 7628 10064  2243 5398 8575  1145 5398 8575  1726 3300 5399  1283 3416 8475  1397 4643 5400  1618 4643 5400  1572 3490 7008  1572 5401 7008  3314 5402 6511  3314 5402 8502  2349 8468 9539  2349 8102 8103  1063 3326 6023  1063 5404 6023  2663 3495 5405  1113 3495 5405  905 4982 5406  2367 4982 5406  2605 9152 9401  1570 5407 9402  458 5408 8089  1841 5408 8089  1542 4002 5663  1628 5409 8980  197 3318 5410  1713 4601 5411  1441 4601 5411  677 2997 5412  2997 5412 5785  5371 5413 8940  1721 5413 8940  1767 3495 5414  463 3495 5414  2509 5415 8718  481 8421 8719  2057 6351 6547  1760 6095 6351  2131 3117 5417  816 7822 10329  1293 3343 5418  1553 3343 5418  1050 5419 6524  1050 2948 5419  1330 8322 8792  2674 7277 9694  3396 5421 8920  2462 5421 8920  645 3412 5422  1587 3412 5422  1598 5423 9078  3677 5633 9078  1389 4644 5424  2230 4644 5424  1466 5861 10887  2822 8311 10572  2195 4812 5426  7459 7460 9001  939 5427 7262  2731 3702 9673  5428 8610 10157  427 5428 10157  3226 6152 8292  685 6152 8292  927 4697 10274  927 5430 10274  31 4302 5431  776 3839 5432  2026 3839 5432  2444 4960 8558  4847 8559 8568  1016 4987 7982  2826 4987 7982  3721 5435 8109  2497 8291 8981  1329 5436 10749  2077 5436 10749  2262 7721 8179  2262 7720 7721  2387 7720 7721  679 4629 7752  2133 5439 7933  5135 7467 7933  1984 5658 8527  1984 5440 7387  4753 8049 10182  158 3609 5441  1550 5164 5442  434 5164 5442  377 5772 6017  377 5443 5766  553 5444 8091  2067 5444 8091  1981 5445 10253  490 5445 10253  469 5283 8209  469 5446 5734  1598 5423 7979  1598 5447 7979  2458 8255 8401  833 3791 8457  631 4791 6948  2826 5449 10580  1588 5450 8372  1588 5451 8372  4114 5451 8372  1316 4114 5451  2597 9497 9499  1588 5450 9498  1246 3920 5453  1884 3920 5453  2809 6380 8831  2093 6380 8831  559 8399 9613  559 4920 7476  2219 3400 8057  3675 8058 10271  4450 8212 10554  1712 5457 8212  1205 3585 5458  2460 5458 8723  2319 4208 5459  893 4208 5459  1861 3167 6293  2737 9680 9681  335 4330 5461  335 336 5461  5131 5462 9685  375 5131 5462  1554 2954 5463  572 3969 10144  1607 3147 5464  996 3147 5464  2735 7532 9274  2735 5465 9273  2667 5466 10621  2667 5466 5542  930 5467 9892  3360 5467 9892  1832 4382 7166  1832 5468 6711  1003 3014 5469  1003 3988 5469  1727 5470 9749  1727 9718 9749  977 2915 6981  641 4117 6979  2327 4976 8003  394 4976 8003  965 4009 5473  965 5473 10357  1236 5474 5830  2098 5474 5830  1596 2993 5475  1410 2993 5475  4529 5475 5476  611 4529 5476  1562 5477 9901  3994 7006 9901  480 4490 5478  1562 4490 5478  1453 9966 9974  1453 3697 5479  371 3464 5480  1839 3464 5480  5481 5770 10439  1191 5770 10439  769 4074 5482  1705 4074 5482  2572 8993 10167  471 5483 10167  709 5484 6966  709 3697 5484  1346 5485 8184  1746 5485 8184  1508 5258 5486  2882 5258 5486  1815 3878 5487  941 4681 7155  1565 5488 10561  1565 5489 10561  5489 10561 10562  612 5489 10562  1971 5490 10486  1174 5490 10486  201 5491 10189  399 5492 9511  2422 5492 9511  2040 4593 7774  2040 5493 7774  2153 6222 8337  752 6222 8337  2767 10249 10251  865 4108 10249  2366 5385 5496  1540 5385 5496  4671 5497 7835  589 4671 5497  3534 8868 8869  1581 3534 5498  947 4235 5499  2623 4884 7821  2902 7493 7737  2121 5500 7493  2499 7485 10334  2499 5501 6256  1111 4005 6166  1851 4005 6166  2477 5170 8846  2477 5503 8846  1960 4018 5504  2730 9222 9223  2140 5505 7270  993 5505 7270  2381 5506 9016  1080 5506 9016  2179 5507 8519  1437 5507 8519  1996 3732 5508  724 3732 5508  2672 5007 6143  2672 5509 6273  470 5433 8559  5433 8559 10723  1796 4603 5511  422 4603 5511  1800 3948 5512  2170 3948 5512  435 3422 5513  1603 3422 5513  5514 8369 9027  2516 5514 9027  1590 5515 10049  1590 5516 10049  2689 10049 10136  397 5551 6783  2602 7533 8779  460 5517 9598  2628 9814 9815  890 5518 9814  2162 5519 8246  851 5519 8246  867 4430 5520  2296 4430 5520  1859 5521 10677  1177 5521 10677  1083 5297 10405  1083 6664 10405  1940 3911 9203  1940 5523 6844  3115 5524 7779  2683 5524 7781  2358 5525 9155  1321 3124 5525  1665 5527 6677  428 5425 10452  1665 3284 5527  654 3284 5527  2668 5528 9766  898 5528 9766  291 292 5529  1617 3934 5530  3934 5530 8926  3915 5531 8696  1617 3915 5531  1103 5201 5532  2236 5201 5532  3838 5346 5533  1666 3838 5533  492 5086 5534  2256 5086 5534  1615 3610 5535  166 3610 5535  167 5536 10135  5536 5537 10135  2125 7754 9764  3056 5537 7547  3844 5538 9368  1763 3844 5538  2007 5539 10891  1253 5539 10891  1591 5540 9997  909 9747 9810  3169 5515 5541  1592 3169 5541  1757 5665 6869  1757 3977 6869  1592 3169 5543  624 3169 5543  475 5544 9846  5544 9845 9846  462 5545 7488  5545 5979 7488  1985 6194 9006  1985 5546 5931  3245 5547 9615  6955 9435 10600  1725 5548 7833  568 5548 7833  2305 5549 8233  959 5549 8233  1673 2905 5550  649 2905 5550  4326 5551 6783  1673 4326 5551  1673 3146 5552  935 5552 8815  809 7122 7940  2174 5553 7542  2263 4944 7609  1879 5554 7610  2637 5555 9021  2770 5555 8979  1584 3040 9348  1583 3040 5556  2553 5734 8210  1601 5446 5734  879 5558 9341  879 9099 9341  1602 3365 5559  646 3365 5559  1467 5560 9945  2304 5560 9945  1745 3834 5561  828 3834 5561  2076 3482 5562  819 3482 5562  1417 4335 5563  3172 4335 5563  2409 8220 9475  925 5470 6108  1117 3366 5565  1693 3366 5565  2632 5566 9789  1722 6133 9787  1101 4896 5567  2161 4896 5567  1125 3554 5568  1809 3554 5568  1239 3966 5569  2171 3966 5569  975 3354 5570  1616 3354 5570  889 5571 9597  5571 6692 9597  2252 4935 5572  1247 4935 5572  2639 4973 5573  1444 4973 5573  371 5574 9116  2491 5574 9116  1108 7917 9592  2594 5965 6622  794 5576 7287  2313 5576 7287  251 3272 5577  251 252 5577  1820 4052 5578  202 4052 5578  6076 8257 9949  2266 5579 8257  494 4485 5580  1747 4485 5580  1626 3380 5581  3380 5581 6668  367 3938 9905  2419 8855 8856  1923 5583 8443  984 5583 8443  1252 4768 10358  2561 9352 9353  520 3822 5585  2062 3822 5585  5586 10140 10141  792 5586 10141  628 3928 5587  2297 3928 5587  684 3620 10365  1625 3620 5588  2985 3968 5589  1119 3968 5589  2834 5590 9742  1203 5590 9742  1814 3685 7875  1814 5591 7875  332 5592 10570  332 333 5592  1587 3086 5593  424 5593 10060  1607 4111 5594  434 4111 5594  561 4175 5595  2624 4175 5595  2887 10408 10409  676 5596 10408  1570 5407 5597  625 3118 7263  604 4819 5598  2393 4819 5598  620 3472 5599  1593 3472 5599  2799 6233 10417  1674 5916 10447  1918 4235 5602  1917 4235 5602  2211 4524 6618  1918 4524 6618  2488 3747 8505  2488 6641 6848  3230 9146 10894  1797 5604 9146  1526 3166 5605  3166 5605 7795  349 4442 8032  1728 4442 5606  3869 8418 8665  2428 5607 8418  3628 5608 5697  1703 5608 5697  2328 3967 5609  383 6725 7960  2751 7700 8529  509 6026 10284  2305 5548 5611  568 5548 5611  5025 5612 10246  868 5025 5612  2234 5612 8893  878 5613 6954  1092 7426 9637  2099 7426 7427  2646 5147 5615  1575 5147 5615  484 4351 6499  2204 6539 7527  2618 5617 10670  1506 5617 10670  1226 3007 5618  1629 5618 8404  76 7223 10772  1426 4704 6331  1426 5620 6331  2029 5621 7827  555 5621 7827  2128 4540 5622  488 4540 5622  2234 5612 5623  868 5612 5623  820 5184 7393  820 5624 7393  5625 5787 6808  5785 6455 6808  675 3645 8872  675 5626 6642  2435 5047 5627  2435 5627 5646  771 4740 5628  2228 4740 5628  1323 4428 5629  1657 4428 5629  1949 4231 5631  1206 4231 5631  1830 3464 5632  871 4913 5643  2458 8594 9662  1598 5448 8401  4829 7565 10593  1915 4829 10593  2106 5054 5635  475 5054 5635  2442 4952 5636  741 4952 5636  1555 3497 5637  1062 3213 8627  2774 6787 10377  2774 2882 5638  1641 3393 5639  353 3393 5639  1810 2981 6419  1810 3478 6419  1066 5641 10097  1990 5641 10097  936 3371 5642  2439 6372 8127  871 5632 5643  1830 5632 5643  1748 5644 10385  5644 6772 10385  1748 5644 7837  1748 5645 7837  2434 5646 7204  837 6807 10319  2007 5539 6732  2868 5539 6732  1914 5648 9631  569 5648 9631  2079 4139 5649  545 4139 5649  1764 2990 5650  1297 2990 5650  291 5889 9660  1608 5651 5889  1543 5291 5652  5291 5652 6453  2849 7846 8629  2849 8629 9841  1828 3825 5654  747 3825 5654  2034 3384 6477  1828 5655 7326  384 5504 5656  1960 5504 5656  1171 3647 5657  1984 3647 5657  5211 5658 8527  718 5211 5658  3804 6846 8548  2132 6846 8548  2829 7348 9713  923 5660 10126  3136 5661 6018  2426 6895 7983  1746 4950 5662  4950 5662 6227  5409 5663 8980  1312 5409 5663  910 5230 5664  910 3807 5664  5542 5665 6869  1591 5542 5665  720 3772 5666  1623 3772 5666  184 5667 10823  2893 8688 9866  1966 5027 10651  2567 5710 5711  2407 5669 8403  1216 3942 5671  517 3942 5670  3942 5670 5671  1720 5670 5671  4386 7338 9177  1017 7338 9177  818 5673 6363  1886 5673 6363  3184 5207 9421  3184 5674 6481  2510 5676 8869  2510 5676 9784  617 3591 5676  1611 3591 5676  2181 5677 9623  1075 5677 9623  2829 7348 10611  1742 5678 9713  1613 3352 5679  554 3996 6894  954 3369 5680  2112 3369 5680  396 4427 5681  1677 4427 5681  1624 4453 5682  2047 4453 5682  2797 7647 10469  517 4186 7647  1887 3187 5684  3187 5684 9383  1887 5684 7536  985 5685 9559  85 5686 7353  85 5741 7353  4345 5687 9130  3690 5687 9130  4414 5688 8086  419 4414 5688  4772 5689 10681  2003 4772 5689  1649 5690 9918  2880 5691 9918  5691 10153 10154  1104 5691 10153  2372 6750 7932  1649 5691 10154  1826 6552 7847  1212 4118 10259  4833 5694 10052  1879 4833 5694  1506 3582 6437  1506 5695 6437  1869 5696 8563  1869 6462 8563  471 3305 5697  1703 3305 5697  1703 5698 9970  5698 8075 9970  5181 5699 7696  2690 5699 7696  444 6598 6759  2071 5700 6759  40 6454 8176  40 5263 8176  2053 5703 6589  2053 5222 6589  1618 4643 5703  599 4643 5703  461 5704 7612  2299 6975 8379  2588 5705 9131  2588 5705 6606  3900 7347 8739  1670 4804 7347  5076 9943 10155  2527 5707 6090  2286 7753 9058  1855 5708 9058  3532 5709 7446  1786 3532 5709  5669 5710 8403  990 5669 5710  5618 5711 9412  1629 5618 5711  210 5712 10799  803 5713 10625  2226 5713 10625  2801 5714 10459  1523 6278 10458  1992 4462 7245  486 5905 8632  472 5716 7764  2995 6133 7764  1630 3759 5717  565 3759 5717  2061 7139 9737  1630 5718 7140  1156 3759 5719  1630 3759 5719  829 3375 5720  1941 3375 5720  5721 10441 10442  1886 5721 10442  2340 4426 8351  1714 5722 8359  365 4965 8071  365 5723 8071  2128 5623 5724  868 5623 5724  2242 5724 5725  770 5725 8478  1651 5726 9499  5726 9364 9499  2597 9364 9499  370 5727 9497  2127 7316 7317  493 5888 7316  2891 5728 5729  964 6066 10546  1622 2892 5730  627 2892 5730  1110 5731 7059  2392 5731 7059  2229 4005 5732  1111 4005 5732  2781 9643 10430  1185 8381 10429  1601 5557 5734  5557 5734 8210  1774 5284 6449  1774 5735 6449  2191 5736 6239  841 5736 6239  607 3027 5737  1852 3027 5737  1722 3943 5738  671 3943 5738  654 3284 5739  3284 5739 10612  3975 5739 5740  1664 5739 5740  84 5741 7353  331 3281 5742  331 332 5742  1676 6789 7652  417 5743 7559  2548 8366 9550  2548 8223 8366  3420 3986 5745  1390 3986 5745  2147 5163 5746  742 5163 5746  5747 10305 10306  882 5747 10306  148 5748 8516  3094 6139 10134  1770 3094 5749  3801 5750 8271  2294 5750 8271  1063 3327 9852  647 3327 5751  1180 3453 5752  2325 3453 5752  2235 5753 6943  938 5753 6943  2005 5754 8755  440 6440 7134  889 5726 9364  2603 7533 8779  1743 5756 9096  762 5756 9096  3573 3867 7718  3573 7548 9205  2091 4596 5758  1261 4596 5758  2122 3335 5759  846 3335 5759  665 3183 9761  1142 3183 5760  5761 9299 10497  885 5761 9299  1684 4857 7697  1684 5762 6341  905 5406 5763  2592 5406 5763  1080 4883 5764  4883 5764 7911  5765 7104 8216  2029 5765 7104  1605 3208 5766  1781 4737 8534  1230 6508 6881  2550 6508 6881  496 4789 5768  2764 4789 5768  1650 9481 9839  1650 5039 5769  2386 5770 8523  1191 5770 8523  1771 3900 7319  2599 5771 6320  2568 5772 10200  2568 6990 10200  1634 2921 5773  491 2921 5773  976 2921 5774  1634 2921 5774  1293 4000 5775  4000 5775 9952  1585 3579 5776  1585 4793 5776  938 6733 8937  2519 7652 8221  498 5778 9851  4639 7364 9851  1557 2958 5779  1020 2958 5779  3210 5780 7899  2973 5780 10398  1207 3717 7928  1207 5781 7928  3718 5781 5782  454 3718 5782  1859 5783 8487  1202 5783 8487  1197 4201 5784  3260 4201 5784  1848 6455 6808  1848 5625 6808  1661 5412 8956  1661 5786 8956  3885 5786 5787  1661 5786 5787  1122 4916 9816  1122 5788 9816  5789 9278 9697  1320 8812 9698  1750 5274 10634  1750 5790 10634  366 5791 8329  366 5908 8329  852 5792 7149  1750 5792 7149  3262 5321 6966  1643 3262 5793  1435 3265 10686  2414 6350 8924  5646 5795 7204  2435 5646 5795  2648 5796 8156  1009 5796 8156  928 3078 5797  2730 5797 6339  1023 8666 10609  1023 5798 7359  1398 3477 5799  1398 2963 5799  1515 5800 6873  1515 3617 5800  5801 8132 10168  381 5801 10168  1334 4300 5802  1644 4300 5802  439 5803 5804  2247 5803 5804  2457 5804 6765  2247 5804 6765  1811 5169 5805  2604 5169 5805  2239 5832 10578  776 5832 10578  1841 5408 7210  1841 5807 7210  2712 5807 9973  1841 5807 9973  2690 5809 9994  634 6330 7979  1689 5810 9156  5266 5812 9156  2742 10173 10174  1689 3493 10173  1688 5268 9025  1688 5812 9025  1443 4605 5813  1681 4605 5813  1681 4605 5814  620 4605 5814  1187 3831 9757  411 3831 5815  1037 5816 7303  2062 5816 7303  2214 4448 5817  2214 5817 10445  1315 3573 7548  1315 5818 7548  1996 3068 5819  781 3068 5819  1830 5820 7221  371 7221 9029  2507 5821 9255  1715 5821 9255  952 5822 6471  952 3086 5822  1743 3491 5823  1159 3491 5823  1991 4306 5824  619 4306 5824  154 5825 8486  3017 5308 9383  1379 4766 10255  2450 5827 8998  2450 5827 10453  1645 4332 5828  1478 4332 5828  2103 4383 5829  1181 4383 5829  738 5966 8545  738 5965 5966  1832 5468 8873  1832 5831 8873  1800 4480 8158  4480 8158 10177  3072 6249 7419  536 6249 7419  204 7505 7561  876 5835 7792  2595 5835 7792  805 4314 6392  2059 5836 7500  502 3440 5837  1648 3440 5837  1648 5838 10534  5838 7123 10534  3189 6517 10436  642 3189 5839  1739 4767 5840  1011 4767 5840  4884 5841 7821  1825 5841 7821  577 5842 8362  1662 5842 8362  1662 5844 7068  1662 5843 7068  5844 7068 8327  1151 5844 8327  1030 3259 5845  1647 3259 5845  1679 5846 9893  472 5846 9893  2718 9977 9978  917 5847 9977  2447 7562 8950  653 5954 7562  1937 4938 5849  1439 4938 5849  337 338 7769  338 5850 7769  4169 8905 8906  2417 5851 9338  1657 5629 5853  1657 5852 5853  1677 3755 7402  1677 5853 7402  477 5854 6978  477 3754 5854  2978 8532 8691  2500 8532 8691  424 5856 9723  2552 6179 9723  1741 3086 5857  952 3086 5857  1769 3938 5858  2514 3938 5858  1933 3750 5859  571 3750 5859  717 3734 6230  3734 5860 6230  2855 6677 10887  1776 6677 10887  2775 8023 10057  1761 4783 8023  2242 5863 8743  1133 5863 8743  505 2926 5864  2926 5864 5894  3651 5865 9536  1176 3651 5865  2059 5443 5866  377 5443 5866  1806 5867 10537  1015 5867 10537  513 3608 5868  1735 3608 5868  2547 4085 8469  1735 5869 9057  3832 8145 10145  660 5870 8838  1687 5871 10180  926 8384 10180  1658 3978 5872  3978 5872 8514  2056 5873 10203  43 5873 10203  1418 4877 6841  4157 6841 8782  2192 6987 9896  2192 5874 9896  1187 5876 9757  1678 5876 9757  859 3596 5877  1807 3596 5877  1762 5878 9658  1762 5247 9658  1655 3746 8983  1655 5879 8983  2000 3639 7475  369 3639 5880  2614 9434 9436  1656 5881 9434  1656 3310 5882  3310 5882 5942  649 3310 5883  1656 3310 5883  811 4739 9276  811 5884 9276  4458 5885 9448  1654 4458 5885  1844 3543 8307  1654 3543 5886  711 4043 5887  1778 4043 5887  2127 6428 7316  1778 4887 6428  5529 5889 9702  1608 5889 9702  1719 3267 5890  667 3267 5890  3138 6631 8074  511 6631 8074  2449 6795 7041  1987 5892 6795  1153 3598 8583  1153 5893 8583  2907 5894 10744  1471 4306 10743  1807 5895 7248  1807 3523 7248  1896 5896 6089  3756 6089 9259  2113 5301 6497  1112 3525 5898  2230 3525 5898  1668 3628 5899  1157 3628 5899  1530 4231 5900  1530 3277 5900  1366 4145 5901  1366 3425 7150  4501 6359 10133  5902 6359 10133  5903 5904 7129  4498 6026 7129  760 4049 5904  1732 4049 5904  486 5905 10076  1992 5905 10076  1856 5906 10314  4820 6624 10314  2666 5216 5907  1375 5216 5907  1772 5274 8329  1772 5908 8329  5909 10635 10636  1463 5909 10636  4594 5909 5910  831 4594 5910  4366 9382 9518  2351 9382 9518  5757 5912 8243  386 5757 5912  1003 3012 5913  1709 3012 5913  4431 5914 5915  584 4431 5914  1674 2905 5915  1326 5915 9679  649 5916 10622  2799 5940 10622  1809 4248 5917  1288 4248 5917  974 4829 5918  974 6146 6656  1773 5735 6449  1773 5919 6449  246 5920 10845  1690 3134 5921  3134 5921 6847  5922 8788 10190  482 5922 10190  655 3228 5923  1690 5922 8788  1489 4212 9993  4212 5924 9993  3170 7797 9398  2316 7797 9398  2409 6108 8421  1700 4251 8420  1701 3580 5927  657 3580 5927  5928 9915 9916  1700 5928 9916  3580 5928 5929  1701 3580 5929  657 3580 5930  1700 3580 5930  1095 5931 9514  1095 7508 8325  1985 5932 6194  531 5932 6194  944 3379 5933  1702 3379 5933  1702 5933 8025  1702 5934 8025  3523 4307 10399  1808 4307 5935  690 3681 5936  3002 5936 10433  3436 9804 10198  1203 3862 5938  3862 5938 6479  1331 4097 5939  1955 4097 5939  1675 3310 5940  649 3310 5940  6233 8229 10417  416 8400 10515  2865 10886 10895  951 5942 10886  1304 3812 5943  2677 5310 9907  3324 5944 10322  4322 5944 10322  1487 3305 5945  1487 4309 5945  929 4472 5946  2194 4472 5946  654 3975 5947  1902 3975 5947  1552 3148 5948  1552 3827 5948  1737 2917 5949  394 2917 5949  2355 5949 10424  854 5950 7813  2916 8252 10054  977 5951 10055  4056 5114 10575  761 4056 5952  1937 6796 8445  1937 5850 8445  1680 5954 7562  1680 3560 6997  1680 3560 5955  3560 5955 6635  1680 2881 5956  957 2881 5956  1784 3754 5957  477 3754 5957  2546 9241 10162  2546 6305 6643  2672 5959 6273  545 5959 9530  1930 3629 5960  1157 3629 5960  2351 6217 9382  1188 6217 9382  5653 7112 9669  2971 10075 10456  2694 5464 5963  996 5464 5963  2401 4170 8649  2401 5964 7639  2098 5830 8545  2098 5966 8545  2097 4019 5966  2098 4019 5966  5706 5967 8526  1671 5967 8526  505 4970 8707  505 5968 8707  1014 3055 5969  1615 3055 5969  2103 3730 5970  675 3730 5970  1842 5971 7050  730 5971 7050  686 3986 10093  686 5972 10093  430 3984 5973  1780 3984 5973  2621 9688 10263  888 5974 9686  3726 7333 8635  600 7333 8635  2635 5976 7144  1370 4724 9625  1824 5977 10498  2821 5977 6564  2057 5214 5978  5214 5978 9594  1592 3132 5979  1804 3132 5979  5876 5980 8838  1678 5876 5980  1873 3939 5981  458 3939 5981  3324 5982 6838  1811 3324 5982  1892 4022 5983  707 4022 5983  2095 5984 9540  758 5984 9540  2086 4034 6281  351 4034 6281  982 5986 10273  2582 5986 10331  2653 3929 9862  1566 8506 9861  1553 3343 5988  640 3343 5988  2720 4081 8156  3768 6998 7234  2332 3590 5990  465 5762 6341  2857 4257 9252  8 7698 10359  3152 5678 9877  1178 3152 5992  1717 3113 9046  1717 5993 9046  1717 5993 10123  1717 5994 10123  899 4036 10581  899 4036 5995  1922 3700 5996  963 3700 5996  1922 3572 5997  503 3572 5997  939 5134 5998  2732 5134 5998  2842 5815 6688  1398 4901 10722  673 6000 7578  6000 6781 7578  1213 6001 8290  2456 6001 8290  1497 5938 8408  4190 7304 10614  2301 6003 9538  2301 6003 7015  3454 6004 10889  3355 6004 6438  2856 5438 6005  679 5438 6005  2616 8205 10077  2652 6525 9704  1692 3236 6007  494 3236 6007  1692 3980 6008  3980 6008 7064  6009 8933 10279  1854 6009 10279  996 3147 6010  1854 3147 6010  1854 6011 10202  6011 7399 10202  674 6012 8230  2573 6012 8230  1074 3593 6013  1687 3593 6013  1687 3032 6014  514 7477 10402  1251 4113 8014  4113 8014 9639  2612 6016 7806  897 4141 9563  377 5766 6017  1781 5766 6017  3391 6018 6019  1131 3391 6018  1503 3895 9414  725 3895 6019  1865 4199 6020  688 4199 6020  1845 4172 6021  1004 4172 6021  1729 4934 6022  4934 6022 6968  1852 3633 6023  3633 6023 9727  2347 5583 6024  984 5583 6024  797 6025 6879  2418 6025 6879  2751 6026 10284  1731 4200 7700  875 6027 7563  2350 6027 7563  358 10034 10239  2600 8133 9633  1763 3844 6029  733 3844 6029  1691 2961 6030  655 2961 6030  5159 6031 8217  973 6031 8217  1848 3485 10028  1723 3485 6032  1723 3485 6033  1034 6033 6455  1452 4432 7375  1452 6034 7375  2288 6044 7722  1685 4104 6044  1242 6036 7888  2244 6036 7888  1898 6534 8413  1732 5103 6037  1150 3188 9743  737 3188 6038  2512 6039 10560  1533 6039 10560  2404 4196 7741  1957 6040 8862  1957 3625 6041  395 3625 6041  2478 6042 7518  2478 4636 6042  1388 3575 8172  3575 6043 8172  1685 6035 7722  1685 6044 7722  1634 5773 6045  2637 5773 6045  2159 7818 7819  1779 6047 7818  1455 5309 6047  1779 5309 6047  2356 6050 10148  2357 6048 6050  450 4796 6531  450 6049 6531  2356 4126 7798  2356 6050 7798  1686 3537 6051  2813 3528 10208  1833 3833 6052  3833 6052 7473  808 5021 6053  2052 5021 6053  6054 6204 8747  451 6054 6204  1351 4477 6055  2921 4477 6055  1708 3240 6056  1059 3240 6056  593 3240 6057  1708 3240 6057  2277 7997 8144  914 7996 7997  1078 3386 6059  3386 6059 8770  369 5880 10475  369 6060 10475  2660 5865 9536  2660 6063 9934  1766 6061 10511  1766 6062 10511  6063 7458 8676  1766 6063 7458  2589 3392 10285  1461 6722 10708  2498 5621 6383  555 5621 6383  6066 10546 10547  1694 6066 10547  853 3574 6067  2178 3574 6067  160 3741 6068  2046 3741 6068  2246 4088 6069  2677 4088 6069  4294 6987 8959  1755 4294 8959  2303 4359 6071  627 4359 6071  2899 6072 6533  593 3202 6536  1068 3588 6073  3247 6073 7725  698 6074 10679  2912 6467 10679  359 3513 6075  1843 3513 6075  2266 8257 9949  1843 6076 8257  3114 4228 6077  1021 3114 6077  1716 3619 6078  669 3619 6078  2451 5243 6079  860 8994 9936  1499 3948 6080  1800 3948 6080  6080 6081 9190  1800 6080 6081  1093 3255 6082  3255 6082 9735  3323 7513 10460  3323 6083 7513  1804 3403 6084  892 3403 6084  2033 3923 6085  729 3923 6085  1756 3723 6086  946 3723 6086  1782 3723 6978  1756 3723 6087  1756 2982 6088  2982 6088 7032  5896 6089 7369  763 6089 7369  1090 3309 6090  1896 3309 6090  813 3994 6091  2515 3994 6091  1377 3113 6092  1640 3113 6092  2151 5124 8699  2151 6093 8699  459 3418 8051  1132 3418 6094  842 3595 6095  1760 3595 6095  1760 3595 6096  1208 3595 6096  550 3763 6097  550 3503 6097  1859 3561 10677  696 3561 6098  1177 6099 10008  1792 6099 10008  527 4311 6100  1792 4311 6100  2472 6101 10389  2472 7339 10389  2562 9209 9210  1001 6102 9209  438 4369 6103  3057 4369 6103  2920 6104 9044  2920 6104 6740  1805 3775 6105  745 3775 6105  1805 3858 6106  578 3858 6106  2694 5276 6107  1265 5276 6107  5564 8220 9475  925 5564 9475  860 6109 9936  2847 8994 9936  5981 6110 9833  1036 6110 9833  6438 7124 9442  792 6438 7124  1831 6112 7043  3567 6112 7043  825 3425 6113  2058 3425 6113  2473 6114 9095  2473 6114 6347  791 3812 6115  1877 3812 6115  4318 6116 7302  1877 6116 7302  990 5855 6117  2783 5855 6117  1718 4444 6118  4444 6118 7804  667 3267 6119  1718 3267 6119  1475 3382 6120  3382 3562 6120  2201 7360 9674  2201 6121 7360  2754 7668 7669  2754 6122 8045  4162 4970 6123  1785 4162 6123  691 7671 8494  691 6124 8047  5986 6125 10331  982 5986 6125  1071 3489 6126  1897 3489 6126  3530 5081 6127  1611 5081 6127  1345 4299 6128  1747 4299 6128  1160 3977 6129  1757 3977 6129  1757 6130 9525  908 6130 9525  2925 5715 6131  4504 7405 8828  1196 3784 6132  1837 3784 6132  472 6133 9788  6133 9787 9788  1508 5258 10091  1508 6134 10091  2758 5393 6135  2758 4699 6135  1213 3918 7075  1213 6136 7075  1613 3352 6137  3055 6491 6884  5974 6138 9686  2163 5974 6138  90 3094 6139  1777 3959 6140  928 6140 6339  927 5430 9869  927 6141 9869  89 6139 6142  3096 6139 6142  5509 6143 8482  1051 6143 8482  986 3450 6144  1891 3450 6144  447 3231 6145  2141 3231 6145  2248 6655 6656  2641 4119 9509  1899 6148 6534  1899 6147 6148  817 5183 6556  817 6148 6556  3038 6149 8648  3038 6149 7683  2326 6588 6834  1803 6150 6588  3126 6150 6151  1803 6150 6151  685 5429 8292  3226 10501 10502  4641 6153 8019  1394 4641 6153  3188 5402 6154  1572 5402 6154  1635 4230 6155  922 4230 6155  506 6173 10879  2167 6156 7450  936 5642 6157  2684 5642 6157  1753 9089 9959  1753 6158 8094  315 4068 6160  316 6159 9171  1753 6159 6160  838 4792 8927  838 6161 8927  609 2941 6162  609 4743 6162  2382 6164 8585  6163 6164 8585  2363 5312 7465  267 6747 7465  3538 9474 10007  627 9474 10007  1845 5023 6166  1111 5023 6166  5031 6393 9229  1790 6167 9229  1961 3856 6168  538 3856 6168  379 3618 6169  1716 3618 6169  953 3476 6170  1716 3476 6170  2455 4957 6171  1289 4957 6171  1452 4582 6174  695 4582 6172  1798 6156 7450  1798 6173 7450  4582 6172 6174  1798 6172 6174  1052 6175 10386  1052 3603 6175  2250 3912 6176  96 3912 6176  1671 5968 6177  2979 5968 6177  1721 3372 6178  3845 5371 8940  1969 3982 6179  424 3982 6179  2158 7714 7715  1969 6180 7714  918 8951 9789  2447 6997 8951  2623 5499 6182  947 5499 6182  1724 3476 6183  953 3476 6183  2397 4146 7790  282 4146 7790  155 3577 6185  156 4259 8084  1972 6187 7824  466 6187 7824  1783 4456 6187  1972 4456 6187  2306 7852 9619  2306 3192 6188  1736 5069 6189  128 6189 9796  6028 8133 9633  877 6190 9634  2537 6398 7693  2389 6191 6398  1431 6192 7365  1431 3205 6192  2885 5494 10477  391 7434 8746  2404 4196 6194  531 4196 6194  112 5350 10242  5350 8518 10242  1801 4079 6196  2908 6196 6445  2458 6197 9662  1192 6197 9662  2644 8301 8302  1788 6199 6602  967 7260 10327  967 6199 6602  1788 6198 7729  1788 6200 7345  2531 5290 6201  2531 6201 6283  3069 6770 9951  1820 5264 7298  3544 6310 6949  950 6310 6949  2051 3475 6204  451 3475 6204  2053 4754 7672  870 4754 6205  1782 3786 6206  3786 6206 6903  1829 3642 9600  1829 6207 9600  2431 4280 6208  849 4280 6208  1749 6209 10512  3531 6210 10512  1749 3530 6210  1124 3530 6210  2715 6211 6314  2715 6211 7584  1496 2974 6212  2974 6212 8493  3630 6213 9424  4481 7328 10156  3549 9140 9247  1606 3549 6214  6215 8072 9385  1755 6215 8072  6070 6216 8587  1044 6216 8587  1952 4317 6217  2351 4317 6217  2807 4272 6218  1341 4272 6218  1000 4934 6219  2540 4320 7974  1927 6220 9817  510 6220 9817  2393 4819 6221  1414 4819 6221  1849 4663 6222  2153 7419 9128  2270 4295 6223  802 4295 6223  4981 6224 8829  1156 4981 6224  2398 7020 9098  1640 6092 6226  1640 3049 6226  1802 3465 6227  457 3465 6227  3465 5556 6228  1802 3465 6228  3735 5860 6229  463 3735 6229  1934 3710 6230  717 3710 6230  2361 4638 6373  2540 6231 8346  515 3646 6232  1858 3646 6232  2799 5600 6233  942 5600 6233  961 3441 6234  2650 7906 8249  2532 5593 6235  424 5593 6235  2423 4203 8370  2423 6236 8370  694 4284 6237  1912 4284 6237  2936 3733 10160  3733 6238 10160  2559 6239 6389  841 6239 6389  2522 6240 7212  907 6659 8073  1146 4256 6241  2085 4256 6241  1866 4597 6242  731 4597 6242  2949 4121 6243  1395 4121 6243  1513 3249 6244  1963 3249 6244  2489 8633 8634  1880 6245 8633  599 3299 6246  1880 3299 6246  1880 3516 6247  940 3516 6247  1796 4844 6248  759 4844 6248  3258 6249 6340  536 3258 6249  2144 6250 9112  973 6250 9112  3030 10150 10151  532 3776 10366  869 4296 6252  2259 4296 6252  242 6253 6514  659 3693 9808  1164 3693 6254  2950 5526 6255  428 5526 6255  1866 3613 6256  556 3613 6256  3379 5596 6257  676 5596 6257  1379 5826 6258  3095 9532 10234  2066 7510 8986  2066 5701 8986  648 3486 6260  1774 3486 6260  3244 6261 10096  1609 8122 10096  1494 3602 10149  608 3602 6262  1853 4074 6263  769 4074 6263  994 5807 7210  994 6264 7210  503 3572 6665  503 6265 6665  1751 4232 6266  4232 6266 9726  1751 3954 6267  662 3954 6267  1945 4837 6268  2815 6268 7027  1707 4302 6269  1707 4550 6269  711 5887 6270  2028 5887 6270  1759 3427 6271  433 3427 6271  1759 6272 9316  706 3000 6784  4037 5487 6273  941 5487 6273  4139 5959 6274  1276 4139 6274  945 7032 8816  2126 7031 7032  2080 4468 6276  906 4468 6276  2803 6277 10888  2803 6277 7036  2801 4937 6278  533 4937 6278  1982 4640 6279  2760 6279 7201  3777 6280 9269  1635 3358 9780  251 3272 6281  2086 3272 6281  1847 6282 6647  972 6282 6647  4320 7974 9085  1000 7974 9085  895 4320 6284  1847 4320 6284  3137 3161 8034  3161 6285 9855  1957 3625 10712  1957 6286 10712  2626 6287 10466  1291 6287 10466  1938 6761 9930  1938 5217 9930  1895 3878 6289  602 3878 6289  3683 9870 9871  1895 3683 6290  1861 3167 6291  3167 6291 7009  6292 9680 9681  1861 6292 9681  5460 6293 9636  702 6293 9636  1768 4027 6294  642 4027 6294  1768 3558 6295  870 3558 6295  2991 6296 7069  1196 8580 10603  998 6297 9251  998 4680 9251  1783 6298 10616  703 6298 10616  2862 4050 6299  2862 6299 7463  645 5422 6300  2227 5422 6300  2698 6301 10085  398 7730 10084  5226 6302 8120  1962 5226 6302  857 4144 6303  2423 4144 6303  1881 5352 6304  5352 6304 9611  2341 7037 7218  2359 7037 7218  1672 5229 10412  3074 6516 7026  3636 6307 8154  3166 9903 9904  2356 4126 6308  614 4126 6308  804 6309 6756  2290 6309 7335  2060 3149 6310  3149 6310 6404  1759 6272 6311  3426 6272 6311  635 4749 9297  635 6312 9297  484 5616 6313  5616 6313 8571  858 3175 6314  2037 3175 6314  2292 3767 6315  724 3767 6315  1001 2864 6316  1583 6316 6566  2647 8854 9575  1973 6317 8854  6318 8854 9115  1205 6318 9115  1973 5382 6319  1069 5382 6319  877 6190 10700  877 6320 10700  1765 3612 6321  524 3612 6321  2795 7174 10307  400 4536 8625  2564 4986 7762  882 6323 9000  1819 3021 6324  1122 3021 6324  1040 7691 8331  2205 5429 8292  2333 8143 10898  2333 4811 10898  695 4582 6327  2563 4582 6327  1594 3401 8315  379 3401 6328  4150 4349 6329  1465 4349 6329  634 5809 6330  2690 5809 6330  1942 4366 6331  710 4366 6331  3234 4947 6332  1706 3234 6332  5598 6333 9389  2393 5598 6333  29 6334 8082  29 8082 10802  2939 5994 6335  1717 5994 6335  821 4539 8572  1338 4539 6336  3004 6769 8443  3004 6337 9222  1812 3959 6338  598 3959 6338  3959 6140 6339  1812 3959 6339  1100 3509 9820  1100 6340 9820  465 5990 6341  2332 5990 6341  1184 6342 7883  1978 6594 7883  586 3993 6974  586 6343 6974  303 7606 10715  2741 8674 9859  1948 6509 8674  648 3486 6346  648 3793 6627  962 6347 8101  962 7179 8101  2587 7110 7111  2014 6348 9292  1279 6349 10701  2272 6349 10701  2414 5794 6350  1435 5794 6350  1760 5416 6547  1760 6351 6547  425 3623 6352  2496 3623 6352  770 4244 6742  770 6353 6742  3362 6354 7998  3364 10553 10709  2511 6355 9792  2511 6355 7107  1850 4243 6356  3138 6356 6631  1250 3972 8400  1250 6357 8400  1784 3257 6358  1086 3257 6358  1867 3181 6359  838 3181 6359  1222 3803 6360  1838 3803 6360  475 5055 6361  2560 5055 6361  430 5973 6362  1956 5973 6362  2652 6363 6525  1886 6363 6525  3200 9180 9182  1874 3200 6364  2603 6365 10487  2603 6365 7533  2122 4124 6366  775 4124 6366  2317 6367 6368  1929 6367 6368  1929 6368 7653  3289 6995 7653  4955 6369 8201  1990 6369 8201  193 8464 10335  2186 6371 10618  392 6371 10618  1175 3371 8127  1175 6372 8127  2361 6231 6373  895 6231 6373  911 4636 6374  2478 4636 6374  2045 3924 6375  1030 3924 6375  2429 6376 8931  1271 3879 8932  2752 6377 9999  2752 6377 8238  4426 6378 8351  958 6378 8351  4143 8135 10568  344 8135 10568  1549 5278 6380  5278 6380 10668  2514 6617 7765  1914 6617 7765  3040 5471 6382  641 5471 6382  2048 4103 6383  2498 4103 6383  901 6384 8530  2354 6384 8530  1787 3810 6385  501 3810 6385  5457 6386 8212  1008 5457 6386  887 5275 6387  1964 5275 6387  1995 6388 9314  976 6388 9314  2344 6439 10655  5147 8182 10655  559 6390 8399  1924 6390 8399  645 3261 6391  1468 3261 6391  2290 5836 7500  2290 6392 7500  2596 4798 7147  1511 6393 9486  960 4182 6394  2634 9014 10290  2440 6395 9608  1225 6395 9608  551 3347 6396  2903 6396 8917  2468 6397 8567  2468 6397 6907  907 6191 6398  2537 6398 6659  1908 4467 6399  4467 6399 8560  1852 3633 6400  1852 3027 6400  693 5935 6401  2058 5935 6401  2245 5172 6653  2245 6402 6653  2681 8970 9832  3085 8970 10646  1905 6404 10597  950 6404 10001  19 6405 10858  357 4757 10260  357 6406 10260  1070 3105 6407  3105 6407 8451  1547 3596 6408  1547 5287 6408  1597 5643 6409  1830 5643 6409  756 4878 6410  2192 4878 6410  1260 4154 6411  3178 4154 6411  2258 6412 7709  686 3509 6413  1789 6340 9820  1654 3543 6980  3543 6980 9880  2749 10171 10172  2749 6415 10172  2403 7153 7981  1872 4396 7153  1560 5269 9196  1560 6417 9196  1113 4551 6418  2375 4551 6418  3478 5640 6419  910 5640 6419  3235 7276 7746  1061 7276 7746  2097 5965 6622  2097 6421 6622  1908 6422 6854  1908 4218 6422  1986 3906 6423  1168 3906 6423  1190 3454 6424  1925 3454 6424  1925 3454 6425  372 3454 6425  2042 4411 6426  755 4411 6426  664 3120 8291  664 6427 8291  1778 5888 6428  5888 6428 7316  1455 4577 6878  4577 6878 9023  2358 6429 6430  2358 6430 6470  2139 3599 6431  455 3599 6431  2995 6133 6432  1216 7785 10472  2834 6433 9864  1944 7017 10317  2439 6372 7530  1910 6372 7530  1846 3752 6435  380 3752 6435  1809 5568 8584  1809 6436 8584  1025 3582 6437  1025 3107 6437  792 6111 7124  1835 6438 9442  2344 6440 7134  2344 6439 6440  2055 4574 6440  440 4574 6440  3049 5744 6441  932 5744 6441  1816 6442 6598  2071 6443 6598  1816 4140 6443  1276 4140 6443  3715 6799 8575  1911 3715 6444  1801 3760 6445  967 6445 8822  495 3760 6446  1801 3760 6446  621 3976 6447  3131 6988 10705  3701 9089 9358  2464 9089 9358  682 5919 6449  682 5284 6449  2019 4464 6450  1192 6197 8971  3737 8333 9517  181 9216 10499  2113 4952 7841  2113 6452 7841  369 3639 6453  2000 3639 6453  39 5701 8176  39 6454 8176  3485 6033 6455  1848 3485 6455  1932 3687 6456  1154 3687 6456  3682 6457 10432  3682 6457 9401  1514 6458 10658  1944 6458 10658  1918 3431 6459  1918 4524 6459  1087 3246 8473  130 6460 8706  572 3969 6461  2294 3969 6461  3984 6462 8563  430 3984 6462  1125 3044 6463  1869 3044 6463  748 3871 6464  1829 3871 6464  3555 6465 7327  3367 6465 10671  1087 3320 6466  3320 6466 6791  1844 3940 6467  698 3940 6467  1512 3203 6468  1068 3203 6468  2313 4385 7108  141 4385 6469  2661 7732 8522  1818 6470 7992  3412 5822 6471  1817 3412 6471  3779 8462 8859  1161 6472 8462  3156 6473 6474  1049 8303 10633  2808 9837 10121  529 6474 10205  406 6475 8148  2673 6475 8148  1821 6573 7699  1900 6476 7699  5655 6477 7326  863 5655 6477  2354 4367 6478  1079 4367 6478  712 3160 6479  3160 6479 7304  3846 5775 8692  1034 2997 9741  2369 8620 8621  1813 6482 8619  1813 5674 6483  1813 6482 6483  137 6483 9812  1423 3642 6484  1423 4376 6484  3171 5971 10088  730 3171 6485  1565 3450 6486  986 3450 6486  1838 3803 6487  366 3803 6487  3802 6360 6488  1838 6360 6488  3050 10639 10640  1287 4559 10639  2194 3837 6490  1623 3837 6490  1615 3055 6491  626 6491 6884  3095 6258 6492  1379 6258 6492  1050 6493 6524  1986 6493 6524  801 3129 9716  1019 3129 6494  2964 4778 6495  1171 4778 6495  808 3894 6496  2273 3894 6496  2113 5897 6497  256 6497 9024  1834 4570 6498  3419 8299 9613  484 6313 6499  3024 6313 6499  3720 6708 9005  1822 3720 6500  748 4376 7165  2105 4376 7165  1391 6502 7118  3238 6502 7118  1353 5202 6503  2271 5202 6503  2124 6505 9218  2107 6505 9218  852 5792 6505  2124 5792 6505  2124 4695 9218  827 4695 6506  2107 6504 8411  2107 6507 8411  1840 4223 6508  2550 4223 6508  2741 3816 8674  3816 6509 8674  3002 4805 6510  420 4805 6510  1960 5656 8916  1960 6511 8916  258 6512 9923  258 3283 6512  3841 6513 9376  97 3841 6513  1874 3200 6514  241 3200 6514  1012 3243 8395  1012 6515 8395  3074 6306 6516  1672 6306 6516  3189 5839 6517  1648 5839 6517  2623 6182 6518  1409 6182 6518  3836 6519 10319  2969 6519 7659  2805 4968 6520  884 4968 6520  1212 6521 10259  2828 6521 10259  2033 3828 6522  389 3828 6522  1127 5142 7282  1482 5142 6523  3158 6524 6944  1986 6524 6944  1054 4870 6525  1886 4870 6525  4214 6526 9236  1136 3018 6526  1056 4085 6527  1828 4085 6527  1420 3486 6528  1420 4679 6528  1896 3309 6529  455 3309 6529  586 3993 8095  586 6530 8095  3079 6531 7229  3079 4796 6531  979 3774 6532  1713 2932 7786  1358 6072 6533  2648 8202 9108  777 6037 8413  777 6534 8413  2236 7930 9942  2236 6147 9942  593 6072 6536  2899 6072 6536  75 3695 6537  645 3385 6716  1078 3385 6538  2204 5616 6539  484 5616 6539  2545 6541 8363  326 4802 8652  326 6540 8652  327 6540 6541  3442 6535 6542  1899 6535 6542  1862 4166 6543  502 6543 7002  702 2985 6544  1862 6544 6870  3190 8392 8641  812 8392 8641  2220 4060 6546  931 4060 6546  361 4206 6547  2057 4206 6547  101 6548 10565  100 6548 7949  445 6549 10204  5398 8141 10204  924 6550 10252  2203 6550 6662  1016 4987 10737  1016 6551 10737  2828 5693 7847  1826 5693 7847  2780 5749 6553  1770 5749 6553  2038 4352 7208  1884 6555 7209  5453 6555 10078  1884 5453 6555  1652 3404 6556  1898 3404 6556  1641 3191 6557  1091 3191 6557  2858 6262 6558  608 6262 6558  874 6559 9900  2004 6559 9900  2896 5685 6560  985 5685 6560  1235 4043 6561  1235 4042 6561  4254 5977 10498  1449 4254 6562  4255 6562 6563  880 4255 6563  1824 3253 6564  401 3253 6564  2555 4873 6565  829 4873 6565  2864 6316 6566  457 2864 6566  6 6567 6568  6 4607 6568  1823 6568 6569  1823 4257 10440  6567 6568 6569  7 6567 6569  133 3300 6570  63 6571 6572  63 6572 9164  1821 4958 9170  1821 6572 9170  6476 6573 7699  864 6476 6573  3912 4262 6574  1534 4262 6574  1597 4911 7125  478 4911 7125  1043 3960 6576  2101 3960 6576  6577 6924 7980  3297 6577 6924  6009 6578 8933  225 6009 6578  618 5078 6579  2894 5078 6579  3964 8693 8694  2371 6581 8693  307 308 6583  308 6581 6583  1904 7904 9564  1904 6582 7996  307 3957 7904  307 6583 7904  3140 8148 10656  1827 3140 6584  3202 6584 6585  1827 6584 6585  3197 6450 6586  1192 6450 6586  450 4796 6587  3421 4796 6587  6152 6588 8554  1803 6152 6588  807 5222 6589  807 5702 6589  1883 3488 6590  542 3488 6590  2065 6591 8062  2312 6591 8426  1369 4865 6592  3185 4865 6592  537 6593 9022  2986 8163 9022  2023 6342 6594  6342 6594 7883  436 3654 6595  2023 3654 6595  6594 6596 8955  758 6596 8955  2629 5065 6597  2629 9265 9266  2071 6598 6759  444 6442 6598  382 6599 10074  2229 6599 10074  2237 5019 6600  1636 5019 6600  1974 4799 6601  1888 4799 6601  1788 6198 6602  2644 6602 8301  414 3799 6603  2050 3799 6603  328 9629 10372  329 4154 9629  552 5047 6605  5047 6605 6607  1166 3364 6606  1890 3364 6606  1559 5048 6607  1890 6607 9709  1485 5236 6608  2833 5236 6608  2529 6609 9985  3743 8033 9985  3038 6610 7683  1694 4290 6633  1025 3806 6611  1863 3806 6611  3106 6611 6612  1863 6611 6612  3151 8192 9099  1015 3820 7768  1914 5648 6959  1914 6614 6959  1283 4051 6615  2189 4051 6615  1804 3132 6616  1160 3132 6616  735 5858 6617  2514 5858 6617  2583 7528 9717  2211 7528 9717  14 6619 6620  14 3857 6620  1868 6620 6621  1868 3062 6621  6619 6620 6621  15 6619 6621  2594 5575 6622  1108 5575 6622  6323 6623 9000  1819 6323 6623  1414 4818 6624  1856 6624 6625  4818 6624 6625  1041 4818 6625  1856 4492 6626  818 4492 6626  1301 3793 6627  2436 7680 8991  497 6555 6628  6555 6628 7209  4274 6629 8316  1172 6629 8316  1454 5032 6630  2329 5032 6630  3127 5079 8499  511 5079 8499  1621 6632 7919  1621 4308 6632  1694 6610 6633  3038 6610 6633  1876 3661 6634  1699 3661 6634  2598 7286 10514  363 7286 10514  1373 6636 10229  1999 6636 10229  1604 5434 6637  2825 6639 7237  2171 3966 6638  892 3966 6638  2825 6637 6639  1604 6637 6639  2840 6922 7874  2840 9299 10496  2398 6225 7573  2398 6641 7573  1515 2956 6642  1515 3780 6642  2359 5706 6643  1670 5706 6643  1308 4406 9928  1032 4406 6644  2160 6645 7832  2731 7001 7857  3389 6646 7842  1959 3389 6646  972 4148 8132  972 6647 8132  720 3650 6648  1858 3650 6648  6232 6649 9593  1858 6232 6649  2840 9299 10497  1909 6650 10496  376 4152 6651  1909 4152 6651  1062 4010 6652  1909 4010 6652  887 6387 6653  6387 6653 9159  747 4317 6654  1952 4317 6654  2248 3928 6655  628 3928 6655  2528 5918 6656  974 5918 6656  3269 6657 9235  674 6657 8230  1975 3995 9303  1975 6658 9303  2522 4525 8073  2049 4525 8073  2049 6659 8949  2049 6660 8949  956 3173 6661  1432 3173 6661  2233 6662 10414  4507 8054 10414  2747 5042 6663  1313 5042 6663  2120 5522 6664  2967 6664 7392  1297 3572 6665  1297 3335 6665  3876 6364 6666  1874 6364 6666  3548 6667 8320  3548 6667 7263  2578 6668 9320  565 6668 9320  1281 3110 6669  2031 3110 6669  4216 6669 6670  2031 6669 6670  388 5094 6671  388 6671 9310  1241 4070 7747  561 4070 6672  980 4071 6673  4071 6673 7747  591 5089 6674  2931 8915 10647  1704 3377 6675  407 3377 6675  1307 6290 6676  2536 6290 6676  5527 6677 8824  1776 5861 10887  2738 5460 9636  2738 6678 6975  461 5704 10520  461 6679 10520  1955 3349 6680  1127 3349 6680  1228 4030 6681  2157 4030 6681  707 3043 6682  1893 3043 6682  458 3939 6683  1893 3939 6683  1893 3043 6684  1007 3043 6684  964 4535 6685  2759 4290 8332  3674 6686 9605  3674 6686 8858  1381 4731 10070  1381 6687 10070  2842 5999 6688  940 5999 6688  3463 6689 6736  542 4634 6689  1030 3179 6690  1870 3179 6690  1870 5186 6691  5186 6691 9052  1616 3354 6692  3354 5299 6692  546 3990 6693  1920 3990 6693  1233 3989 7113  700 3989 6694  6693 6695 7880  1920 6693 6695  2927 6696 6805  431 6696 6805  3369 6698 6913  6697 6698 6913  2480 5577 6698  252 5577 6698  1184 6699 7246  1184 3652 7246  1913 4586 6700  735 4586 6700  1913 2993 9889  1913 6701 9889  2858 5024 7102  2858 7102 10082  1316 4114 6703  2044 4114 6703  3651 6704 10734  3122 6704 6725  2240 5249 6705  1578 5249 6705  2411 4301 6706  1167 4301 6706  3229 4363 6707  3229 10381 10382  1881 3340 6708  1147 3340 6708  980 2886 6709  2886 6709 7616  3725 6710 10710  2688 5975 8635  52 6711 9957  53 3322 10791  2836 7203 10503  948 6712 10505  1165 3764 6713  1878 3764 6713  1878 6714 9995  574 6714 9995  387 3795 6715  1643 6715 8097  3385 6538 6716  1817 6538 6716  2348 4008 6717  1248 4008 6717  1871 4269 6719  1871 6718 6719  110 6719 9824  1871 3386 6720  1078 3386 6720  612 3517 6721  1891 3517 6721  1891 3517 6722  1461 3517 6722  2412 6159 8321  316 6159 6723  2241 4832 7167  1065 7355 10883  2328 5432 7960  2026 5432 7960  2035 4776 6726  4776 6726 7587  1173 3791 6727  3098 6727 7267  2179 5067 6728  1456 5067 6728  2082 4328 6729  970 4328 6729  5537 7547 9764  1939 6730 7754  2871 4617 6731  1492 4617 6731  813 4523 6732  2007 4523 6732  938 5777 6733  2726 5777 6733  2448 6734 6735  753 6734 6735  2075 3951 6735  753 3951 6735  2818 6736 10573  542 6590 9557  2415 3271 6923  373 6737 8834  874 4179 9900  1396 4179 6738  2631 9270 9271  886 6739 9270  2771 8119 10355  415 3222 8119  1974 6741 10726  490 6741 10726  4244 6742 10449  1988 4075 6742  1255 4027 6743  1768 4027 6743  1609 5077 6744  2352 5077 6744  2541 5395 6745  2541 6745 7803  1883 3947 6746  1229 3947 6746  266 5312 7465  266 6747 7465  2486 4879 6748  856 4879 6748  374 6749 9114  2190 6749 9114  1649 5692 6750  5692 6750 7932  1415 4398 6751  2702 4398 6751  394 4976 6752  1926 4976 6752  512 3213 7716  1062 3213 6753  647 3327 6754  1885 3327 6754  1063 3326 6755  3326 6755 7716  2790 4616 6756  1491 4616 6756  5546 6757 9017  721 6757 9017  1323 3290 6758  3290 4403 6758  2463 4446 6759  444 4446 6759  3209 3918 7075  1088 3621 7340  6288 6761 9930  299 6288 6761  901 6762 9730  1938 6762 9730  2287 3777 6763  886 3241 7902  988 5049 8778  988 6764 8778  956 3522 6765  2247 3522 6765  4485 6766 9772  494 4485 6766  2144 4258 6767  785 4258 6767  2009 6768 7014  2199 6768 7013  1923 5504 6769  384 5504 6769  779 3069 6770  3069 9701 9951  5113 6771 7449  3053 10101 10102  521 4016 6772  2805 4016 6772  2428 8665 9179  232 8665 10793  1900 3745 6774  1371 3745 6774  65 6775 8391  1894 3437 6776  834 3437 6776  60 6778 10753  61 6777 7585  1894 6777 6778  1970 6626 6779  818 6626 6779  1693 4251 6780  1693 3366 6780  5054 6501 6781  2105 6501 6781  2919 5774 6782  1634 5774 6782  2689 6783 10136  5516 10049 10136  706 6272 6784  2088 7253 9316  168 5537 8613  168 6785 8613  6785 6786 8613  169 6785 6786  2774 5638 6787  1632 5638 6787  1103 3206 6788  3206 6788 10105  3233 5743 7652  1676 5743 7652  1087 3321 7783  1889 3321 6790  548 3193 6791  1889 6791 6792  3193 6791 6792  1105 3193 6792  2937 6793 6794  1123 4135 10663  3905 5463 6794  572 5463 6794  535 6795 8282  2449 6795 8282  5953 6796 8445  339 5953 6796  1892 3644 6797  1121 6797 9863  2283 4826 9217  540 6798 7893  729 3715 6799  2243 6799 8575  2909 5814 6800  969 6800 7307  2407 8881 8882  759 6248 6802  2878 6802 7100  3429 6803 8035  1188 3429 6803  2487 8035 9120  1950 6803 8035  3649 6803 6805  431 3649 6805  1164 3856 6806  1961 3856 6806  1961 3275 6807  837 3275 6807  1661 5787 6808  1661 5785 6808  4531 4786 6809  821 4786 6809  773 3155 7605  3155 6810 7605  1691 5210 6811  2943 5210 6811  3639 5880 6812  1655 5880 6812  212 6801 8546  3007 6801 6813  3597 7626 7959  1258 7626 7959  583 4428 6815  2726 6815 7636  115 6816 8181  115 8181 10873  1281 3110 6817  1281 4023 6817  2914 4907 6818  598 4907 6818  1943 4035 6819  772 4035 6819  262 3104 6821  263 6820 10302  1943 6820 6821  2013 6545 6822  812 6545 6822  2338 4606 6823  1163 4606 6823  2013 6824 7035  2013 4211 7035  2628 4914 6825  1324 4914 6825  700 3989 6826  1921 3989 6826  1921 3991 6827  399 3991 6827  2564 4986 6828  1332 4986 6828  4430 6308 6829  867 4430 6829  1248 4057 8256  850 4057 6830  1968 4443 6831  81 6831 10696  945 5140 6832  2706 6275 8816  3176 4994 10602  1897 6833 8197  6150 6588 6834  1027 6150 6834  1097 6835 9695  3488 6835 9584  2843 5830 6836  1236 5830 6836  2064 6837 8952  436 4530 6837  1057 3323 6838  3323 10460 10461  632 6686 9605  632 6839 9605  2806 9604 9606  1935 6839 9324  70 4157 6841  2737 5460 6842  919 4651 6940  2500 6843 9689  1227 6843 9689  901 6762 6844  2786 6762 6844  2132 4517 6845  1481 4517 6845  1222 3802 6846  2132 3802 6846  2941 5196 6847  966 5196 6847  2398 6848 9098  878 6848 9098  576 4053 8753  2982 6849 7031  3026 6572 9854  3026 3046 6850  1983 4683 6851  1120 4683 6851  1042 6852 7222  2778 6852 7222  2063 4846 6853  508 4846 6853  2960 4849 6854  421 4849 6854  723 6355 6855  3128 6855 9848  528 4361 6856  2072 4361 6856  2318 4897 6857  4897 6857 8744  1168 3702 6858  2322 3702 6858  1926 4976 6859  1027 6834 8365  4313 4891 6860  1926 4313 6860  4647 6861 7675  432 4647 6861  2220 4502 6862  782 4502 6862  3510 5144 6863  1954 3510 6863  3232 5722 6864  1954 3232 6864  1432 3173 6865  3173 6865 9573  3115 5533 6866  1666 5533 6866  2533 9460 9461  414 6867 7560  1397 3299 6868  1397 4296 6868  624 3977 6869  624 5542 6869  2985 6544 6870  1004 2985 6870  2155 4275 6871  864 4275 6871  2432 8048 9267  4259 8794 9267  379 3618 6873  4656 6873 10748  2035 6726 6874  3122 6726 6874  2530 4171 8467  1928 6876 9996  704 5360 6876  1928 5360 6876  2814 10561 10562  1475 4838 10563  1818 6430 9023  1818 6878 9023  1234 7552 10183  2418 7552 10183  3592 6880 7927  541 3592 6880  2310 4845 6881  4845 6881 10692  1134 3584 6882  2030 3584 6882  2438 6883 7312  708 6883 7312  3055 6137 6884  1613 6137 6884  2169 5162 6885  1507 5162 6885  3263 8643 10686  1919 6888 8193  2575 5088 9595  700 6694 9596  464 3263 8193  464 6888 8193  3820 7768 8377  2554 7768 8377  701 3150 6890  3150 6890 9363  3157 6890 6891  1927 6890 6891  1593 3260 6892  236 6892 10761  402 4092 6893  402 3448 6893  554 5679 6894  3352 5679 6894  2426 5661 6895  1131 5661 6895  917 3673 6896  1931 3673 6896  1931 6896 6897  2454 6897 6898  1931 4192 6898  4192 6898 7200  1148 6899 8511  2279 6899 8511  2871 6731 6900  1580 6731 6900  788 3114 8861  788 6901 8861  3951 7354 9608  2075 3951 6902  703 6298 9238  703 6903 9238  1010 4699 6904  2758 4699 6904  1288 6905 10210  3097 6905 10210  1355 4488 6906  1940 4488 6906  2467 4847 6907  1262 4847 6907  1033 5226 6908  2405 5226 6908  3072 6249 6909  1012 3072 6909  1171 4381 6910  3199 4381 6910  1028 3157 8001  1028 6911 8001  2112 6912 8525  1045 6912 8525  2112 6913 6914  2112 6914 8525  254 6914 8685  504 6915 8012  2330 6915 8012  949 4390 6916  1953 4390 6916  1953 6916 6918  1953 6917 6918  341 6918 8612  3581 4667 6919  1916 4322 8046  3953 6920 9648  2130 3953 6920  2308 4477 6921  1351 4477 6921  647 6754 7874  3214 6754 7874  6737 6923 8834  2004 6737 6923  2569 5677 6924  1075 5677 6924  1025 3106 6925  1507 3106 6925  1372 3928 6926  2248 3928 6926  3732 4045 6927  1996 3732 6927  6786 6928 9825  169 6786 6928  3684 6434 6929  1910 6434 6929  3244 6929 6930  1910 6929 6930  625 3548 6931  2274 3548 6931  2073 6932 7566  2440 6932 7354  2117 6934 9586  2117 6933 9586  495 5886 6934  2117 6935 7951  4100 6933 6935  2117 6933 6935  2954 4680 6936  1554 2954 6936  2216 4975 9038  2216 6937 9038  1098 6938 8681  1098 3332 6938  1832 4382 6939  687 4382 6939  919 6842 6940  2737 6842 6940  762 4963 6941  1963 4963 6941  2260 4059 6942  1264 4059 6942  2519 6789 7652  938 6943 8221  580 3906 6944  1986 3906 6944  4384 6945 10627  4384 6945 9761  3026 6572 6946  1821 6572 6946  873 5012 8602  2572 5012 8602  631 5449 6948  3208 5449 6948  1853 6203 6949  1853 3544 6949  3771 7920 8225  2193 6950 8225  2961 6031 6951  973 6031 6951  433 3427 6952  2370 7988 9933  2084 4645 8278  2084 6953 8278  2804 6977 10539  878 6954 10540  935 5547 10600  2614 6955 9435  1459 5079 6956  3127 5079 6956  437 4552 6957  3181 4552 6957  3925 6958 7588  2081 3498 6958  2391 4283 6959  995 4283 6959  2182 5996 6960  963 5996 6960  4794 5364 6961  1924 4794 6961  3417 6961 6962  1924 6961 6962  1156 3759 6963  1156 4981 6963  1767 5414 6964  2433 5414 6964  3881 6965 9905  1290 5300 9407  3262 5793 6966  709 5793 6966  4429 6967 8200  1596 3111 9326  2276 4589 6968  661 4589 6968  866 6048 6969  2504 6048 6969  934 4115 6970  2305 6970 8233  717 3749 6971  1933 3750 7882  5859 6972 8963  1139 6972 8963  2620 4914 8235  460 4914 8235  1339 4355 6974  2345 4355 6974  6679 6975 10520  1860 6679 6975  1980 4483 6976  859 4483 6976  488 5188 6977  2804 5188 6977  3723 6087 6978  477 6087 6978  641 5471 6979  2915 5471 6979  965 6414 9880  965 6980 9880  2915 5471 6981  1584 5471 6981  3219 7583 8876  1035 3219 6982  2437 4956 6983  578 4956 6983  2283 6984 7894  2283 4826 6984  3536 6985 7538  92 3536 6985  989 3006 6986  3006 6986 8340  670 5875 9896  670 6987 9896  1019 4562 6988  3131 10703 10704  1019 3129 6989  1541 3129 6989  1936 5810 6990  799 5810 6990  1100 6340 6991  3083 7759 9926  1911 4169 8064  1911 3715 6992  1372 5768 6993  2764 5768 6993  1929 4336 6994  4336 6994 8745  1158 4336 6995  1929 4336 6995  942 5600 6996  2724 5600 6996  1680 6997 7562  2447 6997 7562  1211 5989 6998  2720 5989 6998  781 3641 6999  3641 6999 8776  2160 3906 7000  580 3906 7000  2731 6645 7001  2160 6645 7001  4166 6543 7002  2021 4166 7002  2021 4120 7003  988 4120 7003  1006 7004 8287  2761 7004 8287  5567 8298 8899  2502 7005 8298  1562 7006 9901  3538 7006 9473  2087 4568 7007  2909 6800 7307  526 4416 7008  3490 4416 7008  3167 7009 9342  987 7009 10348  1510 4526 7010  1970 5906 9100  3112 4956 7011  1309 4956 7011  2009 6768 7013  2009 7012 7013  885 6650 9322  885 7013 9322  567 3643 7014  2009 3643 7014  2009 3643 7015  1209 3643 7015  1383 4763 7016  4763 7016 10094  948 10036 10318  948 7017 10318  2420 5005 7018  1359 5005 7018  2591 7020 9706  7019 7020 9706  2398 6225 7020  249 7020 9914  2523 7021 9312  1088 6760 9244  1519 4924 10483  352 4924 7022  2570 4755 7023  420 4755 7023  2646 5235 7024  1486 5235 7024  1476 4899 7025  1994 4899 7025  2111 4278 10624  1994 4278 7026  1049 6473 10536  1049 7027 10536  5531 7028 8412  2020 2951 7028  1315 3868 7029  1315 3249 7029  200 5249 8774  2240 5249 7030  2966 7665 9493  2126 7031 7665  2126 6275 7032  6275 7032 8816  3540 9493 9494  1083 7033 8357  965 6414 7034  2912 6414 7034  6824 7035 10380  452 7035 10380  1089 7036 10464  4129 8817 10464  5968 7037 8707  1671 5968 7037  3030 7038 10150  1053 3773 7038  1758 3466 7039  1758 3795 7039  594 3541 7040  2245 3541 7040  1286 3876 7041  1987 3876 7041  872 7042 8495  2365 7042 8495  699 4454 7043  3567 7043 7701  1946 3614 7044  1946 3342 7044  345 4096 7045  2425 4096 7045  3336 7046 7810  646 4289 8579  1696 3435 7047  1081 7047 10571  470 4248 7048  2467 4847 8568  2578 7049 10693  1243 7049 10693  730 4912 7498  730 7050 7498  750 3460 7051  1965 3460 7051  1965 3599 7052  3599 7052 9549  5320 7053 10529  455 7053 10529  2556 8810 10262  2556 7054 9651  3034 5108 7055  1989 5108 7055  903 3927 7056  2363 3927 7056  108 7057 9990  3084 6718 10275  431 3649 7058  1942 3649 7058  3211 7059 7351  2392 7059 7351  1840 7060 9012  1840 4340 7060  1457 4191 7061  1457 3340 7061  2590 7062 9944  1564 7062 9944  930 9560 9892  930 7063 9560  2142 3228 7064  655 3228 7064  3259 6691 7065  451 6691 7065  2791 5758 7066  1261 5758 7066  797 3446 7067  2012 3446 7067  5843 7067 7068  2012 7067 7068  2354 4367 7466  2354 7069 7466  3891 5182 7070  757 5182 7070  4338 7071 10738  3036 4338 7071  1530 4231 7072  1949 4231 7072  375 4077 7073  4077 7073 9447  2030 5482 9142  22 3668 7074  3209 6760 7075  2209 6760 7075  2111 5045 7076  1568 5045 7076  1991 7077 10619  1303 7077 10619  1391 3178 7078  330 3178 7078  582 4837 7079  3779 7079 8860  2228 4740 7080  1406 4740 7080  2388 5193 7081  547 5193 7081  2410 5188 7082  488 5188 7082  3766 7010 7083  665 3766 7083  2479 8864 9343  2146 7084 9343  485 3443 7085  2146 3443 7085  2146 4107 7086  952 4107 7086  2619 4503 8196  1552 7087 9406  3291 4277 7088  1085 3291 7088  2653 5987 7089  672 5987 7089  2923 6282 7090  972 6282 7090  2499 5501 7091  1437 5501 7091  581 4189 7092  2794 4189 7092  3125 7093 9253  2069 3125 7093  928 3078 7094  2069 3078 7094  2962 6035 7095  1685 6035 7095  1224 4016 9635  521 4016 7096  2870 5658 9445  718 5658 9445  3066 4683 7258  1983 4683 7098  1280 4244 7099  2129 4244 7099  759 5361 7100  2067 5361 7100  525 6244 7101  1963 6244 7101  2149 6702 10082  2149 7102 10082  1237 4067 8275  551 4067 7103  1052 2996 7104  2029 7104 7827  1026 3430 7105  2029 3430 7105  6497 7106 9106  256 6497 7106  1972 5250 7107  723 5250 7107  4385 6469 7108  142 6469 7108  1328 4385 7109  2313 4385 7109  3437 9258 10199  992 7110 9258  6348 7111 9292  527 6348 7111  1126 5962 7112  3409 5962 7112  3989 6694 7113  1920 6694 7113  855 7114 9819  2463 7114 9819  732 3349 7115  1955 3349 7115  376 5939 7116  1955 5939 7116  1387 4589 7117  2276 4589 7117  720 6648 7118  3238 6648 7118  4899 7132 9470  1993 7119 9470  1805 3775 7120  1805 6106 7797  1960 4281 7121  767 4281 7121  7122 7940 10349  2175 7122 10349  1255 4026 7123  2175 4026 7123  2040 4593 7124  2782 4593 7124  478 6575 7125  2101 6575 7125  2681 6403 7126  1386 6403 7126  3600 6387 9159  487 3600 7127  7128 8231 10040  2288 7128 8231  1732 5904 7129  1732 4498 7129  3061 7130 7640  2803 7130 10038  1993 3480 7131  3480 9230 9231  1993 5205 7132  739 5205 7132  1073 4395 7133  2018 4395 7133  440 5754 7134  2005 5754 7134  733 3843 7135  2086 3843 7135  2086 3272 7136  3272 7136 8185  1505 7137 10337  1505 3463 7137  2837 5131 7412  750 5027 7398  5718 7139 7140  787 5718 7139  1630 5719 10390  1630 7140 10390  3607 9737 10328  183 3607 7141  389 4476 7142  389 3828 7142  3345 7143 10476  740 7143 8690  522 4703 7144  2183 4703 7144  3163 7621 10236  1116 7621 10236  73 7146 10485  2860 5327 9699  6393 7147 9486  1790 6393 7147  3242 6251 7148  532 6251 7148  2484 5790 7149  1750 5790 7149  825 7150 8925  2390 7150 8925  374 7151 9246  2171 7151 9246  657 3920 7152  657 3366 7152  1872 6416 7981  1872 7153 7981  1055 4725 7154  1964 4725 7154  941 5487 7155  3878 5487 7155  224 7156 7400  223 7156 7400  2550 7157 8875  600 7157 8875  979 4992 8100  979 7158 8100  1292 4093 7159  1981 7159 10253  2311 4639 7160  1024 4639 7160  1765 4551 7161  3496 4551 7161  443 7162 7929  2703 7162 7929  872 5373 10576  872 7163 10576  1801 4079 7164  1245 4079 7164  2106 4543 7165  748 4543 7165  1832 6711 7166  3322 6711 7166  778 4832 7167  778 2999 7167  1433 4869 7168  2476 4869 7168  532 4408 10023  532 3776 7169  1859 3503 10428  550 3503 7170  1974 6601 7171  978 6601 7171  2768 7172 8788  3228 7172 8788  1176 3612 7173  1765 3612 7173  400 6322 7174  6322 7174 10307  508 6015 7175  508 2922 7175  2025 5084 7176  745 5084 7176  18 4588 8886  2025 4588 7177  3775 7176 7178  1336 3775 7178  2155 4275 8101  2155 7179 8101  2002 3162 7180  722 3162 7180  2002 3270 7181  1079 3270 7181  3339 6441 8650  932 6441 8650  913 4614 7183  2263 4614 7183  2118 7184 7483  2118 7483 7484  2639 4909 7185  1558 4909 7185  2931 6674 7186  591 6674 7186  1976 4219 7187  716 7187 7193  1237 4219 7188  1976 4219 7188  1976 3434 7189  391 3434 7189  1345 3337 7190  3337 3973 7190  2592 5763 9103  834 7191 9104  3451 4184 9200  4184 7192 9200  4219 7187 7193  1977 4219 7193  3347 7103 7194  1189 3347 7194  570 3410 7196  1183 3410 7195  3410 7195 7196  1978 7195 7196  2103 5970 7197  5970 7197 10395  2423 4203 7198  1104 4203 7198  1084 3015 7199  2163 3015 7199  1982 4642 7200  734 4642 7200  1982 4192 7201  1071 4192 7201  1263 3874 7202  3104 7202 9878  1878 6712 10505  1878 7203 10505  2057 4206 10320  2434 4206 7204  1525 3479 7205  187 3479 7205  3816 7206 10254  3784 7206 10254  2038 4352 7207  800 4352 7207  1884 6554 7209  1117 6554 7208  6554 7208 7209  2038 7208 7209  1842 6264 7210  1842 5408 7210  4105 6257 9272  676 6257 9272  2044 4114 7212  623 4114 7212  277 3144 7213  3144 7213 7214  2237 4831 7214  276 4831 7214  1664 4779 7215  2901 5014 10612  2472 7216 10613  2472 7216 7339  2618 5218 7217  1488 5218 7217  2341 7218 10903  4972 8439 10903  3070 4779 7219  518 4779 7219  1232 9432 9884  2563 6327 9432  1830 3464 7221  371 3464 7221  2777 4581 7222  2778 9491 9492  77 5619 9359  2156 5619 7223  5619 7224 8892  1535 7224 8892  1989 7225 8375  4971 7225 8375  2534 7022 7226  2534 7226 7681  3946 7227 10265  2215 4925 7352  2169 6885 7873  2169 7228 7873  6829 7229 10148  867 6829 7229  2686 4965 7230  1710 4965 7230  2068 7231 9753  1197 7231 9753  3472 7231 7232  620 3472 7232  2235 3648 7654  3648 7233 7654  2070 3800 7234  1211 3800 7234  4138 8015 9767  2070 3800 7235  314 4068 7236  2070 4068 7236  422 6639 7237  422 4603 7237  2593 4318 7238  1338 4318 7238  718 3135 7239  718 3632 7239  740 4825 7240  2020 4825 7240  4201 7242 9842  7241 7242 9842  234 7242 9033  234 7540 9033  981 4951 7243  3001 7243 9485  1992 3797 7244  940 3797 7244  486 5715 10076  1620 5715 7245  2441 6700 9125  2441 7246 9125  2417 3922 7247  777 3922 7247  5895 7248 8591  2526 7248 8591  1827 4841 7249  1827 3140 7249  3139 4145 10169  3139 4187 7250  447 4682 7251  2042 4682 7251  2042 4682 7252  1067 7669 9193  1759 6271 7253  2678 6271 7253  237 4568 8762  237 7254 8762  7254 7255 8762  238 7254 7255  1021 7661 9912  1021 3114 7256  1160 6129 7257  2190 6129 7257  4683 7098 7258  514 7098 7258  808 3894 7259  808 3864 7259  967 6602 7260  2644 6602 7260  2874 4158 7261  1219 4158 7261  1939 3996 7262  1939 5134 7262  3118 5597 7263  1570 5597 7263  4058 5093 7264  3108 4058 7264  2247 3522 7265  789 7265 7411  2972 4596 7266  562 4596 7266  1173 3792 7267  1997 3792 7267  2402 8277 9752  1566 4746 10591  3611 4605 7269  1443 4605 7269  3809 7270 8577  993 7270 8577  1802 4950 7271  2924 4950 7271  2945 6369 8535  1066 7272 10097  2347 5364 7273  705 5364 7273  1113 3495 7274  1767 3495 7274  1373 4691 10229  404 4691 7275  1061 6420 7746  1999 3235 7276  319 7277 8738  846 3896 7278  1998 3896 7278  1998 5306 7280  41 5306 7279  5306 7279 7280  42 7279 7280  3102 5057 7281  3102 7281 8550  5142 6523 7282  2015 6523 7282  567 3351 7283  2015 3351 7283  3321 6790 7284  728 6790 7284  1243 3380 7285  2008 5037 8547  4024 9337 9543  2598 9337 9543  2947 7109 7287  2313 7109 7287  4684 7288 7290  727 4684 7288  2006 5273 7289  5273 7289 9491  2006 7290 10272  1408 7290 10272  3656 8371 9798  1254 8371 9798  3570 7288 7292  727 7288 7292  2875 9419 9420  2330 7293 10691  1165 7294 9894  1165 3361 7294  2048 6065 7295  2988 6065 7295  1979 4864 7296  712 4864 7296  3526 5824 10619  2063 3526 7297  1820 6202 7298  3069 6202 7298  2965 5480 7299  1839 5480 7299  2017 4822 7301  2017 7300 7301  305 7301 9040  2593 6115 7302  1877 6115 7302  2796 4738 7303  2062 4738 7303  3076 6002 7304  1497 6002 7304  3962 7306 8419  2353 7306 8419  2353 7305 8419  376 3962 7306  2909 7007 7307  2087 7007 7307  3887 7308 7961  1256 3887 7308  1 7310 10788  2 7309 9296  2011 7309 7310  1485 5233 7311  1485 4618 7311  2992 4383 7312  708 4383 7312  716 3788 7313  2054 3788 7313  3815 6413 9416  1012 3815 7314  4365 7315 10316  493 4042 7315  493 5728 7316  5728 7316 7317  1622 4368 7317  2127 4368 7317  1340 3952 7318  3952 7318 10329  1771 5771 7319  3899 5771 7319  545 5007 7320  2206 5007 7320  2206 4233 7321  1009 5796 9301  5007 6143 7322  1051 6143 7322  3666 4756 7323  1472 4756 7323  2203 3738 8438  3738 7324 9587  2034 3384 7325  368 3384 7325  2034 3825 7326  1828 3825 7326  3430 6285 9302  1302 7327 8124  2161 7328 9640  970 7328 9640  2161 4481 7329  800 4481 7329  7309 7330 8226  2 7309 7330  2016 4408 7331  1308 4408 7331  1067 3242 7332  2016 3242 7332  2959 7157 7333  600 7157 7333  2072 4733 7334  1430 4733 7334  804 4733 7335  2072 4733 7335  419 4242 7336  2307 4242 7336  3066 7133 7337  2018 7133 7337  6507 7338 8411  1017 6507 7338  2108 4386 7339  518 4386 7339  1088 6760 7340  3209 6760 7340  615 5345 7341  3013 5345 7341  382 7342 10074  382 3865 7342  3197 6450 7343  724 3197 7343  975 4131 7344  2109 4131 7344  784 4033 7345  2119 4033 7345  2698 5251 9571  1022 5251 9571  1670 5706 8739  1670 7347 8739  500 5678 9713  500 7348 9713  2260 5008 10281  2260 7349 10281  2260 5008 7350  227 7350 10859  825 5294 7351  2392 5294 7351  2215 7227 7352  3946 7227 7352  5686 7353 10564  2896 7353 10564  753 8461 8825  753 7354 8461  2999 7602 10883  2212 7356 7602  3716 7356 7602  1145 3716 7356  1987 3876 7357  796 3876 7357  643 5967 7358  3308 5967 7358  2067 5798 7359  2977 8091 9487  2944 7360 9101  2944 8681 9101  2695 4992 9073  2362 4992 9073  2411 7362 9811  1194 7362 9811  3830 6675 7363  407 6675 7363  3974 6062 7364  2148 3974 7364  3453 7365 9143  3566 7365 9143  6189 7366 7575  128 6189 7366  1031 5042 7367  2747 5042 7367  1238 5394 7368  2024 5394 7368  1159 3491 9692  763 3491 7369  1542 4127 7370  2946 4127 7370  1347 4506 7371  4506 7371 8330  2094 4246 7372  4246 7372 8683  2094 4007 7373  758 4007 7373  2797 7647 10470  1143 7394 8211  388 4432 9310  4432 7375 9310  4086 5982 7376  2150 4086 7376  2150 4086 7377  530 4086 7377  2150 5372 7378  5372 7378 7410  2075 7379 9097  2075 4711 7379  2627 5348 7380  579 5348 7380  5497 7381 8360  589 5497 7381  716 3699 7382  1956 7382 8123  1860 6679 7383  3411 6679 7383  54 8914 10777  54 7384 8914  55 7384 7385  7900 8151 9617  6111 7386 8823  1112 7386 8823  290 5651 8798  2221 3481 9425  2221 7388 9425  641 4117 7389  4117 7389 8431  782 4064 7390  2221 4064 7390  4245 7391 8851  2120 4245 7391  2120 4293 7392  575 4293 7392  2041 4706 7393  1652 4706 7393  1795 4805 7394  4805 7394 10098  1074 3313 7395  3313 7395 9917  1204 3923 7396  2033 3923 7396  1723 6033 7397  2998 6033 7397  750 7138 7398  2837 7138 7398  802 4295 7399  2039 4295 7399  1356 3821 8485  223 3821 7400  3449 7240 7401  2020 7240 7401  650 4418 7402  4418 7402 9300  3099 4665 7403  582 4665 7403  1357 4131 7404  1357 3622 7404  897 6131 7405  2925 6131 7405  2949 6243 7406  1495 6243 7406  2615 4500 7407  3245 7407 9615  981 4951 7408  2100 4951 7408  2100 4951 7409  4951 7409 7946  3502 7409 7410  744 3502 7410  3522 7265 7411  1546 3522 7411  2837 7138 7412  1967 7138 7412  1782 3353 7413  946 7054 9651  1489 5192 7414  2876 8852 9602  5279 7261 7415  1219 7261 7415  4243 4835 7416  2528 4243 7416  1013 5096 7417  3101 5096 7417  5110 7418 9813  219 5110 7418  3072 4663 9128  3072 7419 9128  2953 6186 7420  466 6186 7420  1902 3987 7421  1322 3987 7421  2102 3960 7422  1043 3960 7422  2102 7423 7702  2102 7424 7702  871 4913 8155  2102 3960 7424  1186 3395 7425  2099 3395 7425  2099 5614 7426  5614 7426 9637  3164 7426 7427  588 3164 7427  396 6660 8949  396 7428 8949  562 4596 7430  2091 4596 7430  2367 3778 7430  562 3778 7430  6918 7431 8867  341 6918 7431  1225 4941 7432  2123 4941 7432  775 4065 7433  2123 4065 7433  2123 4066 7434  391 4066 7434  2190 6130 7435  908 6130 7435  908 5305 7436  2559 5305 7436  5624 7346 7437  1022 7346 7437  2134 7439 8672  217 4050 7439  217 7438 7439  7438 7439 8672  2134 4979 7440  801 4979 7440  801 3626 7441  2165 7441 8260  5725 7442 8478  2242 5725 7442  507 3383 7443  1806 3383 7443  2201 7444 9674  525 7444 9674  2141 3231 7445  1059 3231 7445  691 7446 7671  2141 7446 7671  2974 7671 8494  1496 2974 7671  587 3172 8218  2579 4553 9061  3576 7449 10443  1141 7449 9393  506 5258 7450  2167 6134 10091  1310 3910 8748  745 3910 7451  993 5254 7452  2798 5254 7452  2050 3799 7453  1152 3799 7453  717 3710 7454  2050 3710 7454  2050 3710 7455  1193 3710 7455  547 6188 7456  3621 6188 7456  3054 8895 8896  3054 7457 10102  2147 3974 7458  1766 3974 7458  175 7459 7460  175 7460 10829  2195 5426 9001  2195 7460 9001  2195 2948 7461  1050 2948 7461  581 4315 7462  2165 4315 7462  2165 4315 7463  1227 4315 7463  2888 7464 10388  1212 7464 10388  267 6164 7465  2363 6164 7465  483 7093 7466  4367 7093 7466  2133 4032 7467  1582 4032 7467  2250 3841 7468  1182 3841 7468  790 4262 7469  2250 4262 7469  2077 4151 7470  4151 7470 7645  737 5436 7471  2077 5436 7471  356 4094 7472  2138 4094 7472  2138 3155 7473  773 3155 7473  596 3451 7474  1314 4389 8187  3639 6812 7475  1200 6812 7475  1616 5571 7476  2693 5571 7476  2115 7477 10402  2115 3033 7537  2114 5057 9588  2114 7478 9588  1073 4554 7479  2114 4554 7479  2115 3033 7480  783 4763 10094  1081 7481 10571  2506 7481 10571  3221 7482 9095  3221 3222 7482  4099 7184 7483  407 4099 7483  3297 7483 7484  1075 3297 7484  3657 7091 7485  3657 7485 7973  2535 7486 10115  2535 7486 10124  1663 5364 7487  2347 5364 7487  1804 4183 7488  462 4183 7488  1274 4061 10235  663 4061 7489  2675 4467 7490  421 4467 7490  2121 5500 7491  4065 7491 7736  1810 3944 7492  1810 3718 7492  1586 5500 7493  1586 5101 8261  1484 4905 7494  2755 4905 7494  131 4777 7495  2414 5794 10294  2414 7497 10294  2078 5123 7497  464 5123 7497  2713 7050 7498  2719 7498 8787  2297 3928 7499  1372 3928 7499  3423 4903 9703  2059 3423 9703  3359 7501 9075  3763 10010 10129  2583 7496 7502  814 6618 7528  2078 3692 7503  3692 7503 7713  636 7504 7817  636 3889 7817  2761 5834 7561  204 5834 7561  843 5879 7506  2542 5879 7506  2560 5305 7507  908 5305 7507  2904 5688 7508  2904 7508 7826  39 5701 8281  2066 5701 7509  6259 7510 8986  899 6259 7510  4090 7510 7511  1311 4090 7511  5024 7102 7512  2149 7102 7512  4327 6702 7513  418 4327 7513  1335 3109 7514  2321 3109 7514  1365 4359 7515  2303 4359 7515  1449 4254 7516  3216 4254 7516  2303 6071 8898  2989 6071 8898  385 5108 7518  2225 5108 7518  2543 5747 7519  882 5747 7519  2657 6384 9730  722 7180 8376  385 4978 7521  2253 4978 7521  1005 4047 7522  2253 4047 7522  3565 7523 10900  836 3565 7523  5277 7524 8561  1979 5035 7524  2765 5052 7525  1573 5052 7525  1293 3343 7526  1293 3194 7526  1035 3220 7527  1035 3219 7527  814 7502 7528  2583 7502 7528  439 7529 8590  3550 7529 8590  2684 4627 7637  2684 7637 8390  2785 6895 10256  1131 6895 10256  1521 4781 7532  2735 4781 7532  2602 5517 7533  1589 5517 7533  688 3733 7534  2090 7534 7551  1217 3669 7535  2090 3669 7535  5684 7536 7829  2844 3850 7536  2115 7537 10402  3032 7537 10402  1442 6985 7538  4237 7538 8604  991 4304 7539  2626 4304 7539  233 4615 9033  233 7540 9033  3608 8145 10145  2174 3608 7541  809 3890 7542  2174 3890 7542  513 3212 7543  2174 3212 7543  2189 4730 7544  1392 4730 7544  2557 5690 7545  566 5690 7545  5604 9146 10894  3230 7546 7670  1014 5969 7547  3056 5969 7547  386 5757 9205  3573 5757 9205  5386 7549 8766  1039 5386 7549  601 3979 7550  2131 7549 8766  3733 7534 7551  1094 7551 10161  2772 4004 7552  1234 4004 7552  2330 3956 7553  2330 3909 7553  2082 3303 7554  3303 8489 9495  4319 10467 10707  2225 4319 7555  5366 7555 7556  2225 7555 7556  2032 3736 7557  543 3736 7557  2766 5127 7558  1567 5127 7558  3233 6943 7559  2235 6943 7559  2074 4969 9214  2074 7560 9214  205 4865 7561  2761 4865 7561  653 5848 7562  5848 7562 8950  3901 4435 7563  2350 7563 7799  494 5580 8152  2574 5580 8152  2534 7022 7565  352 7022 7565  3689 6932 7566  571 3689 7566  1152 3983 7567  2073 6932 8461  1144 4345 7568  2334 4345 7568  6312 7569 10648  1250 7569 10648  453 4717 7570  2216 4717 7570  1102 4048 7571  2216 4048 7571  1579 5230 7572  2481 5230 7572  1151 3748 7573  3748 6225 7573  2443 8136 8265  24 8136 10841  3246 6460 8706  3246 3936 7575  2181 3287 7576  3287 7576 7828  2181 3646 7577  515 3646 7577  4377 7578 7579  673 4377 7578  2105 4376 7579  1423 4376 7579  2124 5791 7580  366 5791 7580  3057 4369 9601  4369 7581 9601  1245 4078 7582  4078 7582 9972  761 5059 7583  2204 5059 7583  2204 5059 7584  1531 5059 7584  6777 6778 7585  60 6778 7585  2055 4574 7586  2055 4953 7586  2424 4928 7587  383 4928 7587  1214 3931 7588  2081 3931 7588  1101 3498 7589  2081 3498 7589  2884 5106 7590  1400 5106 7590  2959 5779 7591  1020 5779 7591  2692 7592 9878  261 7592 9891  2138 3833 7593  1089 3833 7593  1211 3800 7594  2079 3800 7594  2514 6965 7595  1290 6965 7595  3080 6046 7596  1779 6046 7596  2372 4391 7597  399 4391 7597  1574 5166 7598  2255 7598 7599  5166 7598 7599  665 5166 7599  4975 7571 7600  2217 4975 7600  3523 7601 10399  693 7601 10399  2212 7355 7602  7355 7602 10883  2137 3156 7603  529 3156 7603  3414 7603 7604  1099 3414 7604  2137 3432 7605  773 6052 8897  302 10715 10731  302 7606 10715  2203 5031 7607  1511 5031 7607  746 4839 7608  4103 4839 7608  5554 7609 7610  638 5554 7609  2263 5694 7610  1879 5694 7610  1163 4606 7611  2257 4606 7611  2287 4653 7612  461 4653 7612  3238 6648 7613  1858 6648 7613  1282 7407 7614  3245 7407 7614  1281 4215 7615  2446 4215 7615  850 4057 7616  2089 4057 7616  504 4845 7617  2310 4845 7617  606 4373 7618  606 3035 7618  603 4677 7619  3206 7619 9991  3013 5345 7620  1551 5345 7620  2824 7621 8874  1116 9405 10296  1362 4543 7622  2106 4543 7622  1501 4479 7623  2231 4479 7623  634 5447 7624  2231 5447 7624  4714 8265 10661  25 8265 10661  3534 4054 7626  3534 7626 8868  2744 7627 10672  4478 9777 10672  2088 7628 10064  1643 5793 7628  2151 5310 7629  5310 7629 9907  3344 7089 7630  672 7089 7630  2143 4402 7631  4402 7631 10143  354 4921 7632  2143 4921 7632  4370 7631 7633  1300 4370 7633  3320 6791 7634  2286 3320 7634  2838 6302 7635  1962 6302 7635  583 6815 7636  3015 7636 10263  355 7530 8390  355 7637 8390  145 5630 7638  3182 5630 7638  2300 5208 7639  828 5208 7639  2300 4625 7640  523 4625 7640  1473 4625 7641  2300 4625 7641  826 4824 7642  2224 4824 7642  2224 7642 10747  2224 7643 10747  1117 3508 7644  2177 3508 7644  2177 3508 7645  410 3508 7645  800 4352 7646  2177 4352 7646  517 5683 10469  517 7647 10469  171 4220 7648  2322 4220 7648  795 3184 7649  2188 3184 7649  4729 7650 7651  1392 4729 7650  5168 7651 10099  442 5168 7651  3233 6943 8221  3233 7652 8221  417 4658 7653  3289 4658 7653  4658 7654 7855  2235 4658 7654  1341 4272 7655  2296 4272 7655  1533 4894 7656  2096 4894 7656  2096 3698 7657  738 3698 7657  683 4140 7658  683 4037 7658  4613 7659 10019  2841 7659 7963  4767 6000 7660  673 6000 7660  2739 9910 9912  5026 9910 9969  1198 3708 7662  2110 3708 7662  3551 7662 7663  2110 7662 7663  3449 7240 7664  3449 7664 9482  7033 7665 8357  2126 7033 7665  4473 4905 7666  1484 4905 7666  1035 3218 7667  3218 7667 8180  2187 5120 7668  836 5120 7668  2754 6122 7669  1067 6122 7669  2816 7670 10434  810 7670 8219  1496 7447 7671  2141 7447 7671  4754 6205 7672  2051 6205 7672  783 4763 7673  2116 4763 7673  859 5877 7674  2104 5877 7674  2220 6862 7675  2704 6862 7675  2173 4484 7676  529 4484 7676  3414 4484 9065  2173 4484 7677  614 3145 7913  2173 3145 7678  1980 4121 7679  3823 7679 9192  1420 6346 7680  2436 6346 7680  2528 4243 7681  1060 4243 7681  2338 4238 7682  538 4238 7682  819 4129 7683  2196 4129 7683  6149 7684 9881  2196 6149 7684  3426 6272 7685  706 6272 7685  2980 4646 7686  983 4646 7686  918 4425 7687  2249 4425 7687  2249 4425 7688  4425 7688 9655  2145 3770 7689  1205 3770 7689  2145 4095 7690  4095 7690 9574  2145 3273 7691  3273 7691 10501  4024 7514 7692  2321 7514 7692  1280 3926 7693  2389 3926 7693  1644 4790 8661  1644 7694 8661  3799 7560 7695  2074 7560 7695  1642 6330 7696  2690 6330 7696  1684 6341 7697  2332 6341 7697  3929 5991 7698  5991 7698 10359  1821 4958 7699  1900 4958 7699  1731 6026 7700  2751 6026 7700  699 7043 7701  699 3207 7701  457 7423 7702  457 2864 7702  1270 5013 7703  2180 5013 7703  2180 5013 7704  5013 7704 10101  1980 4483 7705  1980 4121 7705  1434 3035 8605  3035 4869 7706  196 6412 9950  2258 6412 7707  1066 7708 10699  7708 10698 10699  3067 5146 10642  2258 7708 10698  2208 7710 9620  1105 7710 9620  857 3840 7711  3840 7711 7712  2589 9620 9683  2208 9620 9683  2787 9938 9939  1128 7962 9938  4252 7714 9962  1969 4252 7714  6180 7714 7715  923 6180 7715  3213 6753 7716  1885 6753 7716  1829 3871 7717  1279 7717 10701  3573 5757 7718  1744 5757 7718  2521 9254 9394  2182 7719 9394  2262 4038 7720  780 4038 7720  2387 5438 7721  1561 5438 7721  4965 7128 7722  2288 7128 7722  3280 6793 7723  1123 6793 7723  2129 3048 7724  563 3048 7724  1068 3203 7725  2218 3203 7725  2218 3203 7726  616 3203 7726  2218 3332 7727  1098 3332 7727  3089 9015 10732  3089 10732 10733  1788 7345 7729  2119 7345 7729  2698 9571 10084  2368 7346 9571  2267 5579 7731  3487 9366 10559  876 6470 7992  876 7732 7992  5678 7733 9877  2268 7733 9877  786 5224 7734  2268 5224 7734  3024 6313 7735  2037 6313 7735  2121 4067 7736  1237 4067 7736  551 4067 7737  2121 4067 7737  2468 4723 7738  847 4723 7738  2651 4848 7739  2651 7739 8250  1647 3558 7740  1647 3475 7740  6040 7741 8862  980 6040 7741  4036 5995 7742  1922 5995 7742  1864 4866 7743  4866 4886 7743  3497 5637 7744  512 5637 7744  3739 5803 7745  1240 7745 9582  1850 4835 7746  3235 4835 7746  4070 6672 7747  1903 6672 7747  1647 5340 7748  1647 3558 7748  826 3047 7749  2223 3047 7749  1085 2975 8476  1085 7750 8476  520 2975 7751  2223 7750 8476  679 5438 7752  2387 5438 7752  2395 8368 8369  2286 7753 8368  2732 5134 8465  1939 5134 7754  1334 4006 7755  3190 4006 7755  1421 5285 7756  1421 4890 7756  1301 3793 7757  1653 7757 9646  273 7758 7994  2273 7758 7994  1411 7759 10745  3083 7759 10745  1011 4953 7760  4953 5305 7760  2535 7761 10465  629 7761 10465  3022 4917 7762  585 4917 7762  1697 7763 10575  1697 3868 7763  1711 5716 7764  2995 4108 10471  3376 7595 7765  1914 7765 9631  472 5716 7766  2717 5847 9893  3890 7767 7890  3831 7767 7891  1015 6613 7768  3151 6613 7768  2184 4014 7769  337 4014 7769  1439 4936 9409  1031 4936 7770  3261 6001 7771  2456 6001 7771  3278 8631 8759  544 3278 7772  3374 7773 10508  1084 3374 7773  2493 8163 8164  2493 8163 10341  1906 7743 7775  1906 4369 7775  2230 4644 7776  793 4644 7776  1454 3306 7777  2140 3306 7777  5033 7777 7778  2140 7777 7778  824 4161 7779  4161 7779 7780  1266 4159 7780  2136 4159 7780  2136 4159 7781  358 4159 7781  2272 4544 7782  564 4544 7782  3321 7284 7783  1736 7284 7783  3620 5588 7784  1022 5588 7784  2767 7785 10249  1216 3942 10250  2932 6532 7786  979 6532 7786  2885 4055 10230  2152 4055 7787  2274 3547 7814  2152 3547 7788  571 3689 7789  2152 3689 7789  283 3811 7790  2397 3811 7790  1906 7581 7791  1906 3852 7791  3769 7792 9698  2595 7792 9698  1962 5056 9935  1962 7793 9935  3818 7794 7796  1266 3818 7794  2135 4161 7795  824 4161 7795  3165 7796 9904  549 3165 7796  2316 6106 7797  2316 5925 9398  866 5130 7798  4126 5130 7798  3901 7563 7799  449 3901 7799  1295 3316 7800  2350 3316 7800  1793 7801 8686  1793 4267 7801  3342 6813 7802  210 3342 7802  2518 4444 7803  997 4444 7803  359 3513 10480  359 7804 10480  821 4786 7805  2213 4786 7805  2213 5353 7806  368 5353 7806  4082 4552 7807  2733 4082 7807  2852 5338 7808  830 5338 7808  880 4255 7809  2154 4255 7809  1601 5446 7810  2154 5446 7810  2154 4255 7811  1449 4255 7811  2355 4313 7812  1498 4313 7812  4893 7812 7813  854 4893 7813  3547 7788 7814  752 7788 7814  353 4538 7815  1975 4538 7815  931 4690 10706  931 7816 10706  2269 7504 7817  2984 7817 7839  1779 6046 7818  6046 7818 7819  479 4178 7819  2159 4178 7819  513 3212 7820  2547 4246 10071  2623 6518 7821  1825 6518 7821  1426 4705 9285  816 4705 7822  5620 7058 7823  2320 5620 7823  4241 7824 8966  466 7824 8966  5732 7825 8430  793 7825 8430  2889 5546 7826  1095 5546 7826  2996 4773 7827  555 4773 7827  1047 3524 9453  1047 7828 9453  1114 3186 7829  2172 3186 7829  2172 4413 7830  1380 4413 7830  694 3850 7831  2172 3850 7831  1168 6645 7832  1168 3906 7832  2543 4902 7833  568 4902 7833  191 4410 7834  1576 4410 7834  1361 4054 7835  1361 4671 7835  1714 4532 7836  1714 4343 7836  2383 4758 7972  2383 5644 7837  3171 6485 7838  1882 6485 7838  2800 10516 10517  942 7839 10516  1250 3972 7840  3972 7840 10517  1045 8631 8759  1045 7841 8631  459 3690 7842  2207 3690 7842  2207 4013 7843  4013 7843 9076  3389 7842 7844  2207 7842 7844  2705 6070 8587  2457 7845 9809  1440 7846 10391  2849 7846 10391  535 5892 7847  2828 5892 7847  2324 7849 8018  2324 7848 7849  4017 7954 9548  4017 9548 10122  613 5162 7850  2169 5162 7850  2060 3544 7851  489 3544 7851  934 4520 7852  2306 4520 7852  2306 6188 7853  547 6188 7853  2306 4520 7854  1467 4520 7854  3288 3757 10557  3289 7855 10558  3743 7856 8033  683 3743 7856  854 4893 7857  2396 4893 7857  820 7894 9059  820 5184 9059  2284 5183 7859  817 5183 7859  2227 5317 7860  5317 7860 8289  6001 6300 7861  2227 6300 7861  892 4686 10340  892 7862 10340  1600 4961 10267  1600 7863 10267  2237 7214 7864  3144 7214 7864  874 4163 7865  2159 4163 7865  826 3433 7866  2222 3433 7866  2222 3291 7867  405 3291 7867  3461 7866 7868  2222 7866 7868  2291 4361 7869  528 4361 7869  801 7870 9716  2166 7870 9716  2166 4188 7871  1269 4188 7871  4188 8468 9539  2166 4188 7872  3139 4145 7873  754 4145 7873  2840 6640 7874  647 6640 7874  842 4394 7875  3685 4394 7875  1431 3566 7876  630 3813 10137  997 4571 7877  1718 3267 8000  2232 5375 7878  1064 5375 7878  844 4305 7879  2232 4305 7879  1208 3595 7880  3595 7880 7881  842 5591 7881  5591 7881 9616  1933 6971 7882  3749 6971 7882  3653 7196 7883  1978 7196 7883  1988 5681 8009  1412 4418 9300  3921 7885 8596  1814 3685 8636  6728 7886 8582  401 7886 8582  1253 4143 7887  2425 4143 7887  2244 7888 8174  2244 3405 8174  2200 6155 7889  922 6155 7889  809 4026 7890  2176 4026 7890  2176 4028 7891  411 4028 7891  3829 5811 7892  1689 5811 7892  4521 7858 7893  540 4521 7893  7858 7894 9059  2283 7858 7894  3767 7343 7895  1241 7895 8396  1053 7896 8171  1053 4102 7896  1430 4734 7897  2226 7897 7898  4734 7897 7898  453 4734 7898  3105 7899 7900  1070 3105 7899  56 7900 8151  2541 5395 7901  644 5395 7901  2631 6763 9270  2287 6763 7902  1478 4653 7903  2287 4653 7903  1904 6583 7904  3765 7904 9564  1947 4062 7905  1263 3874 8169  443 4334 7906  2650 4334 7906  1084 3374 7907  2725 3374 7907  733 3970 7908  3970 7908 9160  922 3058 7909  1502 7909 8157  2198 4564 7910  590 4564 7910  1445 4564 7911  2198 4564 7911  1742 5660 7912  3005 5660 7912  3145 7678 7913  1341 7678 7913  5002 9452 10066  2302 5002 7914  45 5002 9626  45 7915 9626  7915 7916 9626  46 7915 7916  2302 7914 9592  2302 7917 9592  1997 3792 7918  721 3792 7918  689 4310 7919  689 4325 7919  2994 9189 9224  591 7920 10531  3484 6950 7921  756 3484 7921  34 4863 9580  34 7922 9580  7922 7923 9580  35 7922 7923  1042 4164 7924  2264 4164 7924  2436 6627 7925  1301 6627 7925  1706 3234 7926  2185 3234 7926  2185 3234 7927  1206 5631 9330  5781 7926 7928  2185 7926 7928  1332 3686 7929  2703 8117 8118  6535 7930 9942  389 6535 7930  1137 3624 7931  1137 5228 7931  823 4575 7932  4575 7932 8684  977 5135 7933  2916 5439 10055  2711 4078 7934  1245 4078 7934  2323 4353 7935  1257 4353 7935  4104 7935 7936  848 4104 7936  4353 5934 7937  2323 4353 7937  692 7938 8584  692 3985 7938  1780 3984 7939  1390 5696 8563  5553 7542 7940  2335 5553 7940  1219 4158 7941  2335 4158 7941  2335 4158 7942  4158 7942 10654  3557 7943 10456  3282 5653 9669  429 3569 7944  3569 4672 7944  2622 4806 9721  2332 7697 9720  2309 4291 7946  1106 4291 7946  3001 7948 10223  152 7947 10556  2309 7947 7948  2304 3664 7949  100 3664 7949  934 4851 7950  2304 4851 7950  2117 6934 7951  5886 6934 7951  1931 3673 7952  1071 3673 7952  845 7953 9139  2782 7953 9139  1344 7954 10507  2645 7954 10507  3168 5368 7955  1186 5368 7955  2205 6325 7956  1040 8331 9478  2205 5429 7957  1346 5429 7957  1487 5072 7958  1487 5012 7958  3346 7959 9850  3597 7959 9850  383 5609 7960  2328 5609 7960  2724 5914 7961  584 5914 7961  2787 8975 9938  2319 7963 8975  971 9937 10020  971 7963 8975  2211 7964 10893  1396 7964 10893  2743 5585 7965  2062 5585 7965  456 5424 7966  2230 5424 7966  245 4674 10323  3446 4674 7967  4020 7472 7968  2197 4020 7968  3482 7969 7970  1544 3482 7969  2197 4129 7970  819 4129 7970  2383 4758 7971  1091 4758 7971  2383 7837 7972  883 7837 7972  1611 5675 9784  896 5675 7973  2540 6219 7974  1000 6219 7974  2046 3741 7975  1493 3741 7975  3087 7976 10510  868 7976 10006  566 7545 7977  3519 7977 9028  4716 4925 7978  3529 4716 7978  3678 6330 7979  3678 5423 7979  1376 4184 7980  2569 4184 7980  3330 8489 9495  2403 3330 9495  2825 4604 7982  1016 4604 7982  2785 5519 7983  851 5519 7983  473 4747 7984  473 4339 7984  1868 3062 7985  1336 3062 7985  3350 4152 10360  1127 3350 7986  605 3578 7987  2007 7987 10891  2370 4061 7988  1274 4061 7988  3681 7374 7989  690 3681 7989  1969 3982 7990  1969 4252 7990  707 6682 7991  3082 6682 7991  1818 4578 8592  1818 7992 8592  1636 6496 7993  2273 6496 7993  4842 7993 7994  2273 7993 7994  1515 2956 7995  786 7995 9187  2551 6426 8104  2551 7997 8104  914 6058 7997  6058 7997 8144  574 7998 9429  3362 7998 9429  1360 5893 7999  3727 5893 7999  3267 7877 8000  997 7877 8000  2495 6911 8001  2495 8001 10332  1272 3553 8002  1620 3553 8002  1584 5011 8003  2327 5011 8003  1043 4638 8004  2573 4638 8004  2573 6373 8005  895 6373 8005  890 4525 8006  3121 10245 10288  883 5645 8007  2385 5645 8007  2760 5199 8008  1275 5199 8008  1677 5681 8009  1677 3755 8009  7621 8010 8874  3163 7621 8010  3719 6253 8011  242 6253 8011  3306 3909 8012  2330 3909 8012  2202 4676 8013  1102 4676 8013  1808 6015 9639  1808 8014 9639  2079 4138 8015  2079 3800 8015  981 7408 8016  2823 7408 8016  2084 3725 8017  520 3725 8017  2645 7849 8018  1201 8657 8956  2324 3886 8019  848 3886 8019  2176 4026 8020  1255 4026 8020  179 3093 8656  1438 8021 8324  3504 5336 8313  1354 5336 8313  1761 5862 10057  1761 8023 10057  492 3694 8024  2036 8024 10604  467 5625 8025  2606 5625 8025  364 4153 9864  2295 4153 8026  2295 4741 8027  1569 4741 8027  3018 8027 8028  712 7296 9427  1669 4146 8029  2397 4146 8029  2397 3811 8030  1304 3811 8030  742 4922 8031  3945 4922 8031  4442 5606 8032  348 5606 8032  1816 6442 8033  2529 6442 8033  3161 6285 8034  1026 6285 8034  1950 6804 8035  6804 8035 9120  1409 4591 8036  1409 4438 8036  2365 4773 8037  1425 4773 8037  555 4773 8038  2365 4773 8038  900 5236 8039  2663 5236 8039  2239 4480 8040  524 4480 8040  2239 3612 8041  1176 3612 8041  2389 5071 8042  1149 5071 8042  3029 4660 10551  2254 4660 8043  836 3565 8044  2254 3565 8044  2254 4660 8045  1446 4660 8045  1916 6919 8046  3581 6919 8046  1785 4162 8047  2364 4162 8047  6872 8048 9267  157 6872 8048  849 4280 8049  2432 4280 8049  2254 8043 8050  2254 3565 8050  3418 6094 8051  1834 6094 8051  2610 4889 8052  1421 4889 8052  2605 8053 9152  1139 8053 9152  1347 4505 8054  2233 4505 8054  2233 4505 8055  558 4505 8055  1716 3618 8056  1178 3618 8056  423 5456 8058  1712 5456 8057  5456 8057 8058  2219 8057 8058  3256 5058 8059  1512 3256 8059  1946 3614 8060  731 3614 8060  2612 7806 8061  368 7806 8061  2065 3531 8062  1124 3531 8062  1082 3737 8063  1082 3406 8063  1911 6992 8064  3923 6992 8064  538 3856 8065  2257 3856 8065  3693 4885 8066  2257 4885 8066  5825 8486 10215  1532 4815 8068  3224 4815 8068  1322 4977 8069  3266 4977 8069  2566 5075 8945  1710 3897 8071  1710 4965 8071  2308 4294 8072  1755 4294 8072  907 6240 8073  2522 6240 8073  2217 8074 10354  3138 8074 10354  904 4106 8075  4106 8075 9971  2345 3371 8076  936 3371 8076  2483 5275 8077  887 5275 8077  2483 8077 8742  409 4775 8078  5275 7154 8079  2483 5275 8079  1865 4199 8080  1865 4021 8080  1483 3293 8081  1483 4035 8081  4784 6334 8082  2475 4784 8082  3722 8082 8083  2475 8082 8083  4259 6185 8084  155 6185 8084  772 8085 9823  772 4035 8085  2238 4412 8086  1380 4412 8086  2043 3765 8087  3765 8087 9565  2151 5124 8088  3133 5124 8088  1841 5808 9527  1841 8089 9527  1169 4933 8090  3251 4933 8090  2977 7359 8091  2067 7359 8091  1642 3679 8092  1642 3469 8092  1363 4546 8093  4546 8093 8433  855 7114 8094  2464 7114 8094  2158 8095 9962  2158 3993 8095  1646 3478 10080  1810 3478 8096  3795 6715 8097  3000 3795 8097  2955 5818 8098  1697 5818 8098  2683 4134 8099  1303 4134 8099  2362 5445 8100  2362 4992 8100  2014 6347 8101  2014 4275 8101  2349 5513 8102  1603 5513 8102  3216 4254 8103  768 4254 8103  7251 8104 8416  2042 7251 8104  3705 4238 8105  2338 4238 8105  2935 5591 9616  546 4509 9520  3407 5335 8107  1528 5335 8107  2315 5341 8108  794 5341 8108  1147 3340 8109  1457 3340 8109  2474 5176 8110  1023 5176 8110  2474 4201 8111  1197 4201 8111  3240 6585 8112  1827 6585 8112  2965 7299 8113  782 7299 8113  3306 8012 8114  504 8012 8114  3785 4684 8115  3785 8115 9261  1385 3133 8116  1385 8992 9318  1331 4493 9838  4493 9838 10356  2703 7929 8118  1332 7929 8118  415 6740 8119  6740 8119 10355  398 4853 8120  2405 4853 8120  755 4407 8121  755 4411 8121  6261 8122 10096  1609 3540 8122  3699 7194 8123  1189 7194 8123  2378 5765 8124  3430 5765 8124  524 6321 10336  524 8125 10336  3521 3762 8126  3521 10683 10684  2439 5642 8127  3371 5642 8127  2918 3782 8241  790 8128 10673  2252 5572 8129  443 5572 8129  4935 8128 8130  790 8128 8130  2847 5287 8131  1547 5287 8131  2531 8132 10168  4148 5801 8132  1775 6190 9634  1775 8133 9634  2792 4143 8135  2792 8135 9758  2792 9690 9758  344 8134 8135  24 7574 8136  7574 8136 8265  1134 8137 10261  2443 8137 10261  564 8068 8139  3224 8068 8139  2625 7782 8139  564 7782 8139  2443 4714 8140  1279 4714 8140  445 4312 8141  2243 4312 8141  2243 4312 8142  4312 8142 8768  6326 8143 10898  120 6326 8143  1708 5383 8144  2277 5383 8144  3608 7541 8145  1187 7541 8145  3090 9015 10732  3090 8146 9015  3360 5467 8538  3360 8147 8538  3140 5175 8148  2673 8148 10656  279 3217 8150  280 8149 8642  2259 8149 8150  55 7385 9617  55 8151 9617  2923 6007 8152  494 6007 8152  3636 8153 8154  860 3636 8153  2452 8154 10413  1038 8154 10413  2101 4913 8155  2101 3960 8155  2720 8156 8598  1009 8156 8598  3058 7909 8157  3058 8157 10053  2360 5832 10177  2360 8158 10177  2280 4797 8159  4797 8159 9325  2280 4228 8160  1707 4228 8160  2280 4516 8161  33 4516 8161  652 3374 8162  1519 3374 8162  537 7774 10341  537 8163 10341  1119 4375 8164  2493 4375 8164  4593 7953 8165  2493 4593 8165  2579 4553 8166  1343 4553 8166  2733 4556 8167  894 4556 8167  1683 5751 8168  2622 5751 8168  3874 7905 8169  1947 7905 8169  1159 5394 8170  3492 5394 8170  2275 3773 8171  1053 3773 8171  2275 4698 8172  1388 4698 8172  2793 8173 10164  222 8173 10163  4082 7888 8174  437 4082 8174  2244 3407 8175  3407 8107 9879  1764 5263 8176  1764 5701 8176  2290 7335 8177  2072 7335 8177  1814 4687 8178  1814 3810 8178  432 4039 8179  4039 8179 9483  2401 5964 8180  1563 5964 8180  2346 5351 10407  2346 8181 10407  4123 7292 8832  1575 4123 8182  2590 3634 9944  373 3634 8183  2924 4950 8184  1746 4950 8184  2480 4694 8185  1223 4694 8185  2480 3369 8186  954 3369 8186  1314 7474 8187  3451 7474 8187  1016 4604 10299  4604 8188 10299  937 8189 10559  2267 8189 10559  2266 5579 8190  1121 6797 8259  2267 8190 8191  1121 8191 8258  3151 6613 8192  1863 6613 8192  1919 6886 8193  3263 6886 8193  1154 3687 8194  2433 5163 8488  714 8195 9190  714 3373 8195  2881 5955 8196  363 5955 8196  3176 5161 8197  1092 5161 8197  147 4919 8198  2298 4919 8198  1342 4263 8199  2298 4263 8199  367 3938 8200  1769 3938 8200  3180 6370 8201  1990 6370 8201  2648 6533 8202  1358 6533 8202  2536 5332 8203  5332 8203 9051  1054 8204 9704  2616 8204 9704  2652 6006 9704  1041 6006 8205  373 8183 10077  373 8206 10077  3270 8207 8376  2657 8207 8376  1025 3582 8208  2553 3582 8208  469 5734 8209  2553 5734 8209  3806 8192 9099  2553 3806 9099  1143 7374 8211  2797 8211 10470  1787 6386 8212  1787 4450 8212  1438 4788 8213  2261 4788 8213  177 4229 8214  2261 4229 8214  2378 7327 9240  2378 8215 9240  2378 3603 8216  1052 3603 8216  2470 4939 8217  973 4939 8217  2579 7448 9061  3123 7448 8218  2816 5003 8219  1464 5003 8219  1693 4251 8220  2409 4251 8220  2519 5777 8221  938 5777 8221  2746 4076 9627  2746 8222 9627  932 5744 8366  5744 8366 9550  2089 4057 8224  1248 4057 8224  3771 8225 8273  1218 6950 8225  2446 7615 9032  2446 8226 9032  3 8226 8227  1989 4047 8228  1989 5108 8228  416 5941 10515  1675 5941 8229  3269 8004 8230  2573 8004 8230  1394 4641 8231  2288 4641 8231  799 4897 8232  2318 4897 8232  4115 8233 8852  959 8233 8852  1246 3919 8234  2328 3919 8234  2109 3622 8235  2620 3622 8235  3223 6098 8236  2281 3223 8236  3104 7592 8237  261 7592 8237  2751 5610 8238  1625 5610 8238  2321 4193 8239  2321 4565 8239  2749 6415 9136  3225 8240 10171  8128 8241 10673  2252 8128 8241  10 8242 8506  4746 8242 8506  1744 4817 8243  1744 5757 8243  958 6864 8244  3510 6864 8244  2753 3667 9173  2868 4012 8246  851 4012 8246  2674 5420 8247  1330 5420 8247  611 3429 8248  611 4529 8248  2650 6234 8249  961 6234 8249  1064 7878 10304  1064 8250 10304  246 5920 10181  246 8251 10181  2916 5439 9712  3542 8252 10054  3713 8323 9628  1491 3713 8253  1246 5453 8254  3627 5453 8254  833 5448 8401  833 8255 8401  4057 6830 8256  1968 6830 8256  5579 6075 8257  1843 6075 8257  8190 8191 8258  2266 8190 8258  3043 4999 8259  3043 4022 8259  1269 3626 8260  1269 4189 8260  1107 5101 8261  2902 8917 9882  5667 8262 8319  184 5667 8262  2885 8263 10230  1140 8263 10230  661 4589 8264  2711 4589 8264  25 7625 10661  2443 4714 8265  1064 3497 8266  2157 3497 8266  1181 3311 8267  3311 9123 10667  2173 7676 8268  2808 8268 10205  1944 3855 8269  739 3855 8269  837 5646 8270  2434 5646 8270  1447 4916 8271  2294 4916 8271  754 3696 8272  2167 3696 8272  3436 8273 9804  1218 8273 9804  1368 4508 8274  1368 3712 8274  4067 7103 8275  1977 7103 8275  3866 8076 8276  936 8076 8276  7268 8277 9752  12 7268 8277  1389 8278 10309  1389 4645 8278  4619 8279 9243  2293 4619 8279  4030 8280 10339  1228 4030 8280  5701 7509 8281  38 7509 8281  4621 4727 8282  2449 4621 8282  644 3629 8283  644 5395 8283  2442 5636 8284  5636 8284 9086  3098 7096 8285  521 7096 8285  2317 7808 8286  830 7808 8286  3071 5834 8287  2761 5834 8287  3398 7443 8288  1806 7443 8288  2532 4740 8289  771 4740 8289  1213 3917 8290  3917 8290 8442  2497 6427 8291  3120 8291 8981  2205 7956 8292  3226 7956 8292  1301 4801 8293  3688 4801 8293  2936 5324 8294  438 5324 8294  2693 5726 8295  1651 5726 8295  2839 4559 8296  831 4559 8296  1713 3204 8297  656 9578 10220  3498 7005 8298  3498 5567 8298  2700 6498 8299  1834 6498 8299  2450 4577 8300  1455 4577 8300  6198 6602 8301  1076 6198 8301  3388 8301 8302  3388 8302 9561  1049 7027 8303  3155 8303 10633  6905 8304 9544  569 4249 8304  2270 3976 8305  1356 3976 8305  621 3976 8306  2270 3976 8306  3543 5886 8307  495 5886 8307  3871 7717 10701  748 3871 8308  4544 8309 9986  2272 4544 8309  2475 5066 8310  2475 4784 8310  2822 5425 8311  1466 5425 8311  789 5377 8312  789 4447 8312  2779 8313 8638  3504 8313 8638  669 3005 8764  2552 3005 8314  3401 6328 8315  1724 6328 8315  1172 8316 9572  1172 8654 9572  536 3258 8317  2486 3258 8317  2925 5715 8318  486 5715 8318  185 3758 8319  2278 8319 8793  1118 3547 8320  2274 3547 8320  6159 6723 8321  317 6723 8321  2412 4130 8322  1330 4130 8322  6857 8323 9260  651 8323 9260  3093 8021 8324  1393 3093 8324  1095 8325 9514  4284 8325 9514  1836 5911 8326  2351 5911 8326  3748 8327 8328  1151 3748 8327  8251 8328 10181  247 8251 8328  1750 5791 8329  1750 5274 8329  822 4344 8330  2180 4344 8330  3045 6325 9478  3045 8331 9478  2759 6685 8332  964 6685 8332  2863 6451 8333  1528 6451 8333  569 4249 10117  1289 4249 8334  1160 7257 8335  3402 7257 8335  1784 3753 8336  1174 3753 8336  3851 7814 8337  752 7814 8337  3916 5179 8338  3916 8338 8615  756 4156 8339  756 6410 8339  835 6630 8340  2329 6630 8340  2329 5032 8341  567 5032 8341  1465 3081 8342  1604 3081 8342  1316 4337 8343  4337 8343 10478  839 4602 8344  2282 4602 8344  474 3853 10478  1199 3853 8345  2361 6575 8346  478 6575 8346  1199 5329 9454  1199 3853 8347  563 6670 8348  3731 6670 8348  468 4150 8349  2289 4150 8349  3899 8349 8350  2289 8349 8350  5722 8351 8359  958 5722 8351  392 6192 8352  3205 6192 8352  1479 5130 8353  2503 5130 8353  3028 7145 8354  1116 7145 8354  963 3700 8355  2448 3700 8355  2118 4033 8356  784 4033 8356  2966 5522 8357  1083 5522 8357  2296 4327 8358  2296 4272 8358  2340 4343 8359  1714 4343 8359  2080 7381 8360  2080 6276 9188  3590 5990 8361  2385 5990 8361  2772 5843 8362  1662 5843 8362  1314 4389 8363  2545 4389 8363  719 3424 9147  2710 3424 8364  1027 6859 8365  4976 6859 8365  3037 7182 8366  932 7182 8366  5514 8367 10081  1104 8367 10081  2395 4807 8368  2286 4807 8368  7753 8368 8369  955 7753 8369  548 4807 8370  4203 4807 8370  3158 5419 8371  5419 8371 9213  623 5450 8372  623 4114 8372  3199 7337 8373  2018 7337 8373  2495 3564 8374  1115 9308 10125  1005 4047 8375  1005 4971 8375  722 7520 8376  2657 7520 8376  2501 3820 8417  3820 8377 8417  2299 4861 8378  4861 8378 10010  919 4861 8379  2299 4861 8379  1413 4503 8380  2598 4503 8380  1603 3422 8381  1185 3422 8381  3295 7479 8382  2114 7479 8382  2375 4814 8383  1239 4814 8383  2424 4928 8384  2424 5871 8384  678 4465 8385  3356 4465 8385  1360 3467 8386  3467 8386 8387  853 6067 8387  2508 6067 8387  2508 4401 8388  293 8388 10474  3455 8389 10125  4392 8389 10125  2439 5642 8390  2439 7530 8390  4958 6775 8391  64 4958 8391  812 6545 8641  2337 3190 8392  2337 4006 8393  403 4006 8393  1162 3705 8394  2337 3705 8394  1976 7187 8395  3243 7187 8395  3767 7895 8396  2292 3767 8396  4175 8397 9582  2292 4175 8397  4070 8396 8398  2292 8396 8398  3419 6962 8399  1924 6962 8399  416 3670 8400  3972 8400 10515  1598 5633 8401  2458 5633 8401  1247 5572 8402  3571 7519 9922  1629 8403 8404  2407 8403 8404  3007 6801 8404  2407 6801 8404  1415 4400 8405  1415 4399 8405  516 5062 8406  2506 5062 8406  5062 7181 8407  1079 7181 8407  1497 6002 8408  3363 6002 8408  865 3897 8409  1621 3897 8409  4719 5217 8410  297 4719 8410  2108 7338 8411  2108 6504 8411  5530 7401 8412  2020 7401 8412  1898 5103 8413  5103 6037 8413  1683 4242 8414  419 4242 8414  441 8455 8637  4040 8455 8637  2277 8104 8416  2277 5383 8416  378 3823 8417  2501 3823 8417  1291 5607 8418  3869 9345 9347  844 4493 8419  3962 4493 8419  1700 5926 8420  2409 8420 8421  5926 8420 8421  481 5926 8421  738 3698 8422  3698 8422 8437  336 5461 8423  336 4014 8423  2244 3405 8424  1082 3405 8424  3586 8425 10224  2312 3586 8425  6591 8062 8426  1124 8062 8426  3591 8426 8427  617 3591 8427  186 8428 8845  3016 4513 10448  3016 8429 10448  2788 7776 8430  793 7776 8430  2704 7390 8431  2221 7390 8431  2704 4117 8432  1582 4117 8432  592 4209 8433  2336 4209 8433  541 5900 8434  3277 5900 8434  2676 4321 8435  1352 4321 8435  471 3628 8436  1668 3628 8436  1189 3347 8437  2594 3347 8437  3738 7324 8438  915 7324 8438  1548 4970 8439  2341 4970 8439  2186 8440 10618  2186 4557 8440  106 8442 10807  107 8441 10872  2456 8441 8442  3004 6337 8443  984 6337 8443  705 3417 8444  1610 3417 8444  338 5850 8445  338 5953 8445  5063 8446 10535  1669 5063 8446  2231 5448 8447  833 5448 8447  1085 2975 8448  2688 2975 8448  2688 6710 8449  1220 6710 8449  2972 6407 10158  2427 6407 10158  2427 8451 8452  2427 8450 8452  58 8452 9093  2484 7149 8453  852 7149 8453  2127 4360 8454  798 4360 8454  441 4526 8455  2315 4526 8455  3471 8108 8456  1270 3471 8456  6197 8255 8457  2459 6197 8457  2274 3851 8458  1571 8458 9157  1651 5727 8459  2702 5727 8459  4926 8460 8984  1310 4387 8460  2073 7567 8461  3983 7567 8461  4451 6472 8462  3779 4451 8462  1300 3807 10426  1300 4370 8463  3180 4410 10335  192 4410 10335  5134 7754 8465  2125 7754 8465  1946 3266 8466  209 8466 10798  1928 6875 9219  577 6875 8467  2349 5403 8468  5403 8468 10313  5869 8469 9057  863 5869 8469  2317 5743 8470  2317 3999 8470  846 5100 8471  1586 5100 8471  1264 5170 8472  1264 4059 8472  3246 6460 8473  1855 6460 8473  1210 8350 8474  4314 8350 8474  1283 5399 8475  3300 5399 8475  2223 7751 8476  2975 7751 8476  2722 8477 9418  1419 8477 9418  2129 4244 8478  770 4244 8478  1136 3456 8479  4214 9236 10110  1110 7059 8480  3499 8954 9670  1432 7146 8481  2860 7146 8481  2673 8482 10656  1051 8482 10656  2387 4788 8483  1438 4788 8483  2297 3893 8484  3893 4907 8484  3821 7400 8485  2039 7400 8485  153 8067 10215  153 8486 10215  3222 5521 8487  1202 9075 9119  2433 8194 8488  3687 8194 8488  3303 7554 9495  1348 3303 8489  516 4260 9126  516 5034 8490  3428 8491 8492  663 3428 8491  3427 6952 9933  1086 3427 9933  2364 4971 8493  1005 4971 8493  691 8047 8494  2364 8047 8494  2988 8038 8495  2365 8038 8495  2802 5714 8496  1523 5714 8496  1539 5925 8497  2316 5925 8497  2316 6106 8498  578 6106 8498  1850 6420 8499  3127 6420 8499  1214 3925 8500  2408 3925 8500  2408 3314 8501  767 3314 8501  2408 5401 8502  1572 5401 8502  4558 8440 10618  2325 4558 8503  1041 4818 8504  3019 4818 8504  2488 5603 8505  5603 8505 10538  1566 4746 8506  3941 8506 9861  1826 6551 10737  1826 4475 8507  5263 5306 8508  40 5263 8508  2326 4380 8509  2326 5223 8509  1669 3511 8510  281 3511 8510  2853 8511 8512  1148 8511 8512  2778 5273 8512  1148 5273 8512  2413 5802 8513  1644 5802 8513  2413 3892 8514  544 3892 8514  3253 5061 8515  1361 5061 8515  1790 6167 8516  4919 6167 8516  2367 4982 8517  1448 4982 8517  3914 7757 8518  1653 7757 8518  3346 6814 8519  1437 6814 8519  736 6658 8520  3724 6658 8520  2983 5999 8521  1398 5999 8521  1235 4043 8522  2661 4043 8522  2386 3677 8523  1191 3677 8523  3554 5433 8524  470 5433 8524  3279 6452 8525  1045 6452 8525  2359 7037 8526  1671 7037 8526  1984 7387 8527  2976 7387 8527  550 7170 10075  4861 10010 10011  2752 5174 8529  943 5174 8529  2991 7069 8530  2354 7069 8530  214 8532 10842  215 8531 9207  2500 8531 8532  2162 5519 8533  4452 5519 8533  1781 5766 8534  3208 5766 8534  2945 7272 8535  1451 7272 8535  1734 5902 8536  2491 5902 8536  3237 4155 8537  1260 4155 8537  4041 8538 9437  4041 5467 8538  2331 5073 8539  1318 5304 9531  4404 8539 8540  387 4404 8540  3567 7701 8541  1594 7701 8541  2251 4808 8542  568 8542 10209  1115 8374 8543  3564 8374 8543  1046 4545 10521  1046 8544 10521  2843 7657 8545  738 7657 8545  6801 6813 8546  211 6813 8546  2008 7285 8547  3380 7285 8547  543 5659 8548  3804 8548 8658  7397 8549 10376  324 8549 10376  3011 8078 8550  409 8078 8550  2696 5891 8551  511 5891 8551  5891 7600 8552  2696 5891 8552  1271 8553 9144  2638 8553 9144  2326 6588 8554  2326 4380 8554  3470 8285 8555  521 8285 8555  578 4956 8556  3112 4956 8556  1780 5973 8557  2054 3788 9529  2444 5510 8558  832 5510 8558  2444 5510 10723  2444 8559 10723  2675 6319 8560  1069 6319 8560  664 5277 8561  664 4297 8561  2668 5528 8562  1327 5528 8562  1390 7939 8563  3984 7939 8563  2014 6347 8564  2473 6347 8564  1567 5127 8565  2342 5127 8565  5036 7589 8566  2342 5036 8566  562 3778 8567  2468 3778 8567  2467 7048 8568  470 7048 8568  893 4208 8569  2339 4208 8569  1294 3373 8570  1294 4329 8570  2715 6314 8571  2037 6314 8571  4539 6336 8572  2214 6336 8572  1002 4652 8573  2746 4652 8573  2749 8240 10171  2746 8574 10172  3715 6444 8575  1145 6444 8575  1174 5490 8576  1174 3753 8576  993 5254 10104  993 8577 10104  533 4937 8578  3250 4937 8578  646 7046 8579  3336 7046 8579  1940 4488 8580  1196 4488 8580  2411 7362 8783  2411 8581 8783  2821 6564 8582  401 6564 8582  295 3294 8583  295 3598 8583  3044 7938 8584  3044 5568 8584  268 3848 8585  2382 3848 8585  1241 7895 8586  1241 4071 8586  7845 8587 9809  1044 7845 8587  3318 6412 8588  196 6412 8588  465 5990 8589  465 4648 8589  1502 4177 8590  1502 3550 8590  448 5242 9041  448 8591 9041  2661 4043 8592  711 4043 8592  539 3254 8593  3067 8593 10699  2458 5633 8594  560 5633 8594  843 4599 8595  2416 4599 8595  2416 4600 8596  501 4600 8596  3721 8595 8597  2416 8595 8597  5989 8598 9729  1009 8598 9729  3025 7380 8599  579 7380 8599  2186 4557 8600  2186 3873 8600  4186 8601 9705  2839 8601 9705  2571 4996 8602  873 4996 8602  2449 7041 8603  969 3877 8870  1442 7538 8604  1442 3441 8604  3035 7706 8605  1054 7706 8605  1575 3794 8606  1575 4123 8606  652 3961 8607  3961 4253 8607  3729 7195 8608  1183 7195 8608  2911 8609 9361  388 8609 9361  2352 3661 8610  1876 3661 8610  2352 5077 8611  726 5077 8611  6917 6918 8612  340 6917 8612  2125 6786 8613  2125 5537 8613  2565 4630 8614  1374 4630 8614  4630 8615 9373  2565 4630 8615  4709 6560 9968  82 4109 8618  82 8616 8618  83 8616 8617  8616 8617 8618  2348 8617 8618  1813 6481 8619  2369 8619 8621  1283 3416 8620  2369 3416 8620  6481 8619 8621  795 6481 8621  3313 4354 8622  1170 10017 10315  3533 4536 8623  1419 4536 8623  3663 6609 8624  2529 6609 8624  3397 7174 8625  2471 3397 8625  959 5192 8626  2471 5192 8626  3213 5637 8627  1555 5637 8627  2879 8628 8629  570 8628 8629  570 5653 9841  570 8629 9841  3583 8630 9048  540 3583 8630  2442 8284 8631  3278 8284 8631  2489 4862 8632  486 4862 8632  2489 3516 8633  1880 3516 8633  6245 8633 8634  869 6245 8634  2688 8449 8635  3726 8449 8635  3685 7885 8636  501 7885 8636  2394 4820 8637  441 4820 8637  579 5348 8638  3504 5348 8638  3940 7582 8639  1844 3940 8639  862 8640 8924  862 6350 8924  2336 4209 8641  3190 4209 8641  8149 8150 8642  279 8150 8642  3263 6886 8643  1046 6886 8643  2918 5292 8644  1534 5292 8644  537 5493 8645  3252 5493 8645  2470 5159 8646  413 5159 8646  452 8647 10491  452 10380 10381  1010 6633 8648  3038 6633 8648  3218 5345 8649  615 5345 8649  2549 5659 8650  3339 5659 8650  1723 4802 8651  4802 8651 8652  6540 6541 8652  2545 6541 8652  1371 3394 8653  1371 3771 8653  2927 6748 9572  2927 8654 9572  2571 5890 8655  667 5890 8655  3093 8656 9141  178 8656 9141  1201 8018 8657  2645 8018 8657  543 3736 8658  2379 3736 8658  2379 4633 8659  827 4633 8659  1273 4633 8660  2379 4633 8660  2723 4694 8661  954 4694 8661  2012 4674 8662  245 4674 8662  546 8106 9520  2935 8106 8663  3623 6516 8664  1672 6516 8664  232 6773 8665  6773 8665 9179  4615 8110 8666  1023 8110 8666  2065 3586 8667  476 3586 8667  2384 4759 8668  1500 4759 8668  353 3393 8669  2384 3393 8669  883 4759 8670  2384 4759 8670  3751 7159 8671  1981 7159 8671  218 3965 8672  2134 3965 8672  2950 6255 8673  1749 6255 8673  1948 6345 8674  6345 8674 9859  3545 6824 8675  1163 6824 8675  697 6063 8676  697 5307 8676  3480 4898 9230  1198 4898 9230  104 8678 9279  4447 7411 8679  1546 7411 8679  2079 4138 8680  1276 4138 8680  1098 4371 9101  1098 8681 9101  3720 6708 8682  1147 6708 8682  2547 4085 8683  1056 4085 8683  1349 4391 8684  2372 4391 8684  6913 6914 8685  253 6913 8685  473 4909 8686  473 4747 8686  2831 5096 8687  601 3979 8839  1238 3492 8688  2893 3460 10652  3121 8006 8689  890 8006 8689  3345 7143 8690  2111 3345 8690  990 5669 8691  2978 5669 8691  3606 5775 8692  1682 8692 9960  6580 6581 8693  309 6580 8693  1358 4732 8694  2371 4732 8694  2027 4185 8695  1287 4185 8695  666 5005 8696  2420 5005 8696  2059 5443 8697  2059 3423 8697  3438 5132 8698  360 3438 8698  285 5124 10528  2440 6932 10435  2440 8700 10435  1428 3631 8701  3631 4194 8701  590 4564 8702  2721 4564 8702  2438 6883 8703  1569 6883 8703  2992 7312 10393  2438 7312 10393  390 4983 8705  2867 4983 8705  3246 7575 8706  129 7575 8706  2341 7037 8707  2341 4970 8707  410 3508 8708  2636 3508 8708  37 2933 10792  2933 8709 8710  36 8710 8711  3195 7923 8711  35 7923 8711  2811 9793 9794  2811 8712 8713  271 8713 8714  2812 8713 8714  2812 8714 8945  1905 4588 8715  18 4588 8715  3526 5824 8716  619 5824 8716  853 4463 8717  4463 8717 9750  5415 8622 8718  1170 8622 8718  481 5415 8719  2509 5415 8719  3954 7643 8720  2224 7643 8720  1259 4053 8721  4053 8721 8753  1207 3717 8722  2460 3717 8722  1205 3770 8723  2460 3770 8723  2460 3770 8724  3770 8724 10548  1693 5564 8725  2636 5564 8725  3649 6803 8726  1188 6803 8726  2609 5015 8727  111 5015 8727  3413 7199 8728  2163 7199 8728  312 4940 8729  2720 4940 8729  4081 8729 8730  311 4081 8730  3001 8731 9485  2596 8731 9485  2393 6221 8732  822 8732 8733  6221 8732 8733  2394 6221 8733  1820 4052 8734  1820 5264 8734  2431 4572 8735  1277 4572 8735  421 3564 8736  2495 3564 8736  1134 8138 8737  3224 8138 8737  7277 8738 9694  318 8738 9694  643 5706 8739  1771 3900 9725  2525 4620 9375  2382 4620 8740  2382 4620 8741  903 4620 8741  1384 4774 8742  1384 4775 8742  3087 7976 10006  3087 8743 8943  2374 4336 8744  1158 4336 8744  2374 5267 8745  704 5267 8745  391 6193 8746  2885 6193 8746  2052 6054 8747  2052 5022 8747  3910 7451 8748  2060 7451 8748  1076 8146 8749  3360 8146 8749  2342 8565 8750  2342 5036 8750  2499 6256 8751  3805 10334 10572  2325 5336 8752  1179 5336 8752  6849 7031 8753  2399 6849 8753  384 5656 8754  3348 5656 8754  3570 7292 8755  2005 7292 8755  2396 4893 8756  1498 4893 8756  4892 8756 8757  554 4892 8757  2764 6024 8758  984 6024 8758  3278 7772 8759  2164 7772 8759  3281 7078 8760  330 7078 8760  1032 6345 9859  1032 4091 8761  2087 7255 8762  2087 4568 8762  1638 4363 8763  4363 4478 8763  3005 8314 8764  1741 8314 8764  1185 4768 8765  3356 4768 8765  2131 7550 8766  3979 7550 8766  445 3075 8767  2380 3075 8767  2380 4633 8768  1273 4633 8768  3859 6506 8769  827 6506 8769  912 4889 8770  2610 4889 8770  3032 4995 8771  1058 4995 8771  668 4848 10741  668 8772 10741  4033 7484 8773  1075 7484 8773  5249 7030 8774  199 7030 8774  1556 5109 8775  2376 5109 8775  1190 6424 8777  1925 6424 8776  6424 8776 8777  2376 8776 8777  2045 3865 8778  2045 5049 8778  2603 5755 8779  889 5755 8779  6038 8780 10410  737 6038 8780  3338 4598 8781  681 8781 9284  1754 4157 8782  1754 5874 8782  3589 5795 8883  3589 8783 8883  1493 4514 8784  2498 4514 8784  2498 4514 8785  1026 4514 8785  2835 5590 8786  1203 5590 8786  2713 4904 8787  1387 4904 8787  1690 5923 8788  3228 5923 8788  1921 3989 8789  1233 3989 8789  781 3068 8790  1556 3197 9356  2116 4763 8791  1383 4763 8791  2462 5421 8792  855 4165 8921  3758 6224 8793  1156 6224 8793  1277 4259 8794  2432 8794 9267  827 4695 8795  2465 4695 8795  366 3803 9775  1222 3803 8796  5154 5946 8797  2194 5946 8797  2976 7387 8798  289 7387 8798  546 4509 8799  2421 4509 8799  2421 5227 8800  1233 8800 8803  2422 5227 8801  857 5227 8801  857 5227 8802  2421 5227 8802  5227 8800 8803  2422 5227 8803  3338 8781 9284  1138 3338 8804  1612 3958 9898  1190 3958 8805  1441 4600 8806  1441 4998 8806  4059 7350 8807  227 7350 8807  5459 7962 8808  2576 5459 8808  2576 5459 8809  893 5459 8809  1695 5354 8810  2556 5354 8810  2556 5354 8811  355 5354 8811  3124 4837 8812  1320 4837 8812  139 8813 9237  4385 5006 8814  140 5006 8814  2614 3146 8815  935 9435 10600  2706 6832 8816  945 6832 8816  4020 7593 8817  1089 7593 8817  3082 6682 8818  1893 6682 8818  1815 4037 8819  683 4037 8819  4811 5465 8820  118 5465 8820  4541 6009 8821  224 4541 8821  2789 6199 8822  967 6199 8822  2827 3525 8823  1112 3525 8823  654 3950 8824  1776 3950 8824  3983 8461 8825  2074 3983 8825  2441 6614 8826  995 6614 8826  1573 3837 8827  1573 5051 8827  2854 6016 8828  897 6016 8828  1525 3479 8829  1525 4981 8829  2733 4082 8830  1242 4082 8830  1200 3746 8831  2809 3746 8831  4123 8182 8832  2344 8182 8832  2415 3271 8833  862 3271 8833  2415 5125 8834  373 5125 8834  1434 5125 8835  2415 5125 8835  557 3512 8836  3286 3512 8836  1558 7185 8837  1558 3903 8837  3832 5870 8838  3832 5876 8838  601 8687 8839  2831 8687 8839  2566 8945 10904  269 8070 8840  1327 4830 8841  2403 4830 8841  2400 5451 9566  839 4602 8842  1588 5451 8843  2400 5451 8843  5312 5313 8844  265 5313 8844  3758 8428 8845  185 3758 8845  991 5503 8846  2627 5170 9545  754 6034 8847  754 4145 8847  944 5933 8848  2606 5933 8848  923 6180 8849  2552 6180 8849  3978 8804 8850  1138 8804 8850  1129 3198 8851  3292 8851 10685  959 5192 9602  959 8852 9602  1952 4529 8853  1410 4529 8853  2647 8854 9115  1973 6318 8854  1100 3509 8855  2419 3509 8855  2419 5582 8856  367 5582 8856  1477 5582 8857  2419 5582 8857  2658 5381 8858  1916 5381 8858  2658 3674 8859  1161 3674 8859  582 4665 8860  2658 4665 8860  2279 4180 8861  3114 4180 8861  2404 4288 8862  1957 4288 8862  2479 6078 8863  669 6078 8863  953 6170 8864  2479 6170 8864  3768 7236 8865  313 3768 8865  2406 4069 8866  1405 4069 8866  342 4069 8867  2406 4069 8867  2510 7973 9202  2510 8868 9202  3534 5498 8869  617 5498 8869  3877 8603 8870  2449 8603 8870  2401 7639 8871  2401 4170 8871  675 6642 8872  3780 6642 8872  1236 3116 8873  3116 5468 8873  1153 5689 8874  2824 5689 8874  5975 8875 9671  600 5975 8875  3219 6982 8876  1958 6982 8876  1208 8877 9471  4142 8877 9471  6191 8042 8878  1149 8042 8878  474 4046 8879  2655 4046 8879  4511 8880 10543  659 4511 8880  213 8881 8882  2407 6801 8882  212 6801 8882  2435 5047 8883  552 5047 8883  2947 7109 8884  2947 3849 8884  2090 7535 8885  2090 4569 8885  4588 7177 8886  17 7177 8886  1886 4870 8887  1433 4870 8887  1368 4508 8888  2593 4508 8888  1645 5828 8889  3358 5828 8889  78 8890 8891  2430 5619 8891  77 5619 8891  2430 5376 8892  1535 5376 8892  1901 5613 8893  1901 5612 8893  2492 4986 8894  585 4986 8894  2558 8055 8895  558 8055 8895  3054 7457 8896  1342 7457 8896  773 7605 8897  3432 7605 8897  2989 7517 8898  1146 7517 8898  2161 7329 8899  7329 8899 9306  4416 7005 8900  2502 7005 8900  1112 5898 8901  2788 5898 8901  2788 5732 8902  1111 5732 8902  2507 5672 8903  1017 5672 8903  2511 5304 8904  989 5304 8904  2417 5851 8905  539 5851 8905  1204 3922 8906  2417 3922 8906  3382 8907 10740  1475 3382 8907  1866 8751 8908  3805 8751 8908  1853 6263 8909  2613 6263 8909  1285 4098 8910  1930 4098 8910  2240 6705 8911  3307 6705 8911  2848 5293 8912  1534 5293 8912  1079 4367 8913  2069 4367 8913  7384 7385 8914  2445 7385 8914  6104 8915 9044  2930 6104 8915  3348 8916 10361  3348 5656 8916  551 7737 8917  2902 7737 8917  1048 3898 10574  3898 8918 10574  4388 8919 10885  1309 4388 8919  588 4173 8920  2462 4173 8920  4165 8792 8921  2462 8792 8921  2142 7064 8922  3980 7064 8922  1633 4515 8923  1633 3857 8923  7496 8640 8924  2414 7496 8924  3211 8925 10905  2390 8925 10905  2775 5122 8926  1135 5122 8926  1417 4335 9154  1417 4792 9154  1357 4131 8928  2640 4131 8928  2640 5362 8929  496 5362 8929  2429 4678 8930  1461 4678 8930  728 4678 8931  2429 4678 8931  1271 6376 8932  2429 6376 8932  226 5008 8933  2851 5008 8933  1681 4727 8934  2601 4727 8934  446 5165 8935  2418 5165 8935  1226 3614 8936  1226 3613 8936  2725 5753 8937  938 5753 8937  2725 3374 8938  652 3374 8938  1294 4328 8939  3630 8939 9227  3845 6178 8940  1721 6178 8940  3709 7455 8941  1193 7455 8941  3672 7361 8942  2362 7361 8942  2970 8943 10510  1133 8943 9031  1013 5096 8944  1013 4261 8944  270 8840 10904  270 8945 10904  2986 6021 8946  1004 6021 8946  1313 4910 8947  2520 4910 8947  2520 5154 8948  334 5154 8948  2537 7428 8949  2537 6659 8949  1679 6181 8950  2447 6181 8950  2447 6181 8951  6181 8951 9789  2064 4528 8952  1410 4528 8952  3500 4583 10752  1215 8953 8954  1110 9049 9670  3500 9049 9670  3729 5984 8955  758 5984 8955  3884 8657 8956  3884 5412 8956  671 5371 8957  671 3943 8957  1093 3512 8958  1617 3512 8958  670 6070 8959  1755 6070 8959  2582 5709 8960  1786 5709 8960  775 7433 8961  4941 7433 8961  3262 5321 8962  1109 5321 8962  3215 8053 8963  1139 8053 8963  2238 4284 8964  694 4284 8964  598 6338 8965  598 3893 8965  2934 8966 9953  5065 9736 9953  581 3251 8967  2783 3251 8967  1713 5411 8968  2542 5411 8968  2189 4730 8969  2189 4051 8969  2681 6403 10646  2681 8970 10646  1192 6450 8971  4464 6450 8971  2353 4010 8972  1062 4010 8972  102 4519 9311  1173 3625 8974  1173 3791 8974  2319 7962 8975  7962 8975 9938  595 8615 8976  3916 8615 8976  2472 8977 10613  1018 8977 10613  1738 7630 8978  3854 7630 8978  2637 5773 8979  491 5773 8979  4002 5663 8980  1628 4002 8980  2497 5435 8981  1457 5435 8981  843 5435 8982  2497 5435 8982  5879 8982 8983  2497 8982 8983  3858 6983 8984  1310 3858 8984  1309 4956 8985  2437 4956 8985  1764 5701 8986  1764 6259 8986  1406 4740 8987  2532 4740 8987  2640 5363 8988  2640 4131 8988  877 4160 8989  2469 4160 8989  1266 3818 8990  2469 3818 8990  4247 7925 8991  861 4247 8991  3861 8116 9318  1385 8116 9318  1719 6947 8993  2572 6947 8993  860 6079 8994  2451 6079 8994  5287 6408 8995  2451 5287 8995  1711 5339 8996  3814 8996 9063  2096 4168 8997  2096 4894 8997  1295 3963 8998  2450 3963 8998  1726 5244 9423  1726 8999 9423  2564 6828 9000  882 6828 9000  176 7459 9001  176 5426 9001  4619 9002 9003  79 4619 9002  80 9002 9003  80 4443 9003  2134 7440 9004  2862 7440 9004  3720 6500 9005  715 6500 9005  1985 6757 9006  4288 6757 9006  1342 7457 9007  3182 7457 9007  1614 4567 9008  3603 6175 9618  2275 4350 9009  4350 9009 9083  1615 6491 9010  3555 6491 9010  5315 9011 10530  1915 5315 9011  1599 4906 9012  1599 4223 9012  1791 5369 9013  2634 5369 9013  2634 6394 9014  960 6394 9014  1076 6198 9015  3089 6198 9015  2381 4084 9016  1080 4084 9016  2889 4455 9017  721 4455 9017  1891 6722 9018  3675 6722 9018  847 4723 9019  4723 9019 9069  4481 7207 9020  2709 4481 9020  922 4230 9021  2637 4230 9021  6021 6593 9022  2986 6021 9022  4577 9023 10716  449 6430 9023  5897 6497 9024  255 5897 9024  3493 5812 9025  3493 5268 9025  2522 7212 9026  623 7212 9026  955 5244 9027  2516 8999 9423  566 9028 9965  2516 9028 9965  1882 4722 9029  1882 5820 9029  2488 6641 9030  2488 3747 9030  2970 8226 9031  2446 8226 9031  8226 8227 9032  4 8227 9032  2474 7242 9033  2474 4615 9033  2503 5130 9034  866 5130 9034  2503 5302 9035  1267 5302 9035  4077 9035 9036  375 4077 9036  3016 4513 9037  765 4513 9037  806 4716 9038  806 4975 9038  604 4819 10291  604 9039 10291  7300 7301 9040  304 7300 9040  1666 3838 9041  2526 3838 9041  2159 4178 9042  1396 4178 9042  2527 5561 9043  828 5561 9043  1305 4112 9044  2920 4112 9044  2761 4865 9045  1369 4865 9045  603 4736 9046  3113 4736 9046  7859 9047 10590  817 7859 9047  2453 5201 9048  1103 5201 9048  1110 5731 9049  2656 5731 9049  2656 5332 9050  602 5332 9050  2656 9051 9055  1364 9051 9055  2642 6054 9052  451 6054 9052  3241 8378 9053  1333 8378 9053  1175 3370 9054  3390 9534 9759  2922 4846 9055  1364 4846 9055  194 4874 9056  3319 7707 10532  2547 5868 9057  1735 5868 9057  5028 8473 9058  1855 8473 9058  2284 5184 9059  2284 7858 9059  4670 9804 10198  2756 4670 9060  7448 8218 9061  587 8218 9061  1389 4645 9062  1389 3469 9062  1711 5716 9063  2454 5716 9063  1242 4083 9064  1242 3059 9064  4484 7677 9065  1325 7677 9065  2466 5870 9066  660 5870 9066  1272 4930 9067  2466 4930 9067  2569 4184 9068  596 4184 9068  1448 4983 9069  2455 4983 9069  2455 4983 9070  390 4983 9070  3199 8373 9071  594 8373 9071  903 4620 9072  2525 4620 9072  986 5270 9073  2695 5270 9073  699 4213 9074  1517 4213 9074  2771 8119 9119  2771 9075 9119  2485 5128 9076  766 5128 9076  1144 3691 9077  2485 3691 9077  1191 5423 9078  1191 3677 9078  4125 7177 9079  4125 9079 10087  7182 9080 10500  1221 9080 10500  543 5659 9081  2549 5659 9081  4445 8921 9819  1317 4445 9082  3559 7275 9083  404 7275 9083  1093 5323 9084  1093 3915 9084  1847 6283 9085  1847 4320 9085  2496 3623 9086  1137 3623 9086  5046 9087 9088  1568 5046 9087  2496 5636 9088  741 5636 9088  1753 8094 9089  2464 8094 9089  2461 4941 9090  1225 4941 9090  2331 5073 9091  2331 3956 9091  464 5123 9092  2576 5123 9092  8451 8452 9093  57 8451 9093  380 9094 9570  380 3752 9094  1177 6099 9095  2473 6099 9095  762 4963 9799  762 9096 9799  2461 9090 9097  6902 9090 9097  2591 5613 9098  878 5613 9098  2553 8210 9099  879 8210 9099  1970 7010 9100  4526 7010 9100  1545 7360 9101  1545 4371 9101  946 7054 9102  4932 7054 9102  7191 9103 9104  2092 7191 9103  2592 5272 9104  834 5272 9104  1359 3971 9105  2654 3971 9105  257 4595 9106  2654 4595 9106  310 3964 9108  310 311 9108  311 9107 9108  2648 9107 9108  1637 4612 9109  4612 9109 10690  608 5106 9110  608 4572 9110  1791 5370 10527  1791 9111 10527  3236 6951 9112  973 6951 9112  2562 5632 9113  871 5632 9113  3402 7257 9114  2190 7257 9114  4095 7689 9115  1205 7689 9115  2965 8536 9116  2491 8536 9116  683 3743 9117  3743 3744 9117  2760 7201 9118  1071 7201 9118  1202 8487 9119  3222 8487 9119  856 5296 9120  2487 5296 9120  3429 8035 9121  2487 8035 9121  999 3311 9123  999 9122 9123  1407 8267 10667  3311 8267 10667  2798 5254 9124  4759 5254 9124  1913 6699 9125  1913 6700 9125  5506 8490 9126  3028 5506 9126  2200 6425 9127  2200 5379 9127  2153 6222 9128  4663 6222 9128  1442 4828 9129  2848 4828 9129  1144 4345 9130  1144 3690 9130  3706 8393 9131  403 8393 9131  1166 6606 9132  2588 6606 9132  2771 6739 9133  886 6739 9133  2402 4499 9134  840 4499 9134  1178 8056 9135  1178 3152 9135  2749 8240 9136  573 8240 9136  1941 3714 9137  1469 3714 9137  553 9138 10069  3505 9138 10069  2782 9139 9442  2782 7124 9442  3549 6214 9140  1125 6214 9140  4229 8021 9141  178 4229 9141  1705 5482 9142  1705 3668 9142  1180 3902 9143  3566 3902 9143  3562 9144 9569  2638 9144 9569  2485 3691 9145  636 3691 9145  3230 7546 9146  1797 7546 9146  3424 8364 9147  1520 8364 9147  2930 8915 9149  2930 9148 9149  962 7179 9149  2931 7179 9149  2505 5398 9150  1145 5398 9150  1343 6161 9151  1343 4553 9151  2913 3682 9152  1139 6972 10431  587 4335 9153  4335 9153 9154  4792 8927 9154  2490 8927 9154  1321 3901 9155  1321 5525 9155  799 5266 9156  799 5810 9156  3851 8337 9157  2153 8337 9157  3096 6492 9158  1379 6492 9158  3600 7127 9159  2246 7127 9159  1223 5390 9160  2513 5390 9160  592 4546 9161  2513 4546 9161  2513 4546 9162  1363 4546 9162  1776 5861 9163  1776 3949 9163  6572 9164 9854  62 9164 9854  1404 6091 9165  2515 6091 9165  412 4827 9166  2515 4827 9166  3515 9166 9167  2515 9166 9167  3707 8501 9168  767 8501 9168  931 4501 9169  1734 4501 9169  64 6571 9170  64 4958 9170  6159 6160 9171  315 6160 9171  3470 7971 9172  1091 7971 9172  2753 8245 9173  190 9173 9547  2753 5174 9174  1585 5174 9174  943 5174 9175  2753 5174 9175  2938 4908 9176  1097 6835 9584  1907 5672 9177  1907 4386 9177  2424 5871 9178  2424 4776 9178  233 4615 9179  2428 4615 9179  2784 9182 10601  240 9180 10378  3200 9180 9181  240 9180 9181  3200 6364 9182  1286 6364 9182  6761 9183 9204  299 6761 9183  1478 4332 9184  2494 9186 9976  2494 3411 9185  461 3411 9185  845 4332 9976  845 9186 9976  2956 5626 9187  1577 5626 9187  1403 4193 9188  1403 3997 9188  4156 6921 9189  1351 6921 9189  4685 8195 9190  4685 6080 9190  1980 6976 9192  859 6976 9191  6976 9191 9192  2501 9191 9192  1067 7252 9193  4682 7252 9193  3092 5981 9194  458 5981 9194  1799 3627 9195  497 6555 10078  437 3405 9196  437 5269 9196  2434 4613 9197  2434 4206 9197  1349 8684 9198  4575 8684 9198  3969 9199 10144  2954 9199 10144  1875 4710 9200  3451 4710 9200  4745 10119 10212  454 10119 10212  3657 6814 9202  1258 6814 9202  1940 6844 9203  2786 6844 9203  3911 9203 9204  2786 9203 9204  2955 5200 9205  386 5200 9205  1081 4149 9206  3348 4149 9206  8531 8532 9207  214 8532 9207  3891 5182 9208  2606 3891 9208  4132 9113 9209  1001 4132 9209  1839 3464 9210  2562 3464 9210  2507 5672 9211  2507 5821 9211  3186 6258 9212  607 6258 9212  2948 4038 9213  1254 4038 9213  2533 6867 9214  2533 4969 9214  1504 4852 9215  2405 4852 9215  2863 9516 10499  180 9516 10851  1892 6798 9217  1892 4826 9217  4695 6506 9218  2107 6506 9218  6875 8467 9219  2530 8467 9219  2530 4171 9220  1278 4171 9220  861 4247 9221  2346 4247 9221  2730 6339 9222  1812 6339 9222  3004 6769 9223  384 6769 9223  2193 7920 10531  2193 9224 10531  957 2882 9225  2774 2882 9225  1567 5128 9226  2485 5128 9226  1294 8939 9227  1294 3955 9227  916 8459 9228  2702 8459 9228  915 5031 9229  915 6167 9229  575 7131 9231  3480 7131 9231  2967 7392 9231  575 7392 9231  2101 6575 9232  2361 6575 9232  806 3946 9233  2217 9233 10354  894 4556 9234  2578 4556 9234  1746 5662 9235  3268 5662 9235  2846 8479 9236  1136 8479 9236  3680 8813 9237  3680 9237 10282  1971 4456 9238  4456 6298 9238  2750 6796 9239  339 6796 9239  3555 6491 9240  626 6491 9240  528 5365 9241  5365 9241 9242  1631 5367 9242  2546 5367 9242  1155 8279 9243  1155 3459 9243  1088 7021 9244  2523 7021 9244  900 5215 9245  2662 5215 9245  2662 5569 9246  2171 5569 9246  2512 6039 9247  687 6039 9247  2928 7307 9248  2928 9248 9286  2470 4371 9249  1545 4371 9249  5426 8214 9250  176 5426 9250  6186 6297 9251  2953 6186 9251  2857 5991 9252  1422 5991 9252  2729 5430 9867  2729 3125 9253  534 9491 9492  2777 9492 10032  4770 6549 9255  6549 9255 10201  4166 6870 9256  1004 6870 9256  2403 4830 9257  4830 9257 9844  2092 7191 9258  3437 7191 9258  2527 6090 9259  1896 6090 9259  3288 3757 9260  651 3757 9260  3709 8941 9261  1470 8941 9261  832 5343 9262  832 4441 9262  2617 3669 9263  1217 3669 9263  3671 6312 9264  635 6312 9264  2629 5143 9265  732 5143 9265  3801 5750 9266  1268 5750 9266  156 4259 9267  156 6872 9267  1522 5261 9268  5261 9268 9589  2631 2919 9269  633 2919 9269  6763 7902 9270  886 7902 9270  6739 9270 9271  1995 6739 9271  2680 7211 9272  1257 4105 9971  117 4781 9273  2735 5465 9274  1524 5465 9274  1122 6324 9275  1122 4916 9275  2388 9276 9360  4739 9276 9360  2946 4127 10493  4127 9277 10493  2815 4094 9278  356 4094 9278  3637 8973 9279  103 8973 9279  2758 5393 9280  412 5393 9280  2524 4910 9281  1313 4910 9281  2520 4910 9956  2524 4910 9282  609 5117 9283  2524 5117 9283  3338 8804 9284  1658 8804 9284  4705 7822 9285  2320 7822 9285  2784 9180 10378  2928 7255 9287  238 7255 9287  2793 5384 9288  1296 5384 9288  1376 6577 9289  3377 6577 9289  1311 9290 9500  1311 4581 9500  2587 7110 9291  992 7110 9291  2587 5091 9292  2014 5091 9292  1138 4988 9293  3088 7294 9894  2759 9280 9294  412 9280 9294  3017 5308 9295  87 5308 9295  7309 7310 9296  1 7310 9296  2334 4345 9297  4345 4749 9297  680 5790 9298  2484 5790 9298  885 6650 10496  885 9299 10496  1412 7884 9300  3755 7884 9300  1009 7321 9301  4233 7321 9301  2685 9302 10671  3367 9857 10671  736 5699 9303  3995 5699 9303  2148 3945 9304  1024 9304 10659  606 3265 9305  3265 4545 9305  4417 8900 9306  2502 8900 9306  2577 4891 9307  701 4891 9307  3455 9308 10125  2577 3455 9308  1498 4891 9309  2577 4891 9309  2168 5901 9310  5901 6671 9310  103 8973 10809  2523 8973 9311  1467 4519 9312  2523 4519 9312  2082 6729 9313  2859 6729 9313  2920 4112 9314  976 4112 9314  3817 7569 9315  3691 3817 9315  2088 6784 9316  6272 6784 9316  2281 3728 9317  527 3728 9317  3740 9318 9964  3861 9318 9964  4778 9319 10396  287 4778 9319  2578 4083 9320  565 4083 9320  895 6284 9321  2574 6284 9321  4152 6650 9322  4152 9322 10360  3023 6344 9323  303 6344 9323  1935 6840 9324  2806 9324 9606  2853 6901 9325  788 6901 9325  3111 6967 9326  1769 6967 9326  3075 8903 9327  1017 8903 9327  2756 4877 10188  2756 9328 10188  2756 4877 9329  1418 4877 9329  1206 7927 9330  3234 7927 9330  2538 6493 9331  1986 6493 9331  2538 9335 10545  2538 9332 9333  173 9332 9333  9332 9334 10277  172 9334 10277  2538 9333 9335  174 9333 9335  573 4340 9336  1840 4340 9336  4468 8380 9337  2598 8380 9337  1451 4840 9338  1451 5851 9338  2859 4757 9339  2859 4896 9339  1602 6889 9340  2554 6889 9340  5558 9340 9341  2554 9340 9341  1862 6543 9342  2873 6543 9342  2479 4107 9343  2146 4107 9343  989 5330 9344  2934 5330 9344  230 5239 9346  231 9345 9370  2584 9345 9346  3869 8418 9347  1291 8418 9347  3040 5556 9348  933 5556 9348  3604 6350 9349  1435 6350 9349  1251 3523 9350  2526 3523 9350  1353 4654 9351  2561 4654 9351  2561 5584 9352  1252 5584 9352  621 4205 9353  2561 4205 9353  960 3282 9354  2849 3282 9354  2406 8866 9355  4623 8866 9355  1556 8790 9356  3068 8790 9356  1508 6134 9357  1508 5257 9357  774 7235 9358  3701 7235 9358  5619 7223 9359  76 7223 9359  1406 7080 9360  1406 4739 9360  4432 7220 9361  388 4432 9361  2364 4162 9362  1548 4162 9362  3126 9363 10720  1927 9363 9817  889 5755 9364  2597 5755 9364  2251 4902 9365  4902 9365 9533  937 5994 9366  2939 5994 9366  2939 6119 9367  1718 6119 9367  1503 3895 9368  1503 3844 9368  3891 7070 9369  1875 7070 9369  9345 9346 9370  230 9346 9370  2511 8904 9371  4241 8904 9371  265 5313 9677  2710 3424 9372  595 4974 9373  2525 4974 9373  2525 4974 9374  1444 4974 9374  4620 8740 9375  1374 8740 9375  99 5191 10637  3537 5191 9376  3616 5720 9377  1941 5720 9377  1415 4400 9378  2617 4400 9378  2671 4830 9379  1327 4830 9379  719 4474 9380  719 4267 9380  708 5378 9381  708 4383 9381  4366 8726 9382  1188 8726 9382  3017 5826 9383  1114 5826 9383  3638 7627 9384  480 3638 9384  491 6215 9385  491 4477 9385  2890 7598 9386  2255 7598 9386  1901 5613 9387  2591 5613 9387  925 5470 9388  2721 5470 9388  1522 5262 9389  2581 5262 9389  604 5598 9390  2581 5598 9390  1966 5462 9391  2910 5462 9391  1130 4672 9392  1130 3568 9392  3576 7638 9393  3182 7638 9393  4036 7742 9394  2182 7742 9394  3559 9083 9395  1659 9083 9395  4308 9396 9801  365 4308 9396  2697 5080 9397  1460 5080 9397  743 4270 9398  3170 4270 9398  4263 8198 9399  146 4263 9399  3215 5859 9400  571 5859 9400  5407 9401 9402  362 5407 9401  5044 6667 9402  1570 6667 9402  1465 4349 9403  2555 4349 9403  2555 4240 9404  1231 4240 9404  2002 3162 9405  2002 4260 9405  2619 4859 9406  881 4859 9406  1290 6965 9407  3881 6965 9407  3656 8371 9408  3656 9408 9712  4936 7770 9409  2184 7770 9409  3084 6718 9410  1871 6718 9410  413 3333 9411  413 3247 9411  556 3613 9412  3613 5618 9412  834 6776 9413  834 5272 9413  3895 6019 9414  1728 6019 9414  2609 5349 9415  912 5349 9415  3815 7314 9416  2054 7314 9416  2358 5525 9417  3769 5525 9417  3357 5119 9418  1419 5119 9418  1002 7293 10691  1002 9419 10691  3060 4362 9420  1230 4362 9420  3184 5674 9421  1142 5674 9421  2325 4558 9422  1354 4558 9422  2516 9027 9423  5244 9027 9423  497 6628 9424  2709 6628 9424  1001 6316 9425  3481 6316 9425  2469 4393 9426  1231 4393 9426  712 8028 9427  3018 8028 9427  815 8088 9428  3133 8088 9428  574 3363 9429  3362 9429 10027  1462 4420 9430  1462 5151 9430  6474 9431 10205  1951 6474 9431  2563 7220 9432  7220 9432 9884  1452 4432 9433  2563 4432 9433  2614 3146 9434  1656 3146 9434  935 8815 9435  2614 8815 9435  489 4787 9436  2614 4787 9436  3650 6649 9437  2630 3650 9437  2630 5052 9438  482 5052 9438  1573 5052 9439  2630 5052 9439  1747 4299 9440  674 4299 9440  1837 4696 9441  1388 4696 9441  4298 9139 9442  1835 4298 9442  893 4142 9443  2575 4142 9443  2268 7733 9444  2268 5224 9444  1983 6851 9445  2870 6851 9445  3372 4632 9446  476 4632 9446  3452 7072 9447  1949 7072 9447  644 5885 9448  644 4098 9448  1411 9449 10745  1411 5001 9449  3511 8149 9450  3051 9450 10592  1162 5048 9451  3457 5048 9451  3473 5873 9452  44 5873 9452  3237 8537 9453  3524 8537 9453  1199 8347 9454  3854 8347 9454  1795 7023 9455  1795 3953 9455  4327 6702 9456  1399 6702 9456  2271 5594 9457  434 5594 9457  1167 6002 9458  3076 6002 9458  349 4442 9734  349 9459 9734  2533 6867 9460  1408 6867 9460  4769 9460 9461  963 4769 9461  4568 6892 9462  236 6892 9462  2726 6815 9463  2726 5777 9463  3300 8475 9464  134 9464 10820  3416 9464 9465  134 9464 9465  978 5138 9466  2679 5138 9466  2679 3658 9469  2679 9467 9469  122 9467 9468  9467 9468 9469  123 9468 9469  1476 4899 9470  1476 7119 9470  2575 3594 9471  2575 4142 9471  1877 5943 9472  2677 5943 9472  1562 4490 9473  2989 4490 9473  2989 6071 9474  627 6071 9474  2409 6108 9475  925 6108 9475  601 3368 9476  1350 3368 9476  468 5771 9477  2599 5771 9477  1040 7956 9478  6325 7956 9478  6457 9479 10152  2366 4922 9479  1381 3988 9480  3988 4351 9480  3431 5038 9481  1650 5038 9481  3448 7663 9482  2110 7663 9482  1254 4038 9483  2262 4038 9483  1559 3457 9484  1559 3275 9484  981 5030 9485  2596 5030 9485  2596 5030 9486  1511 5030 9486  4549 9138 9487  2626 4549 9487  5018 9282 9488  2524 9282 9488  920 5346 10665  920 9489 10665  3477 4754 9490  2053 4754 9490  534 9254 10032  534 9492 10032  2778 7222 9492  2777 7222 9492  7031 7665 9493  576 7031 9493  5522 7391 9494  2966 5522 9494  2403 7981 9495  891 7981 9495  2702 5727 9496  370 5727 9496  1588 5452 9498  370 5452 9497  5452 9497 9498  2597 9497 9498  5727 9497 9499  1651 5727 9499  9290 9500 10032  2777 9500 10032  2018 4395 10610  3295 4395 9501  3033 8771 9502  1058 8771 9502  2544 4794 9503  1663 4794 9503  5363 9503 9504  975 5363 9504  1509 5140 9505  1509 3143 9505  296 297 9506  297 4719 9506  1224 4455 9507  2889 4455 9507  2641 8929 9508  496 8929 9508  2641 6146 9509  974 6146 9509  2950 8673 9510  1018 8673 9510  3991 8803 9511  2422 8803 9511  556 5711 9512  2567 5711 9512  2567 4933 9513  1169 4933 9513  1912 5931 9514  1912 4284 9514  9 3929 9642  9 9515 9642  180 9216 9516  9216 9516 10499  4803 9516 9517  2863 9516 9517  710 5911 9518  710 4366 9518  2819 5126 9519  1244 5126 9519  8106 8663 9520  2819 8663 9520  1008 5126 9521  2819 5126 9521  1380 3527 9522  2773 3527 9522  419 4414 9523  2773 4414 9523  2773 5404 9524  1063 5404 9524  2691 7507 9525  908 7507 9525  1029 6840 9526  2807 6840 9526  1007 6076 9528  3041 6076 9528  3042 6684 9528  1007 6684 9528  3788 8557 9529  1780 8557 9529  2672 5007 9530  545 5007 9530  1318 8539 9531  5073 8539 9531  3095 6492 9532  1072 6492 9532  7519 9533 9922  1247 9533 9922  2745 9054 9534  1175 9054 9534  1149 5071 9535  3731 5071 9535  1766 6061 9934  968 6061 9536  2861 6003 9537  1209 6003 9537  2861 4648 9538  465 4648 9538  4188 7872 9539  435 7872 9539  3655 7373 9540  758 7373 9540  2142 4148 9541  2769 4148 9541  1142 5674 9542  2845 5674 9542  2249 7688 9543  4024 7688 9543  1289 6171 9544  1289 4249 9544  5170 8846 9545  991 8846 9545  1264 5170 9546  2627 5170 9546  8245 9173 9547  189 8245 9547  2645 7849 9548  519 7849 9548  3432 7604 9549  1099 7604 9549  1640 4736 9550  2548 4736 9550  603 4677 9551  2548 4677 9551  3908 7357 9552  796 7357 9552  4487 9553 10731  301 4487 9553  4017 8008 9554  1275 8008 9554  4828 6985 9555  92 6985 9555  3839 8041 9556  1176 8041 9556  542 6736 9557  2818 6736 9557  2844 3850 9558  694 3850 9558  2844 3315 9559  985 3315 9559  7063 9541 9560  2769 9541 9560  2769 5801 9561  381 5801 9561  1272 4141 9562  4141 9562 9563  897 6016 9563  2612 6016 9563  1904 7996 9564  2551 7996 9564  2551 6426 9565  755 6426 9565  1316 8343 9566  4602 8343 9566  847 4276 9567  2467 4276 9567  126 9569 10762  127 9568 10826  2638 9568 9569  3904 9094 9570  2085 3904 9570  2368 7730 9571  7730 9571 10084  2486 8316 9572  2486 6748 9572  2705 6070 9573  670 6070 9573  2647 6220 9574  510 6220 9574  6317 8854 9575  1028 6317 9575  2476 4869 9576  606 4869 9576  4315 8967 9577  2783 8967 9577  3204 4992 10220  2695 4992 10220  1982 4640 9579  1394 4640 9579  2264 7923 9580  2264 4863 9580  789 5377 9581  2624 5377 9581  3739 7745 9582  2624 3739 9582  2076 7315 9583  4042 7315 9583  1097 9176 9584  2938 9176 9584  784 6200 9585  2789 6200 9585  6933 9585 9586  2789 9585 9586  2233 8055 9587  2558 8055 9587  783 3103 9588  3103 5057 9588  393 4667 9589  2580 4667 9589  2580 4434 9590  875 4434 9590  1319 4434 9591  2580 4434 9591  5575 6396 9592  2903 6396 9592  3090 8147 9593  3090 6232 9593  3665 5111 9594  715 5111 9594  700 6887 9596  1919 6887 9595  6887 9595 9596  2575 9595 9596  2602 8779 9597  889 8779 9597  2602 5299 9598  460 5299 9598  5293 6574 9599  94 5293 9599  28 3642 10806  1527 5328 9601  3057 5328 9601  2876 7414 9602  5192 7414 9602  1365 4360 9603  1365 3752 9603  1161 3674 9604  3674 9604 9605  6839 9324 9605  2806 9324 9605  6840 9324 9606  1029 6840 9606  5827 8998 9607  2590 5827 9607  3951 6902 9608  1225 6902 9608  639 3907 9609  639 3640 9609  498 5116 9610  2687 5116 9610  3077 5352 9611  426 10614 10615  2930 6104 9612  415 6104 9612  559 5455 9613  2700 5455 9613  397 5551 9614  2615 5551 9614  2615 5552 9615  935 5552 9615  2935 8106 9616  2210 8106 9616  2265 7900 9617  2265 7385 9617  3603 9008 9618  1614 9008 9618  2306 7853 9619  2876 7853 9619  2589 9620 10285  1105 9620 10285  4104 7935 9621  1257 7935 9621  978 4838 9622  4838 9622 10563  4087 8773 9623  1075 8773 9623  3579 7205 9624  187 7205 9624  1370 5976 9625  2635 5976 9625  2302 7916 9626  2302 5002 9626  387 6715 9627  4076 6715 9627  3713 8253 9628  2568 8253 9628  4154 6604 10372  4154 9629 10372  1265 5276 9630  2779 5276 9630  3376 4942 9631  569 4942 9631  2869 6405 9632  19 6405 9632  358 4159 9633  2600 4159 9633  2600 4160 9634  877 4160 9634  4016 7096 9635  1997 7096 9635  2738 6678 9636  702 6678 9636  3177 4566 9637  1092 4566 9637  416 3670 9638  2586 9638 9661  4113 9639 9887  508 6015 9639  2859 6729 9640  970 6729 9640  678 4122 9641  678 4198 9641  3941 9515 9642  3929 3941 9642  2781 5733 9643  1667 5733 9643  648 4890 9644  2608 4890 9644  912 5349 9645  5349 9645 9646  3793 9644 9646  2608 9644 9646  3935 8655 9647  1377 3935 9647  873 4996 9648  2570 4996 9648  1377 4755 9649  2570 4755 9649  4373 7618 9650  1434 7618 9650  946 7413 9651  3353 7413 9651  1262 4960 9652  1262 4847 9652  2633 5738 9653  671 5738 9653  2633 4425 9654  918 4425 9654  2633 5070 9655  1335 5070 9655  4949 9656 9687  1324 4914 9656  2071 6448 9767  2071 9657 9767  5878 8189 9658  2699 8189 9658  1226 7044 9659  3342 7044 9659  5651 5889 9660  290 5651 9660  3670 9638 9661  1217 3670 9661  3605 6586 9662  1192 6586 9662  93 9663 9664  93 4828 9664  5293 9663 9664  2848 5293 9664  1639 5357 9665  5357 9665 9667  4147 9665 9666  2585 9665 9666  549 3165 9667  2585 3165 9667  4601 8297 9668  656 8297 9668  3282 7943 9669  1126 7943 9669  3499 8480 9670  1110 8480 9670  4223 8875 9671  1599 4223 9671  3136 5606 9672  347 5095 9992  2731 5427 9673  939 5427 9673  2944 4466 9674  525 4466 9674  2710 9372 9675  1483 9372 9675  3293 9675 9676  264 3293 9676  2710 9676 9677  264 9676 9677  2611 4506 9678  1347 4506 9678  2905 4326 9679  1326 4326 9679  360 5112 9680  2737 5112 9680  2737 5460 9681  1861 5460 9681  1537 9682 10063  1537 4966 9682  1244 5238 9683  2589 5238 9683  3392 10271 10708  2589 3392 9684  1966 7398 9685  2837 7398 9685  2621 4949 9686  888 4949 9686  4403 9687 9688  1324 4403 9687  583 7636 10263  583 9688 10263  3998 6299 9689  1227 6299 9689  2792 5064 9690  1405 5064 9690  8099 9489 9691  920 9489 9691  3491 7369 9692  2024 7369 9692  2674 7955 9693  1186 7955 9693  318 9694 9805  318 9711 9805  3864 6835 9695  2642 3864 9695  4388 9638 9696  2586 9638 9696  356 5380 9697  2595 5380 9697  1320 5789 9698  2595 5789 9698  2860 7146 9699  73 7146 9699  2860 5327 9700  1546 5327 9700  3069 6202 9701  1006 6202 9701  2178 4522 9702  4522 9702 10017  2059 7500 9703  805 7500 9703  6006 8205 9704  2616 8205 9704  1287 4559 9705  2839 4559 9705  4461 9387 9706  2591 9387 9706  2913 6456 9707  1154 6456 9707  1166 6354 9708  3362 6354 9708  5048 6607 9709  1162 5048 9709  1172 6629 9710  1172 3789 9710  4130 9711 9805  317 4130 9711  2916 8252 9712  580 8252 9712  1742 5660 10126  1742 9713 10126  1554 6157 9714  2684 6157 9714  3215 4693 9715  1118 4693 9715  3129 6494 9716  2166 6494 9716  3937 8640 9717  2211 9717 10893  3467 4482 9718  1727 4482 9718  4236 6570 9719  132 4236 9719  2332 7945 9720  2622 9720 9721  7945 9720 9721  884 7945 9721  2734 4943 9722  638 4943 9722  5856 8314 9723  2552 8314 9723  1553 3168 9724  320 3168 9724  3900 8739 9725  643 8739 9725  2796 7303 9726  1037 7303 9726  512 3633 9727  512 3326 9727  2876 7853 9728  547 7853 9728  2898 7321 9729  1009 7321 9729  2657 7520 10451  2657 9730 10451  729 4202 9731  2032 4202 9731  1482 5143 9732  2629 5143 9732  713 9733 10174  713 4475 9733  1503 4771 9734  1503 4442 9734  260 3255 9735  2692 7592 9891  2934 6523 9736  1482 6523 9736  3607 7141 9737  2061 7141 9737  485 8052 9738  1817 3387 10897  796 6666 9739  2952 6666 9739  5327 6537 9740  74 5327 9740  2997 6480 9741  1682 6480 9741  4153 8026 9742  1203 8026 9742  3188 6038 9743  1696 6038 9743  841 5147 9744  2646 5147 9744  2000 5017 9745  1628 5409 10533  2669 4500 9746  1282 4500 9746  5319 9747 9810  2669 5319 9747  4500 9614 9748  2669 4500 9748  5470 6108 9749  3153 6108 9749  3153 8719 9750  2509 8719 9750  4877 6841 9751  69 4877 9751  11 4746 9752  11 7268 9752  5176 8111 9753  1197 8111 9753  2607 5061 9754  880 5061 9754  5220 9755 10127  589 5220 9755  1361 5061 9756  2607 5061 9756  3831 5815 9757  1678 5815 9757  342 4069 9758  342 343 9758  500 5225 9759  2745 5225 9759  2745 5225 9760  1699 5225 9760  3183 5760 9761  1733 5760 9761  403 3285 9762  3088 3285 9762  3088 9293 9763  1138 9293 9763  1014 6730 9764  1014 7547 9764  1239 3966 9765  1239 4814 9765  2668 4512 9766  898 9766 10048  774 8015 9767  774 6448 9767  909 4542 9768  2670 5635 10629  3115 5533 9769  3115 5524 9769  469 5283 9770  2618 5283 9770  278 3217 9771  1397 3217 9771  2144 6767 9772  2707 6767 9772  3875 8169 9773  1947 8169 9773  1015 4662 9774  2104 4662 9774  3803 8796 9775  2465 8796 9775  639 5017 9776  639 4424 9776  764 4256 9777  2744 4256 9777  1146 3638 9778  2744 3638 9778  888 4949 9779  2620 4949 9779  3358 6280 9780  633 6280 9780  4314 8350 9781  2289 8350 9781  5756 7718 9782  762 5756 9782  3965 5110 9783  218 3965 9783  5675 7973 9784  2510 7973 9784  2979 5864 9785  1471 5864 9785  3702 9673 9786  939 9673 9786  1722 5566 9787  2632 5566 9787  2632 5846 9788  472 5846 9788  5566 9654 9789  918 9654 9789  393 4650 9790  2676 4650 9790  2604 4321 10252  2676 4321 9791  1318 3466 9792  1318 5304 9792  272 9793 9794  2811 8713 9794  271 8713 9794  2273 3894 10103  3894 10103 10258  5069 6189 9796  127 5069 9796  1402 4635 9797  1402 4862 9797  2133 5439 9798  3656 5439 9798  1579 3154 9799  1579 4963 9799  4781 5351 9800  116 5351 9800  2962 4309 9801  1306 4309 9801  3888 8562 9802  584 3888 9802  4650 9678 9803  393 4650 9803  4670 9060 9804  1218 9060 9804  8247 9694 9805  4130 8247 9805  3250 6211 9806  1531 6211 9806  2957 7520 9807  722 7520 9807  3693 6254 9808  1825 6254 9808  2705 5326 9809  2457 5326 9809  909 5540 9810  2667 5542 9997  3077 6706 9811  1194 3077 9811  6482 6483 9812  136 6482 9812  220 4089 9813  3174 4089 9813  2628 6825 9814  890 6825 9814  1589 5517 9815  2628 5517 9815  2294 6461 9816  2294 4916 9816  3126 6151 9817  510 6151 9817  2171 7151 9818  2171 6638 9818  4445 9082 9819  2463 9082 9819  1789 6413 9820  3509 6413 9820  2639 5573 9821  5573 9821 9908  1274 4062 9822  2755 4062 9822  2755 4062 9823  772 4062 9823  6718 6719 9824  109 6718 9824  170 4985 9825  2732 4985 9825  2373 4729 9826  442 4729 9826  877 8989 9827  5098 8989 9827  605 4731 9828  2649 6687 10070  949 4623 9829  2649 4623 9829  2666 4959 9830  902 4959 9830  405 4341 9831  2666 4341 9831  7126 9476 9832  1350 9476 9832  3092 9833 10088  1036 9833 10088  1020 5253 9834  5253 9834 9835  1500 5254 9835  2643 8577 10104  696 5173 9836  2634 5173 9836  1029 9526 9837  4271 9526 9837  2492 8117 10356  2492 9838 10356  1846 5769 9839  1846 4491 9839  4264 8199 9840  2298 8199 9840  2849 3282 9841  3282 5653 9841  235 7241 9842  3260 6892 10761  259 3283 9843  259 3255 9843  2671 5545 9844  462 5545 9844  1591 5540 9845  2670 5540 9845  2670 5635 9846  475 5635 9846  664 5277 9847  2809 5277 9847  723 6855 9848  723 5250 9848  573 9336 9849  4362 9336 9849  401 8515 9850  3597 8515 9850  2311 4639 9851  2311 5778 9851  3327 5751 9852  1683 5751 9852  3046 3437 10199  3026 3046 9853  3026 6850 9854  62 6850 9854  2685 9857 10671  2685 9855 9856  163 9855 9856  2685 9856 9857  164 9856 9857  3539 5204 9858  1514 5204 9858  1032 8761 9859  2741 8761 9859  597 3816 9860  2741 3816 9860  1566 5987 9861  2653 5987 9861  2653 7089 9862  1422 7089 9862  3644 5247 9863  2699 5247 9863  4153 9742 9864  2834 9742 9864  2696 4991 9865  4991 9865 9929  2893 5668 9866  751 5668 9866  2729 9253 9867  483 9253 9867  1777 3125 9868  2729 3125 9868  6141 9868 9869  2729 9868 9869  2906 3933 9870  406 3933 9870  3683 6290 9871  1307 6290 9871  1350 4560 9872  2659 4560 9872  2659 4703 9873  522 4703 9873  1426 4703 9874  2659 4703 9874  3814 9063 9875  2454 9063 9875  689 3556 9876  1794 9876 10469  3152 5992 9877  2268 5992 9877  1263 3286 9878  2692 3286 9878  4548 7139 9879  787 7139 9879  1844 3543 9880  1844 6414 9880  523 4625 9881  3039 4625 9881  2902 8261 9882  1107 8261 9882  739 4316 9883  1994 4316 9883  3744 9884 9885  1232 3744 9884  2911 8953 9885  1215 8953 9885  1174 8336 9886  1971 3786 10486  2063 6853 9888  508 6853 9887  6853 9887 9888  2682 9887 9888  436 4530 9889  2993 4530 9889  2736 8528 9890  550 8528 9890  2692 9735 9891  260 9735 9891  5141 9560 9892  3360 5141 9892  2717 7766 9893  472 7766 9893  3088 9763 9894  4598 9763 9894  1954 4994 9895  1954 4821 9895  1754 5874 9896  1754 5875 9896  2201 4370 9897  785 4370 9897  3958 8805 9898  2386 8805 9898  2750 6917 9899  1953 6917 9899  4179 6738 9900  2004 6738 9900  813 3994 9901  813 5477 9901  3165 9902 9903  1038 9902 9903  3166 6307 9903  1038 6307 9903  2135 7795 9904  3166 7795 9904  367 5582 9905  3881 5582 9905  3931 7843 9906  766 7843 9906  2677 5943 9907  1304 5943 9907  2664 4339 9908  473 4339 9908  5096 8944 9909  2311 8944 9909  2377 7661 9910  7661 9910 9912  2739 4180 9911  440 4180 9911  1021 7256 9912  2739 7256 9912  2289 4150 9913  1480 4150 9913  6225 7020 9914  248 6225 9914  1687 3593 10180  2714 3593 9915  2714 5926 9916  1700 5926 9916  481 5926 9917  2714 5926 9917  566 9918 9965  566 5690 9918  2019 4072 9919  395 4072 9919  2894 3913 9920  1659 3913 9920  2894 5078 9921  1459 5078 9921  3571 8402 9922  1247 8402 9922  4595 6512 9923  257 4595 9923  909 4415 9924  4415 9924 9987  856 4879 9925  3083 4879 9925  3083 6991 9926  1100 6991 9926  786 5224 9927  786 5137 9927  4406 6644 9928  2017 6644 9928  2697 9397 9929  911 9397 9929  298 5217 9930  298 6288 9930  1485 5233 9931  2663 5233 9931  2663 5233 9932  463 5233 9932  1086 8492 9933  2370 8492 9933  6061 9536 9934  2660 9536 9934  3123 7448 9935  5056 7448 9935  2083 10089 10185  2083 6109 10185  971 8975 9937  2787 8975 9937  1128 7713 9938  7713 9938 9939  2256 5086 9939  2787 5086 9939  2665 5083 9940  1444 5083 9940  902 5083 9941  2665 5083 9941  1899 6147 9942  1899 6535 9942  1090 5707 9943  3061 5707 9943  3634 8183 9944  1564 8183 9944  4520 7950 9945  2304 7950 9945  765 3873 9946  2083 3873 9946  1541 5110 9947  3174 5110 9947  3174 4089 9948  1296 4089 9948  1007 4999 9949  2266 4999 9949  6412 7707 9950  195 7707 9950  3070 7219 9951  1907 7219 9951  322 4000 9952  322 3606 9952  466 5065 9953  466 8966 9953  7009 9954 10348  2873 7009 9954  1633 4499 9955  1633 4303 9955  4910 9282 9956  929 9282 9956  5468 6711 9957  51 5468 9957  3308 6177 9958  983 6177 9958  2070 3701 9959  2070 4068 9959  3606 8692 9960  323 3606 9960  4930 6477 9961  863 6477 9961  6530 8095 9962  2722 6530 9962  4252 9962 9963  2722 9962 9963  594 7040 9964  3861 7040 9964  2880 5514 9965  2516 5514 9965  4474 7666 9966  1453 4474 9966  321 4176 9967  321 4000 9967  4008 6560 9968  2348 4008 9968  1011 4767 9969  2377 4767 9969  2680 7211 9970  1703 7211 9970  4105 9272 9971  2680 9272 9971  994 5807 9972  2712 5807 9972  698 3940 9973  2712 3940 9973  1453 5479 9974  2678 5479 9974  2678 6271 9975  433 6271 9975  2494 9184 9976  4332 9184 9976  2718 5145 9977  917 5145 9977  1679 5848 9978  2718 5848 9978  2718 5848 9979  653 5848 9979  4174 4273 9980  1344 4273 9980  1078 4688 9981  1078 3385 9981  1465 6329 9982  1465 4347 9982  823 4728 10488  1392 9983 10293  1724 4342 9984  682 4342 9984  1232 6609 9985  1232 3743 9985  4542 9924 9986  2727 9924 9986  1282 4266 9987  2727 9987 9988  4266 9987 9988  564 4266 9988  84 7353 9989  2896 7353 9989  4167 7057 9990  107 4167 9990  603 5993 9991  2748 5993 9991  347 9672 9992  3136 9672 9992  2471 5192 9993  1489 5192 9993  1641 3995 9994  2690 3995 9994  2835 3863 9995  574 3863 9995  1928 9219 9996  5338 9219 9996  2667 9810 9997  5540 9810 9997  3609 5441 9998  1595 5441 9998  684 6377 9999  684 4793 9999  1383 4764 10000  4764 10000 10022  2869 4649 10001  950 4649 10001  2869 9632 10002  20 9632 10002  1984 5658 10003  2870 5658 10003  2870 6851 10004  1120 6851 10004  1822 4394 10364  842 4394 10005  3087 8743 10006  2242 8743 10006  627 2892 10007  2892 6165 10007  3561 6098 10008  1792 6098 10008  4985 7648 10009  170 4985 10009  3763 9890 10010  1333 10010 10129  919 4651 10011  2736 4651 10011  916 9228 10012  2701 9228 10012  2701 4749 10013  1416 4749 10013  2701 4397 10014  635 4397 10014  2830 6375 10015  1030 6375 10015  642 3189 10016  2830 3189 10016  3632 5211 10017  1608 5211 10017  4974 9940 10018  595 4974 10018  361 5388 10019  2841 5388 10019  4015 8024 10020  2036 8024 10020  1843 3513 10021  2912 3513 10021  968 6061 10022  2687 6061 10022  532 7169 10023  2740 7169 10023  2740 4091 10024  1032 4091 10024  2740 4406 10025  1308 4406 10025  1506 3827 10026  3827 5040 10026  1167 10027 10403  1167 6002 10403  3485 6032 10028  757 6032 10028  3045 5097 10029  1646 5097 10029  354 5097 10030  3045 5097 10030  2723 7694 10031  592 7694 10031  2521 9290 10032  2521 9254 10032  3787 8553 10033  2638 8553 10033  4134 10034 10239  2683 4134 10034  4863 8161 10035  33 8161 10035  2835 6712 10036  948 6712 10036  1597 4912 10037  2719 4912 10037  7036 7684 10038  2803 7036 10038  734 4642 10039  2686 4642 10039  2686 4642 10040  1394 4642 10040  454 5782 10041  2810 4745 10119  2703 7879 10042  2232 7879 10042  1399 6558 10043  2884 6558 10043  1224 4809 10044  2307 4809 10044  2711 4589 10045  1387 4589 10045  4078 9972 10046  2711 4078 10046  1268 9199 10047  4680 9199 10047  4512 9766 10048  2689 4512 10048  5515 10048 10049  2689 10048 10049  2689 4512 10050  1326 4512 10050  2879 10051 10179  2879 7846 10179  1292 7159 10052  3751 7159 10052  2770 6216 10053  1044 6216 10053  5951 10054 10055  1737 5951 10054  5439 7933 10055  977 7933 10055  557 8023 10056  2775 8023 10056  1529 5122 10057  2775 5122 10057  2976 5651 10058  1608 5651 10058  3057 5328 10059  840 5328 10059  3086 5856 10060  424 5856 10060  1706 5782 10061  3020 5782 10061  2952 6666 10062  1874 6666 10062  2952 3719 10063  1537 3719 10063  2088 5397 10064  709 5397 10064  3473 10065 10066  1107 10065 10066  5002 7914 10066  1107 7914 10066  1081 7481 10067  3078 7481 10067  4330 8948 10068  334 8948 10068  3506 5444 10069  3505 10069 10730  2649 9828 10070  4731 9828 10070  4246 7820 10071  513 7820 10071  4991 9929 10072  1459 4991 10072  5078 10072 10073  618 5078 10073  4005 7342 10074  2229 4005 10074  550 8528 10075  2971 8528 10075  5715 7245 10076  1992 7245 10076  3704 8205 10077  3704 8183 10077  497 9195 10078  3627 9195 10078  4092 6893 10079  1529 6893 10079  3478 8096 10080  658 8096 10080  2880 5691 10081  1104 5691 10081  1399 6558 10082  1399 6702 10082  1576 4200 10083  4955 10083 10416  398 6301 10084  2698 6301 10084  5251 7285 10085  2698 5251 10085  522 5976 10086  3085 5976 10086  16 10087 10843  3171 7838 10088  1036 7838 10088  4496 4497 10089  2083 4497 10089  3099 7403 10090  1321 7403 10090  2167 7450 10091  5258 7450 10091  2064 5654 10092  2064 4823 10092  1780 7939 10093  3986 7939 10093  783 7480 10094  3033 7480 10094  5318 10095 10643  206 5318 10095  3244 5077 10096  1609 5077 10096  2945 6369 10097  1990 6369 10097  3002 10098 10433  1143 10098 10433  1574 5207 10099  1574 5168 10099  1270 3471 10100  3053 3471 10100  3054 8895 10101  558 8895 10101  3053 6771 10102  1141 6771 10102  3003 9795 10258  3003 10103 10258  2643 9835 10104  5254 9835 10104  2748 5878 10105  1762 5878 10105  937 5878 10106  2748 5878 10106  662 4702 10107  4702 10107 10108  1378 4634 10108  2938 4634 10108  2846 5378 10109  1536 5378 10109  708 5378 10110  2846 5378 10110  531 4945 10111  2897 4945 10111  985 3315 10112  2897 3315 10112  1248 4008 10113  2897 4008 10113  1395 7679 10114  3823 7679 10114  872 7163 10115  872 7042 10115  1646 3142 10116  3142 3807 10116  4249 8334 10117  2391 8334 10117  1743 5823 10118  2810 5823 10118  2810 10041 10119  454 10041 10119  2810 5823 10120  1159 5823 10120  2808 9431 10121  3819 9431 10121  519 9548 10122  519 6279 10122  2748 10106 10123  2748 5993 10123  1267 3452 10124  1267 7486 10124  1115 8543 10125  4392 8543 10125  2829 5298 10126  923 5298 10126  2607 9755 10127  2607 5219 10127  3329 8556 10128  3112 8556 10128  3763 7501 10129  3359 7501 10129  4697 10130 10131  1388 4697 10130  2728 4692 10131  927 4692 10131  404 4691 10132  2728 4691 10132  1734 5902 10133  1734 4501 10133  3094 5749 10134  1072 5749 10134  3056 5535 10135  167 10135 10839  397 6783 10136  397 5516 10136  630 7876 10137  3566 7876 10137  402 7663 10675  402 10138 10674  2010 6832 10139  2706 6832 10139  1612 4876 10140  2827 4876 10140  2827 6111 10141  792 6111 10141  1345 6128 10142  2707 6128 10142  2707 6767 10143  785 6767 10143  572 5463 10144  2954 5463 10144  3832 5870 10145  1735 5870 10145  589 5220 10146  2708 5220 10146  881 4859 10588  1413 4859 10147  2357 7229 10148  2357 6050 10148  3602 6262 10149  1857 6262 10149  3029 4102 10150  1053 4102 10150  3030 6251 10151  1446 6251 10151  362 5385 10152  2366 5385 10152  2895 3399 10153  1104 3399 10153  1649 6750 10154  2895 6750 10154  3309 4708 10155  1090 3309 10155  970 6213 10156  2709 6213 10156  5136 8126 10157  427 8126 10157  1261 4596 10158  2972 4596 10158  792 6438 10159  3355 6438 10159  1864 5324 10160  2936 5324 10160  3733 7551 10161  2936 3733 10161  1670 6643 10162  1670 5958 10162  8173 10163 10165  221 10163 10165  1356 5384 10164  2793 5384 10164  4089 9288 10165  221 4089 10165  3611 7269 10166  1796 7269 10166  2572 5043 10167  471 5043 10167  2531 5290 10168  381 5290 10168  3139 7250 10169  1366 7250 10169  3139 6885 10170  1507 6885 10170  8574 10171 10172  1109 8574 10171  6415 8573 10172  2746 8573 10172  1689 5811 10173  5811 10173 10174  4118 9733 10174  2742 4118 10174  2742 4118 10175  1212 4118 10175  4436 5441 10176  158 5441 10176  2239 4480 10177  2239 5832 10177  4784 5431 10178  30 4784 10178  3652 10051 10179  995 3652 10179  3593 9915 10180  926 9915 10180  2539 8328 10181  2539 5920 10181  2432 8048 10182  3609 8048 10182  4003 8935 10183  2418 8935 10183  881 5218 10184  2618 5218 10184  6109 9936 10185  2847 9936 10185  4881 9388 10186  2721 9388 10186  2721 5470 10187  1727 5470 10187  69 4877 10188  5249 5491 10189  200 5249 10189  4041 9438 10190  482 9438 10190  3489 6833 10191  2716 3489 10191  1472 5144 10192  2716 5144 10192  2716 3673 10193  917 3673 10193  3821 8173 10194  222 8173 10194  549 5357 10195  2757 5357 10195  2757 5357 10196  1639 5357 10196  1231 4393 10197  2757 4393 10197  3436 5937 10198  67 10198 10787  3046 9853 10199  992 9853 10199  5772 6017 10200  1936 6017 10200  2505 5232 10201  1715 5232 10201  2039 4541 10202  1854 4541 10202  43 10203 10773  2505 5398 10204  2505 6549 10204  7676 8268 10205  529 7676 10205  5334 6451 10206  181 6451 10206  1182 6051 10207  2813 6051 10207  2813 6051 10208  1686 6051 10208  4808 8542 10209  2813 4808 10209  1288 4276 10210  3097 4276 10210  4384 10211 10627  3849 10211 10627  1579 2981 10212  1579 4745 10212  306 3957 10213  2043 3957 10213  3287 9068 10214  596 9068 10214  3501 5825 10215  3501 8067 10215  1367 6306 10216  3074 6306 10216  2766 4025 10217  357 4025 10217  2766 7558 10218  1256 7558 10218  1554 9714 10219  4627 9714 10219  656 8297 10220  3204 8297 10220  749 4136 10221  2031 4136 10221  151 7948 10223  3001 10222 10223  150 10222 10223  1403 5148 10224  3586 5148 10224  2830 6375 10225  2830 5049 10225  1517 4213 10226  4213 4217 10226  2734 4780 10227  1521 4780 10227  861 4780 10228  2734 4780 10228  4691 7275 10229  1999 7275 10229  4055 7787 10230  1140 7787 10230  1967 5149 10231  614 5149 10231  2792 4143 10232  1253 4143 10232  1869 4227 10233  2512 10233 10560  607 3027 10234  607 3095 10234  4061 7489 10235  1761 7489 10235  2198 7910 10236  3163 7910 10236  4075 7428 10237  1280 4244 10449  1387 4608 10238  2719 4608 10238  358 6028 10239  2980 6028 10239  2980 7686 10240  1991 7686 10240  2261 4788 10241  780 4788 10241  113 6195 10242  3914 4801 10524  1474 4239 10243  4239 4265 10243  1628 4002 10244  637 4002 10244  4427 10245 10288  396 4427 10245  1901 3328 10246  3328 5025 10246  2418 5165 10247  5165 10247 10455  436 6595 10248  3031 6595 10248  865 5495 10249  5495 10249 10251  1216 7785 10250  2767 7785 10250  1794 5683 10251  2767 5683 10251  4321 9791 10252  924 9791 10252  4093 6741 10253  490 6741 10253  597 3816 10254  1837 3784 10711  1379 5826 10255  3017 5826 10255  2285 4452 10256  2785 4452 10256  1987 7357 10257  3908 7357 10257  1229 6746 10258  1229 9795 10258  4118 5693 10259  2828 5693 10259  6406 9313 10260  2859 9313 10260  3514 8136 10261  2443 8136 10261  2556 9651 10262  3353 9651 10262  2621 6138 10263  3015 6138 10263  509 5610 10264  509 4706 10264  3138 6356 10265  3946 9233 10354  4240 9477 10266  2599 9477 10266  2734 9722 10267  4961 9722 10267  2762 3880 10268  1155 3880 10268  1903 6672 10270  561 6672 10269  6672 10269 10270  2762 10269 10270  3392 9684 10271  423 9684 10271  3064 4769 10272  1408 4769 10272  2906 4631 10273  982 10273 10744  1837 9441 10274  4697 9441 10274  3084 7057 10275  108 7057 10275  3378 6423 10276  1168 6423 10276  4220 10276 10277  172 4220 10277  3502 7409 10278  1106 7409 10278  2851 6010 10279  1854 6010 10279  996 6010 10280  2851 6010 10280  7349 10280 10281  2851 10280 10281  138 10282 10283  2845 6483 10283  137 6483 10283  509 5610 10284  2751 5610 10284  3392 6064 10285  1105 6064 10285  4532 5180 10286  1797 4532 10286  2887 5960 10287  1157 5960 10287  3121 8689 10288  1323 8689 10288  5282 7074 10289  22 7074 10289  2850 4993 10290  4993 9013 10290  3019 4818 10291  4818 4819 10291  1516 3932 10292  1516 4868 10292  4728 5692 10293  2557 5692 10293  464 7497 10294  464 5794 10294  2824 5689 10295  2003 5689 10295  1116 7621 10296  2824 7621 10296  2517 5244 10297  955 5244 10297  2823 7377 10298  530 7377 10298  2601 6551 10299  1016 6551 10299  4464 9919 10300  395 9919 10300  2664 5083 10301  902 5083 10301  6820 6821 10302  262 6821 10302  1220 4459 10303  2084 3724 10710  2650 4334 10304  4334 7878 10304  3397 7174 10305  2795 7174 10305  2795 6323 10306  882 6323 10306  1819 6323 10307  2795 6323 10307  2743 7965 10308  793 7965 10308  4644 10308 10309  1389 4644 10309  1201 3886 10310  1201 3885 10310  5068 10311 10312  1456 5068 10311  2794 5403 10312  768 5403 10312  2794 4189 10313  1269 4189 10313  441 5906 10314  441 4820 10314  1170 8622 10315  4354 8622 10315  2891 5728 10316  493 5728 10316  1944 6433 10317  2834 6433 10317  7017 10317 10318  2834 10317 10318  837 8270 10319  2969 8270 10319  4206 7204 10320  1195 7204 10320  5670 8601 10321  2839 8601 10321  632 6686 10322  4322 6686 10322  4674 7967 10323  244 7967 10323  2898 5649 10324  2898 5989 10324  207 10468 10643  207 10325 10468  1729 6022 10326  2908 6022 10326  2908 6445 10327  967 6445 10327  4548 8107 10328  1528 8107 10328  816 5417 10329  3117 5417 10329  3665 5111 10330  3665 10330 10595  1785 6124 10331  2582 6124 10331  3157 4850 10332  3157 8001 10332  4856 8818 10333  1033 4856 10333  3805 8751 10334  2499 8751 10334  193 6370 10335  3180 6370 10335  2375 4814 10336  2375 6321 10336  4675 7137 10337  4225 4675 10337  1072 5749 10338  2780 5749 10338  2780 6553 10339  668 6553 10339  2170 3948 10340  3948 4686 10340  2493 4593 10341  4593 7774 10341  1568 5046 10342  2776 5046 10342  2776 5005 10343  666 5005 10343  2776 3971 10344  1359 3971 10344  482 5052 10345  2765 5052 10345  2765 5018 10346  1450 5018 10346  102 4519 10863  2872 7942 10348  987 7942 10348  2872 4715 10349  2175 4715 10349  3135 10350 10351  1074 10350 10351  4354 7239 10351  1074 4354 10351  3312 7098 10352  1983 7098 10352  4012 7887 10353  2425 7887 10353  3946 10265 10354  3138 10265 10354  1995 6739 10355  2771 6739 10355  844 4493 10356  844 8117 10356  2518 7804 10480  2518 5473 10357  1252 5584 10358  3356 5584 10358  8 10359 10856  3350 7986 10360  2199 7986 10360  4626 9206 10361  3348 9206 10361  4109 6831 10362  81 6831 10362  3605 5109 10363  1556 5109 10363  4394 10005 10364  2482 10005 10364  3620 7784 10365  2008 7784 10365  532 6251 10366  3030 6251 10366  990 6117 10367  4933 6117 10367  2530 4760 10368  830 10368 10544  1112 8901 10369  3252 8901 10369  1842 5971 10370  3092 5971 10370  1314 8363 10371  2763 8363 10371  328 10372 10373  2763 6541 10373  327 6541 10373  1924 4794 10374  2544 4794 10374  1894 6776 10375  2791 6776 10375  2998 3860 10376  324 3860 10376  653 6787 10377  653 5954 10377  2784 9286 10378  239 9286 10378  3389 7844 10379  1214 7844 10379  3229 8647 10381  452 8647 10381  1337 6707 10382  3229 6707 10382  3545 8675 10382  1337 8675 10382  3127 6420 10383  1061 6420 10383  2805 4016 10384  1224 4016 10384  2805 6520 10385  1748 6520 10385  2960 4657 10386  1052 4657 10386  435 3422 10387  435 3992 10387  4668 10175 10388  1212 10175 10388  6101 6504 10389  2108 6504 10389  2278 5667 10390  2278 5719 10390  4666 9354 10391  2849 9354 10391  2796 6599 10392  2229 6599 10392  999 3311 10393  2992 3311 10393  1400 6208 10394  1400 5106 10394  1536 4701 10406  1536 10395 10406  288 5440 10396  3647 5440 10396  2288 4641 10397  848 4641 10397  1070 6407 10398  2972 6407 10398  4307 5935 10399  693 5935 10399  1488 5218 10400  5218 10400 10588  2910 5462 10401  375 5462 10401  514 6014 10402  3032 6014 10402  9429 10027 10403  3363 9429 10403  3898 8712 10404  1048 3898 10404  2967 8677 10405  5297 8677 10405  1517 3645 10406  1517 4701 10406  116 6816 10407  116 5351 10407  2887 4116 10408  676 4116 10408  1704 3830 10409  2887 3830 10409  2381 8780 10410  2381 5034 10410  1338 4539 10411  2854 4539 10411  1672 6306 10412  4689 6306 10412  3205 4718 10413  1038 4718 10413  924 9791 10414  4507 9791 10414  646 3535 10415  3535 10415 10429  1576 4410 10416  3180 4410 10416  1675 5940 10417  2799 5940 10417  1412 4333 10418  1412 4420 10418  2817 4097 10419  1331 4097 10419  2817 4494 10420  585 4494 10420  4917 10420 10421  1447 4917 10421  4004 6875 10422  1928 6875 10422  604 9390 10423  3316 9390 10423  1737 5950 10424  1737 5949 10424  1322 8069 10425  3783 8069 10425  1300 8463 10426  4181 8463 10426  1401 4476 10427  1401 4364 10427  3503 7170 10428  1730 7170 10428  1185 5733 10429  2781 5733 10429  1602 5559 10430  2781 5559 10430  1139 9152 10431  2913 9152 10431  1932 6456 10432  2913 6456 10432  3681 7374 10433  1143 7374 10433  2462 4173 10724  2816 4173 10434  1140 7787 10435  3689 7787 10435  988 5049 10436  3189 5049 10436  680 10437 10644  2832 10437 10644  1288 6905 10438  4250 6905 10438  1191 3679 10439  3679 5481 10439  1823 6569 10440  2857 6569 10440  442 5168 10441  2890 5168 10441  2890 5673 10442  1886 5673 10442  2314 5259 10443  3576 5259 10443  2214 4448 10444  1370 4448 10444  487 4318 10445  487 5817 10445  1179 5336 10446  3504 5336 10446  1674 5600 10447  2799 5600 10447  1265 9630 10448  4513 9630 10448  1280 10237 10449  4075 10237 10449  50 4782 10450  51 3116 10770  2957 5217 10451  1938 5217 10451  428 5526 10452  2855 5526 10452  874 4163 10453  874 5827 10453  446 4668 10454  2888 4668 10454  2888 4816 10455  1538 4816 10455  2971 5962 10456  1126 5962 10456  4651 8528 10457  1698 4651 10457  1523 5714 10458  2801 5714 10458  1031 4936 10459  2801 4936 10459  418 4272 10460  2807 4272 10460  2807 6840 10461  1935 6840 10461  2802 5042 10462  1031 5042 10462  609 4331 10463  2802 4331 10463  2196 7036 10464  2196 4129 10464  3635 4218 10465  629 4218 10465  4304 9347 10466  1291 9347 10466  2478 4319 10467  2202 10467 10707  4977 10325 10468  3987 4977 10468  3556 9876 10469  2797 3556 10469  7374 8211 10470  2027 7374 10470  2995 7764 10471  1711 7764 10471  1216 6432 10472  2995 6432 10472  903 3927 10473  903 4973 10473  4401 8388 10474  292 4401 10474  2542 8968 10475  2542 5880 10475  3708 4898 10476  1476 4898 10476  2885 6193 10477  1849 6193 10477  3853 8345 10478  2282 8345 10478  411 5815 10479  411 4901 10479  7034 10357 10480  3513 7034 10480  1998 7280 10481  3587 7280 10481  1504 4854 10482  1504 4853 10482  4924 7022 10483  2215 7022 10483  769 6263 10484  769 5289 10484  4795 7146 10485  72 4795 10485  3786 9886 10486  1174 9886 10486  623 6365 10487  623 5450 10487  4728 9983 10488  2373 9983 10488  1763 6029 10489  3010 6029 10489  1363 5029 10490  3010 5029 10490  3883 10489 10491  3010 10489 10491  3376 4942 10492  1290 3376 10492  1600 4961 10493  2946 4961 10493  1879 7370 10494  2946 7370 10494  4119 9509 10495  974 9509 10495  2840 6922 10496  1909 6922 10496  1684 6640 10497  2840 6640 10497  4254 6562 10498  1824 6562 10498  181 6451 10499  2863 6451 10499  3037 4813 10500  1221 4813 10500  3226 7956 10501  1040 7956 10501  3273 6151 10502  1803 6151 10502  681 4689 10503  2836 4689 10503  2836 4689 10504  1367 4689 10504  2836 5053 10505  948 5053 10505  1481 5936 10506  3002 5936 10506  3884 8657 10507  2645 8657 10507  3413 4924 10508  1519 4924 10508  4289 7516 10509  3216 7516 10509  2011 7309 10510  2970 7309 10510  2687 9610 10511  2687 6061 10511  680 3531 10512  680 6209 10512  434 5442 10513  434 4111 10513  2598 4503 10514  363 4503 10514  5941 8229 10515  2800 8229 10515  2800 6233 10516  942 6233 10516  7839 10516 10517  2269 7839 10517  3257 3428 10518  1509 3257 10518  4181 7444 10519  525 7444 10519  2299 6975 10520  2299 5704 10520  3227 8544 10521  3227 4545 10521  3065 5252 10522  1695 5252 10522  1653 5349 10523  2609 5349 10523  3914 10242 10524  113 10242 10524  925 4881 10525  2636 4881 10525  3474 6421 10526  47 10526 10874  905 2867 10527  905 5370 10527  5124 8699 10528  284 8699 10528  3826 6529 10529  455 6529 10529  888 9779 10530  3622 9779 10530  2994 7186 10531  591 7186 10531  3319 9056 10532  194 9056 10532  1628 9745 10533  5017 9745 10533  2175 5837 10534  1648 5837 10534  791 8446 10535  791 4207 10535  1945 4451 10536  4451 6473 10536  3383 6613 10537  1015 6613 10537  2804 5188 10538  1278 5188 10538  6954 10539 10540  2234 6954 10539  2804 5603 10540  878 5603 10540  5686 10541 10542  85 5686 10541  86 5308 10542  3187 5308 10542  1382 4510 10543  4510 4511 10543  4760 10368 10544  2410 4760 10544  1050 7461 10545  1050 6493 10545  964 5729 10546  2891 5729 10546  2891 4365 10547  1694 4365 10547  3274 10080 10548  658 10080 10548  3268 7422 10549  1043 7422 10549  2333 4810 10550  1524 4810 10550  4660 8043 10551  618 8043 10551  2426 4096 10552  346 4096 10552  4301 9708 10709  4301 10553 10709  3400 8057 10554  1712 8057 10554  3756 6089 10555  763 6089 10555  7947 7948 10556  151 7948 10556  3288 7855 10557  1490 7855 10557  3288 6857 10558  1158 6857 10558  3487 7731 10559  2267 7731 10559  4227 10233 10560  1533 4227 10560  5488 9622 10561  2814 9622 10561  2814 6877 10562  612 6877 10562  1475 6877 10563  2814 6877 10563  1887 5685 10564  2896 5685 10564  2304 7949 10565  6548 7949 10565  1401 4813 10566  3037 4813 10566  1386 6403 10567  3011 6403 10567  344 6379 10568  6379 7045 10568  1169 5067 10569  2179 5067 10569  5742 6490 10570  332 5742 10570  3435 8406 10571  2506 8406 10571  896 5675 10572  2822 5675 10572  1505 5179 10573  2818 5179 10573  2818 5179 10574  1048 5179 10574  4056 5952 10575  1697 5952 10575  2504 4346 10576  4346 5373 10576  3106 6612 10577  507 6612 10577  3839 8041 10578  776 3839 10578  1518 5449 10579  2826 5449 10579  631 5434 10580  2826 5434 10580  4036 9394 10581  2521 9394 10581  1339 4355 10582  1339 3390 10582  2929 4093 10583  1292 4093 10583  2929 4614 10584  913 4614 10584  1974 6741 10585  2929 6741 10585  1008 5457 10586  2820 5457 10586  2820 5456 10587  423 5456 10587  4859 10147 10588  2708 10147 10588  1402 4635 10589  3051 4635 10589  2453 9047 10590  2453 4521 10590  4746 9752 10591  2402 9752 10591  3511 9450 10592  1669 3511 10592  352 5634 10593  1915 5634 10593  3080 7596 10594  2028 7596 10594  3589 7362 10595  1194 7362 10595  3665 10595 10596  1195 3665 10596  2869 10001 10597  6404 10001 10597  3848 8740 10598  3848 8070 10598  1793 8686 10599  4747 8686 10599  2613 6955 10600  2613 5547 10600  3877 9248 10601  2784 9248 10601  3176 6833 10602  408 6833 10602  1196 6296 10603  2991 6296 10603  3694 6254 10604  1164 6254 10604  4196 6709 10605  2089 6709 10605  3924 4579 10606  1751 4579 10606  4007 7372 10607  1056 7372 10607  3031 6595 10608  2023 6595 10608  1023 7359 10609  2977 7359 10609  4395 9501 10610  1384 9501 10610  1339 5298 10611  2829 5298 10611  2901 7215 10612  1664 7215 10612  5014 9510 10613  1018 9510 10613  3077 9458 10615  3076 9458 10615  426 9611 10615  3077 9611 10615  4946 10522 10616  703 4946 10616  2532 5317 10617  1587 5317 10617  4558 8503 10618  392 8503 10618  3526 7297 10619  1303 7297 10619  1835 4298 10620  1645 4298 10620  5319 9810 10621  2667 9810 10621  5916 10447 10622  2799 10447 10622  1474 4531 10623  2183 4531 10623  4278 7026 10624  425 7026 10624  4735 7897 10625  2226 7897 10625  2236 6147 10626  2236 5201 10626  1328 8884 10627  3849 8884 10627  1611 5081 10628  2822 5081 10628  2670 9768 10629  4542 9768 10629  4790 8661 10630  954 8661 10630  2643 8577 10631  3809 8577 10631  1594 3401 10632  1594 3207 10632  1049 6473 10633  3156 6473 10633  5790 10437 10634  2832 10437 10634  1772 5274 10635  2832 5274 10635  680 4029 10644  1463 4029 10644  5191 9376 10637  98 9376 10637  3529 4716 10638  1436 4716 10638  1287 6489 10639  6489 10639 10640  5908 6487 10640  3050 5908 10640  3050 5908 10641  1772 5908 10641  2258 7709 10698  1065 7709 10642  3987 10468 10643  3987 5318 10643  1463 10636 10644  2832 10636 10644  4169 8905 10645  539 8905 10645  1055 3085 10646  1055 6403 10646  2994 7186 10647  1305 2994 10647  3671 6357 10648  1250 6357 10648  2833 5235 10649  610 5235 10649  2833 5234 10650  1486 5234 10650  1966 5668 10651  2893 5668 10651  2893 8688 10652  1238 8688 10652  2858 5024 10653  1857 5024 10653  2874 6291 10654  987 6291 10654  841 5147 10655  841 6439 10655  3140 6584 10656  1051 6584 10656  2555 4240 10657  2555 4349 10657  5203 6433 10658  1944 6433 10658  3945 9304 10659  2366 3945 10659  1633 3341 10660  13 10660 10850  26 3872 10661  3872 4714 10661  2973 6397 10662  1262 6397 10662  1123 6793 10663  2937 6793 10663  2028 10594 10664  2028 4887 10664  2682 4001 10665  2682 5346 10665  3539 7131 10666  575 7131 10666  3008 4293 10667  1407 4293 10667  499 5104 10668  2093 5104 10668  1340 3789 10669  3789 3790 10669  2618 5283 10670  1506 5283 10670  1302 6465 10671  1302 9302 10671  1637 7627 10672  1637 4478 10672  2918 8644 10673  790 8644 10673  2706 6275 10674  2968 6275 10674  402 10674 10675  2968 10674 10675  3883 10489 10676  1638 3883 10676  3561 10008 10677  1177 10008 10677  3123 7793 10678  1033 7793 10678  6074 10021 10679  2912 10021 10679  530 10298 10680  2604 4421 10880  1153 3598 10681  3598 4772 10681  2213 7806 10682  6016 7806 10682  427 8126 10684  3521 8126 10684  3292 10684 10685  427 10684 10685  3198 5428 10685  427 5428 10685  1435 5794 10686  3263 5794 10686  620 5599 10687  2909 5599 10687  2032 7557 10688  4379 7557 10688  1921 6827 10892  1921 10689 10892  480 4452 10690  2285 4452 10690  2875 6915 10691  2330 6915 10691  2875 9420 10692  1230 9420 10692  3380 6668 10693  1243 3380 10693  3397 10305 10694  1725 10305 10694  2752 4793 10695  1585 4793 10695  4443 6831 10696  80 4443 10696  5090 9137 10697  1469 9137 10697  7709 10642 10698  3067 10642 10698  3254 7272 10699  1066 7272 10699  1771 4279 10700  4279 6190 10700  3871 8308 10701  2272 8308 10701  1836 4265 10702  1836 4576 10702  1296 6447 10703  3131 6447 10703  3131 6988 10704  1019 6988 10704  3131 6447 10705  621 6447 10705  2856 7816 10706  1560 4690 10736  4319 7555 10707  803 7555 10707  1461 6064 10708  3392 6064 10708  1166 3364 10709  1166 9708 10709  3724 10303 10710  1220 10303 10710  3784 10254 10711  597 10254 10711  1173 3792 10712  1173 3625 10712  1665 5526 10713  2950 5526 10713  3829 7892 10714  1936 7892 10714  1948 6344 10715  1948 4486 10715  3963 7799 10716  449 7799 10716  1999 3235 10717  3235 5587 10717  1941 3714 10718  1941 3375 10718  3898 8712 10719  2811 8712 10719  1027 6150 10720  3126 6150 10720  2213 4786 10721  1474 4786 10721  1398 5999 10722  2842 5999 10722  1606 5433 10723  1606 5510 10723  4173 10434 10724  1317 10434 10724  2700 5000 10725  916 5000 10725  1974 3870 10726  490 3870 10726  3716 9150 10727  778 3716 10727  2004 6737 10728  3634 6737 10728  1179 4549 10729  3505 4549 10729  3506 10069 10730  1180 3506 10730  4486 10715 10731  4486 4487 10731  515 7728 10733  515 10732 10733  2119 7729 10733  2119 7728 10733  968 6874 10734  3122 6874 10734  1561 5438 10735  2856 5438 10735  4690 10706 10736  2856 10706 10736  1826 8507 10737  4987 8507 10737  573 8240 10738  4338 8240 10738  3658 9469 10739  123 9469 10739  3658 10739 10740  124 10739 10740  2651 8772 10741  2651 4848 10741  2907 4137 10742  619 4137 10742  1471 5894 10743  2907 5894 10743  4631 10273 10744  2907 4631 10744  5296 9449 10745  3083 5296 10745  5685 9559 10746  1887 5685 10746  1037 3047 10747  3047 7642 10747  379 6873 10748  379 4655 10748  1329 4151 10749  2077 4151 10749  3110 6817 10750  4607 6817 10750  3421 6208 10751  849 6208 10751  1815 4471 10752  1215 4471 10752  4226 6778 10753  59 4226 10753  3330 8489 10754  1348 8489 10754  1348 5241 10755  3887 5241 10755  1327 8841 10756  3330 8841 10756  3496 7274 10757  1767 7274 10757  62 6850 10758  61 6850 10758  105 5190 10759  104 5190 10759  33 4516 10760  32 4516 10760  3260 9842 10761  235 9842 10761  3562 9569 10762  125 3562 10762  100 3664 10763  99 3664 10763  3781 7509 10764  37 3781 10764  5350 8727 10765  111 8727 10765  3459 8890 10766  78 8890 10766  97 6176 10767  96 6176 10767  89 6142 10768  88 6142 10768  4801 10524 10769  113 10524 10769  3116 10450 10770  50 10450 10770  230 5239 10771  229 5239 10771  3695 7223 10772  75 3695 10772  3587 10203 10773  42 3587 10773  203 5578 10774  202 5578 10774  71 4157 10775  70 4157 10775  48 5133 10776  47 5133 10776  3798 8914 10777  53 3798 10777  3105 7900 10778  56 7900 10778  194 4874 10779  193 4874 10779  3857 10660 10780  13 10660 10780  22 3668 10781  21 3668 10781  5002 9452 10782  44 9452 10782  4670 10198 10783  67 10198 10783  4709 9989 10784  83 4709 10784  125 3382 10785  124 3382 10785  3479 8428 10786  186 8428 10786  5937 10198 10787  66 5937 10787  3328 7310 10788  0 3328 10788  6 4607 10789  5 4607 10789  192 4410 10790  191 4410 10790  3322 6711 10791  52 6711 10791  2933 8710 10792  36 8710 10792  3869 9345 10793  231 9345 10793  3835 10002 10794  20 10002 10794  3824 9467 10795  121 3824 10795  49 4019 10796  48 4019 10796  3660 8452 10797  58 8452 10797  3266 8466 10798  208 3266 10798  5712 8466 10799  209 8466 10799  221 4089 10800  220 4089 10800  92 3536 10801  91 3536 10801  3722 8082 10802  28 3722 10802  87 5308 10803  86 5308 10803  155 3577 10804  154 3577 10804  217 4050 10805  216 4050 10805  3642 9600 10806  27 9600 10806  3917 8442 10807  105 5190 10882  111 5015 10808  110 5015 10808  8973 9311 10809  102 9311 10809  90 6139 10810  89 6139 10810  3161 9855 10811  162 3161 10811  3761 7030 10812  198 3761 10812  166 3610 10813  165 3610 10813  4798 10222 10814  149 4798 10814  146 5630 10815  145 5630 10815  3609 8048 10816  157 8048 10816  160 6068 10817  159 6068 10817  143 3981 10818  142 3981 10818  183 3607 10819  182 3607 10819  3300 9464 10820  133 3300 10820  136 5087 10821  135 5087 10821  189 5010 10822  188 5010 10822  5667 7141 10823  183 7141 10823  172 4220 10824  171 4220 10824  206 3185 10825  205 3185 10825  9568 9569 10826  126 9569 10826  132 7495 10827  131 7495 10827  4777 6460 10828  130 6460 10828  3159 9335 10829  174 9335 10829  162 3137 10830  161 3137 10830  149 5748 10831  148 5748 10831  7947 8067 10832  152 7947 10832  145 7638 10833  144 7638 10833  198 5410 10834  197 5410 10834  4101 8813 10835  139 8813 10835  178 4229 10836  177 4229 10836  144 5259 10837  143 5259 10837  3367 9857 10838  164 9857 10838  5535 10135 10839  166 5535 10839  161 3741 10840  160 3741 10840  3514 8136 10841  23 3514 10841  2978 8881 10842  213 8881 10842  3062 6621 10843  15 6621 10843  244 4967 10844  243 4967 10844  5920 8662 10845  245 8662 10845  148 4919 10846  147 4919 10846  242 6514 10847  241 6514 10847  4023 9032 10848  4 9032 10848  3748 8328 10849  247 8328 10849  3341 8277 10850  12 8277 10850  4803 9516 10851  179 4803 10851  204 5834 10852  203 5834 10852  191 5212 10853  190 5212 10853  0 4461 10854  250 4461 10854  3998 8531 10855  215 8531 10855  2857 6569 10856  7 6569 10856  202 4052 10857  201 4052 10857  6405 8715 10858  18 8715 10858  5008 7350 10859  226 5008 10859  229 4609 10860  228 4609 10860  27 6207 10861  26 6207 10861  32 4302 10862  31 4302 10862  4519 10347 10863  101 10347 10863  4766 9295 10864  87 9295 10864  3745 6775 10865  65 6775 10865  44 5873 10866  43 5873 10866  91 5316 10867  90 5316 10867  3447 8143 10868  120 8143 10868  118 9273 10869  117 9273 10869  50 4782 10870  49 4782 10870  9328 10188 10871  68 9328 10871  8441 8442 10872  106 8442 10872  3688 8181 10873  114 3688 10873  3474 7916 10874  46 7916 10874  72 3703 10875  71 3703 10875  96 3912 10876  95 3912 10876  1429 4744 10877  2943 4744 10877  966 5196 10878  2943 5196 10878  2340 4426 10879  506 4426 10879  4421 10680 10880  530 10680 10880  2046 4839 10881  746 4839 10881  105 10807 10882  3917 10807 10882  1065 6724 10883  2999 6724 10883  3147 4742 10884  802 4742 10884  2865 5941 10885  416 5941 10885  2865 4962 10886  951 4962 10886  1466 5425 10887  2855 5425 10887  1833 5076 10888  2803 5076 10888  1190 3454 10889  1190 3355 10889  3459 10766 10890  79 10766 10890  3578 5064 10891  1253 5064 10891  4391 6827 10892  3227 4391 10892  3271 3937 10893  1396 3271 10893  444 5604 10894  444 4446 10894  1675 5941 10895  2865 5941 10895  2437 4926 10896  4926 10896 10901  3387 9738 10897  485 9738 10897  119 4811 10898  119 6326 10898  2817 4097 10899  2817 4918 10899  2253 4978 10900  3565 4978 10900  2866 5882 10901  951 5882 10901  489 5881 10902  2866 5881 10902  921 7218 10903  921 4972 10903  2566 8070 10904  8070 8840 10904  5094 6671 10905  2390 6671 10905  3091 4733 10906  804 4733 10906  4286 10906 10907  1492 4286 10907  </DataArray>
<DataArray  type="UInt32"  Name="offsets"  format="ascii">3 6 9 12 15 18 21 24 27 30 33 36 39 42 45 48 51 54 57 60 63 66 69 72 75 78 81 84 87 90 93 96 99 102 105 108 111 114 117 120 123 126 129 132 135 138 141 144 147 150 153 156 159 162 165 168 171 174 177 180 183 186 189 192 195 198 201 204 207 210 213 216 219 222 225 228 231 234 237 240 243 246 249 252 255 258 261 264 267 270 273 276 279 282 285 288 291 294 297 300 303 306 309 312 315 318 321 324 327 330 333 336 339 342 345 348 351 354 357 360 363 366 369 372 375 378 381 384 387 390 393 396 399 402 405 408 411 414 417 420 423 426 429 432 435 438 441 444 447 450 453 456 459 462 465 468 471 474 477 480 483 486 489 492 495 498 501 504 507 510 513 516 519 522 525 528 531 534 537 540 543 546 549 552 555 558 561 564 567 570 573 576 579 582 585 588 591 594 597 600 603 606 609 612 615 618 621 624 627 630 633 636 639 642 645 648 651 654 657 660 663 666 669 672 675 678 681 684 687 690 693 696 699 702 705 708 711 714 717 720 723 726 729 732 735 738 741 744 747 750 753 756 759 762 765 768 771 774 777 780 783 786 789 792 795 798 801 804 807 810 813 816 819 822 825 828 831 834 837 840 843 846 849 852 855 858 861 864 867 870 873 876 879 882 885 888 891 894 897 900 903 906 909 912 915 918 921 924 927 930 933 936 939 942 945 948 951 954 957 960 963 966 969 972 975 978 981 984 987 990 993 996 999 1002 1005 1008 1011 1014 1017 1020 1023 1026 1029 1032 1035 1038 1041 1044 1047 1050 1053 1056 1059 1062 1065 1068 1071 1074 1077 1080 1083 1086 1089 1092 1095 1098 1101 1104 1107 1110 1113 1116 1119 1122 1125 1128 1131 1134 1137 1140 1143 1146 1149 1152 1155 1158 1161 1164 1167 1170 1173 1176 1179 1182 1185 1188 1191 1194 1197 1200 1203 1206 1209 1212 1215 1218 1221 1224 1227 1230 1233 1236 1239 1242 1245 1248 1251 1254 1257 1260 1263 1266 1269 1272 1275 1278 1281 1284 1287 1290 1293 1296 1299 1302 1305 1308 1311 1314 1317 1320 1323 1326 1329 1332 1335 1338 1341 1344 1347 1350 1353 1356 1359 1362 1365 1368 1371 1374 1377 1380 1383 1386 1389 1392 1395 1398 1401 1404 1407 1410 1413 1416 1419 1422 1425 1428 1431 1434 1437 1440 1443 1446 1449 1452 1455 1458 1461 1464 1467 1470 1473 1476 1479 1482 1485 1488 1491 1494 1497 1500 1503 1506 1509 1512 1515 1518 1521 1524 1527 1530 1533 1536 1539 1542 1545 1548 1551 1554 1557 1560 1563 1566 1569 1572 1575 1578 1581 1584 1587 1590 1593 1596 1599 1602 1605 1608 1611 1614 1617 1620 1623 1626 1629 1632 1635 1638 1641 1644 1647 1650 1653 1656 1659 1662 1665 1668 1671 1674 1677 1680 1683 1686 1689 1692 1695 1698 1701 1704 1707 1710 1713 1716 1719 1722 1725 1728 1731 1734 1737 1740 1743 1746 1749 1752 1755 1758 1761 1764 1767 1770 1773 1776 1779 1782 1785 1788 1791 1794 1797 1800 1803 1806 1809 1812 1815 1818 1821 1824 1827 1830 1833 1836 1839 1842 1845 1848 1851 1854 1857 1860 1863 1866 1869 1872 1875 1878 1881 1884 1887 1890 1893 1896 1899 1902 1905 1908 1911 1914 1917 1920 1923 1926 1929 1932 1935 1938 1941 1944 1947 1950 1953 1956 1959 1962 1965 1968 1971 1974 1977 1980 1983 1986 1989 1992 1995 1998 2001 2004 2007 2010 2013 2016 2019 2022 2025 2028 2031 2034 2037 2040 2043 2046 2049 2052 2055 2058 2061 2064 2067 2070 2073 2076 2079 2082 2085 2088 2091 2094 2097 2100 2103 2106 2109 2112 2115 2118 2121 2124 2127 2130 2133 2136 2139 2142 2145 2148 2151 2154 2157 2160 2163 2166 2169 2172 2175 2178 2181 2184 2187 2190 2193 2196 2199 2202 2205 2208 2211 2214 2217 2220 2223 2226 2229 2232 2235 2238 2241 2244 2247 2250 2253 2256 2259 2262 2265 2268 2271 2274 2277 2280 2283 2286 2289 2292 2295 2298 2301 2304 2307 2310 2313 2316 2319 2322 2325 2328 2331 2334 2337 2340 2343 2346 2349 2352 2355 2358 2361 2364 2367 2370 2373 2376 2379 2382 2385 2388 2391 2394 2397 2400 2403 2406 2409 2412 2415 2418 2421 2424 2427 2430 2433 2436 2439 2442 2445 2448 2451 2454 2457 2460 2463 2466 2469 2472 2475 2478 2481 2484 2487 2490 2493 2496 2499 2502 2505 2508 2511 2514 2517 2520 2523 2526 2529 2532 2535 2538 2541 2544 2547 2550 2553 2556 2559 2562 2565 2568 2571 2574 2577 2580 2583 2586 2589 2592 2595 2598 2601 2604 2607 2610 2613 2616 2619 2622 2625 2628 2631 2634 2637 2640 2643 2646 2649 2652 2655 2658 2661 2664 2667 2670 2673 2676 2679 2682 2685 2688 2691 2694 2697 2700 2703 2706 2709 2712 2715 2718 2721 2724 2727 2730 2733 2736 2739 2742 2745 2748 2751 2754 2757 2760 2763 2766 2769 2772 2775 2778 2781 2784 2787 2790 2793 2796 2799 2802 2805 2808 2811 2814 2817 2820 2823 2826 2829 2832 2835 2838 2841 2844 2847 2850 2853 2856 2859 2862 2865 2868 2871 2874 2877 2880 2883 2886 2889 2892 2895 2898 2901 2904 2907 2910 2913 2916 2919 2922 2925 2928 2931 2934 2937 2940 2943 2946 2949 2952 2955 2958 2961 2964 2967 2970 2973 2976 2979 2982 2985 2988 2991 2994 2997 3000 3003 3006 3009 3012 3015 3018 3021 3024 3027 3030 3033 3036 3039 3042 3045 3048 3051 3054 3057 3060 3063 3066 3069 3072 3075 3078 3081 3084 3087 3090 3093 3096 3099 3102 3105 3108 3111 3114 3117 3120 3123 3126 3129 3132 3135 3138 3141 3144 3147 3150 3153 3156 3159 3162 3165 3168 3171 3174 3177 3180 3183 3186 3189 3192 3195 3198 3201 3204 3207 3210 3213 3216 3219 3222 3225 3228 3231 3234 3237 3240 3243 3246 3249 3252 3255 3258 3261 3264 3267 3270 3273 3276 3279 3282 3285 3288 3291 3294 3297 3300 3303 3306 3309 3312 3315 3318 3321 3324 3327 3330 3333 3336 3339 3342 3345 3348 3351 3354 3357 3360 3363 3366 3369 3372 3375 3378 3381 3384 3387 3390 3393 3396 3399 3402 3405 3408 3411 3414 3417 3420 3423 3426 3429 3432 3435 3438 3441 3444 3447 3450 3453 3456 3459 3462 3465 3468 3471 3474 3477 3480 3483 3486 3489 3492 3495 3498 3501 3504 3507 3510 3513 3516 3519 3522 3525 3528 3531 3534 3537 3540 3543 3546 3549 3552 3555 3558 3561 3564 3567 3570 3573 3576 3579 3582 3585 3588 3591 3594 3597 3600 3603 3606 3609 3612 3615 3618 3621 3624 3627 3630 3633 3636 3639 3642 3645 3648 3651 3654 3657 3660 3663 3666 3669 3672 3675 3678 3681 3684 3687 3690 3693 3696 3699 3702 3705 3708 3711 3714 3717 3720 3723 3726 3729 3732 3735 3738 3741 3744 3747 3750 3753 3756 3759 3762 3765 3768 3771 3774 3777 3780 3783 3786 3789 3792 3795 3798 3801 3804 3807 3810 3813 3816 3819 3822 3825 3828 3831 3834 3837 3840 3843 3846 3849 3852 3855 3858 3861 3864 3867 3870 3873 3876 3879 3882 3885 3888 3891 3894 3897 3900 3903 3906 3909 3912 3915 3918 3921 3924 3927 3930 3933 3936 3939 3942 3945 3948 3951 3954 3957 3960 3963 3966 3969 3972 3975 3978 3981 3984 3987 3990 3993 3996 3999 4002 4005 4008 4011 4014 4017 4020 4023 4026 4029 4032 4035 4038 4041 4044 4047 4050 4053 4056 4059 4062 4065 4068 4071 4074 4077 4080 4083 4086 4089 4092 4095 4098 4101 4104 4107 4110 4113 4116 4119 4122 4125 4128 4131 4134 4137 4140 4143 4146 4149 4152 4155 4158 4161 4164 4167 4170 4173 4176 4179 4182 4185 4188 4191 4194 4197 4200 4203 4206 4209 4212 4215 4218 4221 4224 4227 4230 4233 4236 4239 4242 4245 4248 4251 4254 4257 4260 4263 4266 4269 4272 4275 4278 4281 4284 4287 4290 4293 4296 4299 4302 4305 4308 4311 4314 4317 4320 4323 4326 4329 4332 4335 4338 4341 4344 4347 4350 4353 4356 4359 4362 4365 4368 4371 4374 4377 4380 4383 4386 4389 4392 4395 4398 4401 4404 4407 4410 4413 4416 4419 4422 4425 4428 4431 4434 4437 4440 4443 4446 4449 4452 4455 4458 4461 4464 4467 4470 4473 4476 4479 4482 4485 4488 4491 4494 4497 4500 4503 4506 4509 4512 4515 4518 4521 4524 4527 4530 4533 4536 4539 4542 4545 4548 4551 4554 4557 4560 4563 4566 4569 4572 4575 4578 4581 4584 4587 4590 4593 4596 4599 4602 4605 4608 4611 4614 4617 4620 4623 4626 4629 4632 4635 4638 4641 4644 4647 4650 4653 4656 4659 4662 4665 4668 4671 4674 4677 4680 4683 4686 4689 4692 4695 4698 4701 4704 4707 4710 4713 4716 4719 4722 4725 4728 4731 4734 4737 4740 4743 4746 4749 4752 4755 4758 4761 4764 4767 4770 4773 4776 4779 4782 4785 4788 4791 4794 4797 4800 4803 4806 4809 4812 4815 4818 4821 4824 4827 4830 4833 4836 4839 4842 4845 4848 4851 4854 4857 4860 4863 4866 4869 4872 4875 4878 4881 4884 4887 4890 4893 4896 4899 4902 4905 4908 4911 4914 4917 4920 4923 4926 4929 4932 4935 4938 4941 4944 4947 4950 4953 4956 4959 4962 4965 4968 4971 4974 4977 4980 4983 4986 4989 4992 4995 4998 5001 5004 5007 5010 5013 5016 5019 5022 5025 5028 5031 5034 5037 5040 5043 5046 5049 5052 5055 5058 5061 5064 5067 5070 5073 5076 5079 5082 5085 5088 5091 5094 5097 5100 5103 5106 5109 5112 5115 5118 5121 5124 5127 5130 5133 5136 5139 5142 5145 5148 5151 5154 5157 5160 5163 5166 5169 5172 5175 5178 5181 5184 5187 5190 5193 5196 5199 5202 5205 5208 5211 5214 5217 5220 5223 5226 5229 5232 5235 5238 5241 5244 5247 5250 5253 5256 5259 5262 5265 5268 5271 5274 5277 5280 5283 5286 5289 5292 5295 5298 5301 5304 5307 5310 5313 5316 5319 5322 5325 5328 5331 5334 5337 5340 5343 5346 5349 5352 5355 5358 5361 5364 5367 5370 5373 5376 5379 5382 5385 5388 5391 5394 5397 5400 5403 5406 5409 5412 5415 5418 5421 5424 5427 5430 5433 5436 5439 5442 5445 5448 5451 5454 5457 5460 5463 5466 5469 5472 5475 5478 5481 5484 5487 5490 5493 5496 5499 5502 5505 5508 5511 5514 5517 5520 5523 5526 5529 5532 5535 5538 5541 5544 5547 5550 5553 5556 5559 5562 5565 5568 5571 5574 5577 5580 5583 5586 5589 5592 5595 5598 5601 5604 5607 5610 5613 5616 5619 5622 5625 5628 5631 5634 5637 5640 5643 5646 5649 5652 5655 5658 5661 5664 5667 5670 5673 5676 5679 5682 5685 5688 5691 5694 5697 5700 5703 5706 5709 5712 5715 5718 5721 5724 5727 5730 5733 5736 5739 5742 5745 5748 5751 5754 5757 5760 5763 5766 5769 5772 5775 5778 5781 5784 5787 5790 5793 5796 5799 5802 5805 5808 5811 5814 5817 5820 5823 5826 5829 5832 5835 5838 5841 5844 5847 5850 5853 5856 5859 5862 5865 5868 5871 5874 5877 5880 5883 5886 5889 5892 5895 5898 5901 5904 5907 5910 5913 5916 5919 5922 5925 5928 5931 5934 5937 5940 5943 5946 5949 5952 5955 5958 5961 5964 5967 5970 5973 5976 5979 5982 5985 5988 5991 5994 5997 6000 6003 6006 6009 6012 6015 6018 6021 6024 6027 6030 6033 6036 6039 6042 6045 6048 6051 6054 6057 6060 6063 6066 6069 6072 6075 6078 6081 6084 6087 6090 6093 6096 6099 6102 6105 6108 6111 6114 6117 6120 6123 6126 6129 6132 6135 6138 6141 6144 6147 6150 6153 6156 6159 6162 6165 6168 6171 6174 6177 6180 6183 6186 6189 6192 6195 6198 6201 6204 6207 6210 6213 6216 6219 6222 6225 6228 6231 6234 6237 6240 6243 6246 6249 6252 6255 6258 6261 6264 6267 6270 6273 6276 6279 6282 6285 6288 6291 6294 6297 6300 6303 6306 6309 6312 6315 6318 6321 6324 6327 6330 6333 6336 6339 6342 6345 6348 6351 6354 6357 6360 6363 6366 6369 6372 6375 6378 6381 6384 6387 6390 6393 6396 6399 6402 6405 6408 6411 6414 6417 6420 6423 6426 6429 6432 6435 6438 6441 6444 6447 6450 6453 6456 6459 6462 6465 6468 6471 6474 6477 6480 6483 6486 6489 6492 6495 6498 6501 6504 6507 6510 6513 6516 6519 6522 6525 6528 6531 6534 6537 6540 6543 6546 6549 6552 6555 6558 6561 6564 6567 6570 6573 6576 6579 6582 6585 6588 6591 6594 6597 6600 6603 6606 6609 6612 6615 6618 6621 6624 6627 6630 6633 6636 6639 6642 6645 6648 6651 6654 6657 6660 6663 6666 6669 6672 6675 6678 6681 6684 6687 6690 6693 6696 6699 6702 6705 6708 6711 6714 6717 6720 6723 6726 6729 6732 6735 6738 6741 6744 6747 6750 6753 6756 6759 6762 6765 6768 6771 6774 6777 6780 6783 6786 6789 6792 6795 6798 6801 6804 6807 6810 6813 6816 6819 6822 6825 6828 6831 6834 6837 6840 6843 6846 6849 6852 6855 6858 6861 6864 6867 6870 6873 6876 6879 6882 6885 6888 6891 6894 6897 6900 6903 6906 6909 6912 6915 6918 6921 6924 6927 6930 6933 6936 6939 6942 6945 6948 6951 6954 6957 6960 6963 6966 6969 6972 6975 6978 6981 6984 6987 6990 6993 6996 6999 7002 7005 7008 7011 7014 7017 7020 7023 7026 7029 7032 7035 7038 7041 7044 7047 7050 7053 7056 7059 7062 7065 7068 7071 7074 7077 7080 7083 7086 7089 7092 7095 7098 7101 7104 7107 7110 7113 7116 7119 7122 7125 7128 7131 7134 7137 7140 7143 7146 7149 7152 7155 7158 7161 7164 7167 7170 7173 7176 7179 7182 7185 7188 7191 7194 7197 7200 7203 7206 7209 7212 7215 7218 7221 7224 7227 7230 7233 7236 7239 7242 7245 7248 7251 7254 7257 7260 7263 7266 7269 7272 7275 7278 7281 7284 7287 7290 7293 7296 7299 7302 7305 7308 7311 7314 7317 7320 7323 7326 7329 7332 7335 7338 7341 7344 7347 7350 7353 7356 7359 7362 7365 7368 7371 7374 7377 7380 7383 7386 7389 7392 7395 7398 7401 7404 7407 7410 7413 7416 7419 7422 7425 7428 7431 7434 7437 7440 7443 7446 7449 7452 7455 7458 7461 7464 7467 7470 7473 7476 7479 7482 7485 7488 7491 7494 7497 7500 7503 7506 7509 7512 7515 7518 7521 7524 7527 7530 7533 7536 7539 7542 7545 7548 7551 7554 7557 7560 7563 7566 7569 7572 7575 7578 7581 7584 7587 7590 7593 7596 7599 7602 7605 7608 7611 7614 7617 7620 7623 7626 7629 7632 7635 7638 7641 7644 7647 7650 7653 7656 7659 7662 7665 7668 7671 7674 7677 7680 7683 7686 7689 7692 7695 7698 7701 7704 7707 7710 7713 7716 7719 7722 7725 7728 7731 7734 7737 7740 7743 7746 7749 7752 7755 7758 7761 7764 7767 7770 7773 7776 7779 7782 7785 7788 7791 7794 7797 7800 7803 7806 7809 7812 7815 7818 7821 7824 7827 7830 7833 7836 7839 7842 7845 7848 7851 7854 7857 7860 7863 7866 7869 7872 7875 7878 7881 7884 7887 7890 7893 7896 7899 7902 7905 7908 7911 7914 7917 7920 7923 7926 7929 7932 7935 7938 7941 7944 7947 7950 7953 7956 7959 7962 7965 7968 7971 7974 7977 7980 7983 7986 7989 7992 7995 7998 8001 8004 8007 8010 8013 8016 8019 8022 8025 8028 8031 8034 8037 8040 8043 8046 8049 8052 8055 8058 8061 8064 8067 8070 8073 8076 8079 8082 8085 8088 8091 8094 8097 8100 8103 8106 8109 8112 8115 8118 8121 8124 8127 8130 8133 8136 8139 8142 8145 8148 8151 8154 8157 8160 8163 8166 8169 8172 8175 8178 8181 8184 8187 8190 8193 8196 8199 8202 8205 8208 8211 8214 8217 8220 8223 8226 8229 8232 8235 8238 8241 8244 8247 8250 8253 8256 8259 8262 8265 8268 8271 8274 8277 8280 8283 8286 8289 8292 8295 8298 8301 8304 8307 8310 8313 8316 8319 8322 8325 8328 8331 8334 8337 8340 8343 8346 8349 8352 8355 8358 8361 8364 8367 8370 8373 8376 8379 8382 8385 8388 8391 8394 8397 8400 8403 8406 8409 8412 8415 8418 8421 8424 8427 8430 8433 8436 8439 8442 8445 8448 8451 8454 8457 8460 8463 8466 8469 8472 8475 8478 8481 8484 8487 8490 8493 8496 8499 8502 8505 8508 8511 8514 8517 8520 8523 8526 8529 8532 8535 8538 8541 8544 8547 8550 8553 8556 8559 8562 8565 8568 8571 8574 8577 8580 8583 8586 8589 8592 8595 8598 8601 8604 8607 8610 8613 8616 8619 8622 8625 8628 8631 8634 8637 8640 8643 8646 8649 8652 8655 8658 8661 8664 8667 8670 8673 8676 8679 8682 8685 8688 8691 8694 8697 8700 8703 8706 8709 8712 8715 8718 8721 8724 8727 8730 8733 8736 8739 8742 8745 8748 8751 8754 8757 8760 8763 8766 8769 8772 8775 8778 8781 8784 8787 8790 8793 8796 8799 8802 8805 8808 8811 8814 8817 8820 8823 8826 8829 8832 8835 8838 8841 8844 8847 8850 8853 8856 8859 8862 8865 8868 8871 8874 8877 8880 8883 8886 8889 8892 8895 8898 8901 8904 8907 8910 8913 8916 8919 8922 8925 8928 8931 8934 8937 8940 8943 8946 8949 8952 8955 8958 8961 8964 8967 8970 8973 8976 8979 8982 8985 8988 8991 8994 8997 9000 9003 9006 9009 9012 9015 9018 9021 9024 9027 9030 9033 9036 9039 9042 9045 9048 9051 9054 9057 9060 9063 9066 9069 9072 9075 9078 9081 9084 9087 9090 9093 9096 9099 9102 9105 9108 9111 9114 9117 9120 9123 9126 9129 9132 9135 9138 9141 9144 9147 9150 9153 9156 9159 9162 9165 9168 9171 9174 9177 9180 9183 9186 9189 9192 9195 9198 9201 9204 9207 9210 9213 9216 9219 9222 9225 9228 9231 9234 9237 9240 9243 9246 9249 9252 9255 9258 9261 9264 9267 9270 9273 9276 9279 9282 9285 9288 9291 9294 9297 9300 9303 9306 9309 9312 9315 9318 9321 9324 9327 9330 9333 9336 9339 9342 9345 9348 9351 9354 9357 9360 9363 9366 9369 9372 9375 9378 9381 9384 9387 9390 9393 9396 9399 9402 9405 9408 9411 9414 9417 9420 9423 9426 9429 9432 9435 9438 9441 9444 9447 9450 9453 9456 9459 9462 9465 9468 9471 9474 9477 9480 9483 9486 9489 9492 9495 9498 9501 9504 9507 9510 9513 9516 9519 9522 9525 9528 9531 9534 9537 9540 9543 9546 9549 9552 9555 9558 9561 9564 9567 9570 9573 9576 9579 9582 9585 9588 9591 9594 9597 9600 9603 9606 9609 9612 9615 9618 9621 9624 9627 9630 9633 9636 9639 9642 9645 9648 9651 9654 9657 9660 9663 9666 9669 9672 9675 9678 9681 9684 9687 9690 9693 9696 9699 9702 9705 9708 9711 9714 9717 9720 9723 9726 9729 9732 9735 9738 9741 9744 9747 9750 9753 9756 9759 9762 9765 9768 9771 9774 9777 9780 9783 9786 9789 9792 9795 9798 9801 9804 9807 9810 9813 9816 9819 9822 9825 9828 9831 9834 9837 9840 9843 9846 9849 9852 9855 9858 9861 9864 9867 9870 9873 9876 9879 9882 9885 9888 9891 9894 9897 9900 9903 9906 9909 9912 9915 9918 9921 9924 9927 9930 9933 9936 9939 9942 9945 9948 9951 9954 9957 9960 9963 9966 9969 9972 9975 9978 9981 9984 9987 9990 9993 9996 9999 10002 10005 10008 10011 10014 10017 10020 10023 10026 10029 10032 10035 10038 10041 10044 10047 10050 10053 10056 10059 10062 10065 10068 10071 10074 10077 10080 10083 10086 10089 10092 10095 10098 10101 10104 10107 10110 10113 10116 10119 10122 10125 10128 10131 10134 10137 10140 10143 10146 10149 10152 10155 10158 10161 10164 10167 10170 10173 10176 10179 10182 10185 10188 10191 10194 10197 10200 10203 10206 10209 10212 10215 10218 10221 10224 10227 10230 10233 10236 10239 10242 10245 10248 10251 10254 10257 10260 10263 10266 10269 10272 10275 10278 10281 10284 10287 10290 10293 10296 10299 10302 10305 10308 10311 10314 10317 10320 10323 10326 10329 10332 10335 10338 10341 10344 10347 10350 10353 10356 10359 10362 10365 10368 10371 10374 10377 10380 10383 10386 10389 10392 10395 10398 10401 10404 10407 10410 10413 10416 10419 10422 10425 10428 10431 10434 10437 10440 10443 10446 10449 10452 10455 10458 10461 10464 10467 10470 10473 10476 10479 10482 10485 10488 10491 10494 10497 10500 10503 10506 10509 10512 10515 10518 10521 10524 10527 10530 10533 10536 10539 10542 10545 10548 10551 10554 10557 10560 10563 10566 10569 10572 10575 10578 10581 10584 10587 10590 10593 10596 10599 10602 10605 10608 10611 10614 10617 10620 10623 10626 10629 10632 10635 10638 10641 10644 10647 10650 10653 10656 10659 10662 10665 10668 10671 10674 10677 10680 10683 10686 10689 10692 10695 10698 10701 10704 10707 10710 10713 10716 10719 10722 10725 10728 10731 10734 10737 10740 10743 10746 10749 10752 10755 10758 10761 10764 10767 10770 10773 10776 10779 10782 10785 10788 10791 10794 10797 10800 10803 10806 10809 10812 10815 10818 10821 10824 10827 10830 10833 10836 10839 10842 10845 10848 10851 10854 10857 10860 10863 10866 10869 10872 10875 10878 10881 10884 10887 10890 10893 10896 10899 10902 10905 10908 10911 10914 10917 10920 10923 10926 10929 10932 10935 10938 10941 10944 10947 10950 10953 10956 10959 10962 10965 10968 10971 10974 10977 10980 10983 10986 10989 10992 10995 10998 11001 11004 11007 11010 11013 11016 11019 11022 11025 11028 11031 11034 11037 11040 11043 11046 11049 11052 11055 11058 11061 11064 11067 11070 11073 11076 11079 11082 11085 11088 11091 11094 11097 11100 11103 11106 11109 11112 11115 11118 11121 11124 11127 11130 11133 11136 11139 11142 11145 11148 11151 11154 11157 11160 11163 11166 11169 11172 11175 11178 11181 11184 11187 11190 11193 11196 11199 11202 11205 11208 11211 11214 11217 11220 11223 11226 11229 11232 11235 11238 11241 11244 11247 11250 11253 11256 11259 11262 11265 11268 11271 11274 11277 11280 11283 11286 11289 11292 11295 11298 11301 11304 11307 11310 11313 11316 11319 11322 11325 11328 11331 11334 11337 11340 11343 11346 11349 11352 11355 11358 11361 11364 11367 11370 11373 11376 11379 11382 11385 11388 11391 11394 11397 11400 11403 11406 11409 11412 11415 11418 11421 11424 11427 11430 11433 11436 11439 11442 11445 11448 11451 11454 11457 11460 11463 11466 11469 11472 11475 11478 11481 11484 11487 11490 11493 11496 11499 11502 11505 11508 11511 11514 11517 11520 11523 11526 11529 11532 11535 11538 11541 11544 11547 11550 11553 11556 11559 11562 11565 11568 11571 11574 11577 11580 11583 11586 11589 11592 11595 11598 11601 11604 11607 11610 11613 11616 11619 11622 11625 11628 11631 11634 11637 11640 11643 11646 11649 11652 11655 11658 11661 11664 11667 11670 11673 11676 11679 11682 11685 11688 11691 11694 11697 11700 11703 11706 11709 11712 11715 11718 11721 11724 11727 11730 11733 11736 11739 11742 11745 11748 11751 11754 11757 11760 11763 11766 11769 11772 11775 11778 11781 11784 11787 11790 11793 11796 11799 11802 11805 11808 11811 11814 11817 11820 11823 11826 11829 11832 11835 11838 11841 11844 11847 11850 11853 11856 11859 11862 11865 11868 11871 11874 11877 11880 11883 11886 11889 11892 11895 11898 11901 11904 11907 11910 11913 11916 11919 11922 11925 11928 11931 11934 11937 11940 11943 11946 11949 11952 11955 11958 11961 11964 11967 11970 11973 11976 11979 11982 11985 11988 11991 11994 11997 12000 12003 12006 12009 12012 12015 12018 12021 12024 12027 12030 12033 12036 12039 12042 12045 12048 12051 12054 12057 12060 12063 12066 12069 12072 12075 12078 12081 12084 12087 12090 12093 12096 12099 12102 12105 12108 12111 12114 12117 12120 12123 12126 12129 12132 12135 12138 12141 12144 12147 12150 12153 12156 12159 12162 12165 12168 12171 12174 12177 12180 12183 12186 12189 12192 12195 12198 12201 12204 12207 12210 12213 12216 12219 12222 12225 12228 12231 12234 12237 12240 12243 12246 12249 12252 12255 12258 12261 12264 12267 12270 12273 12276 12279 12282 12285 12288 12291 12294 12297 12300 12303 12306 12309 12312 12315 12318 12321 12324 12327 12330 12333 12336 12339 12342 12345 12348 12351 12354 12357 12360 12363 12366 12369 12372 12375 12378 12381 12384 12387 12390 12393 12396 12399 12402 12405 12408 12411 12414 12417 12420 12423 12426 12429 12432 12435 12438 12441 12444 12447 12450 12453 12456 12459 12462 12465 12468 12471 12474 12477 12480 12483 12486 12489 12492 12495 12498 12501 12504 12507 12510 12513 12516 12519 12522 12525 12528 12531 12534 12537 12540 12543 12546 12549 12552 12555 12558 12561 12564 12567 12570 12573 12576 12579 12582 12585 12588 12591 12594 12597 12600 12603 12606 12609 12612 12615 12618 12621 12624 12627 12630 12633 12636 12639 12642 12645 12648 12651 12654 12657 12660 12663 12666 12669 12672 12675 12678 12681 12684 12687 12690 12693 12696 12699 12702 12705 12708 12711 12714 12717 12720 12723 12726 12729 12732 12735 12738 12741 12744 12747 12750 12753 12756 12759 12762 12765 12768 12771 12774 12777 12780 12783 12786 12789 12792 12795 12798 12801 12804 12807 12810 12813 12816 12819 12822 12825 12828 12831 12834 12837 12840 12843 12846 12849 12852 12855 12858 12861 12864 12867 12870 12873 12876 12879 12882 12885 12888 12891 12894 12897 12900 12903 12906 12909 12912 12915 12918 12921 12924 12927 12930 12933 12936 12939 12942 12945 12948 12951 12954 12957 12960 12963 12966 12969 12972 12975 12978 12981 12984 12987 12990 12993 12996 12999 13002 13005 13008 13011 13014 13017 13020 13023 13026 13029 13032 13035 13038 13041 13044 13047 13050 13053 13056 13059 13062 13065 13068 13071 13074 13077 13080 13083 13086 13089 13092 13095 13098 13101 13104 13107 13110 13113 13116 13119 13122 13125 13128 13131 13134 13137 13140 13143 13146 13149 13152 13155 13158 13161 13164 13167 13170 13173 13176 13179 13182 13185 13188 13191 13194 13197 13200 13203 13206 13209 13212 13215 13218 13221 13224 13227 13230 13233 13236 13239 13242 13245 13248 13251 13254 13257 13260 13263 13266 13269 13272 13275 13278 13281 13284 13287 13290 13293 13296 13299 13302 13305 13308 13311 13314 13317 13320 13323 13326 13329 13332 13335 13338 13341 13344 13347 13350 13353 13356 13359 13362 13365 13368 13371 13374 13377 13380 13383 13386 13389 13392 13395 13398 13401 13404 13407 13410 13413 13416 13419 13422 13425 13428 13431 13434 13437 13440 13443 13446 13449 13452 13455 13458 13461 13464 13467 13470 13473 13476 13479 13482 13485 13488 13491 13494 13497 13500 13503 13506 13509 13512 13515 13518 13521 13524 13527 13530 13533 13536 13539 13542 13545 13548 13551 13554 13557 13560 13563 13566 13569 13572 13575 13578 13581 13584 13587 13590 13593 13596 13599 13602 13605 13608 13611 13614 13617 13620 13623 13626 13629 13632 13635 13638 13641 13644 13647 13650 13653 13656 13659 13662 13665 13668 13671 13674 13677 13680 13683 13686 13689 13692 13695 13698 13701 13704 13707 13710 13713 13716 13719 13722 13725 13728 13731 13734 13737 13740 13743 13746 13749 13752 13755 13758 13761 13764 13767 13770 13773 13776 13779 13782 13785 13788 13791 13794 13797 13800 13803 13806 13809 13812 13815 13818 13821 13824 13827 13830 13833 13836 13839 13842 13845 13848 13851 13854 13857 13860 13863 13866 13869 13872 13875 13878 13881 13884 13887 13890 13893 13896 13899 13902 13905 13908 13911 13914 13917 13920 13923 13926 13929 13932 13935 13938 13941 13944 13947 13950 13953 13956 13959 13962 13965 13968 13971 13974 13977 13980 13983 13986 13989 13992 13995 13998 14001 14004 14007 14010 14013 14016 14019 14022 14025 14028 14031 14034 14037 14040 14043 14046 14049 14052 14055 14058 14061 14064 14067 14070 14073 14076 14079 14082 14085 14088 14091 14094 14097 14100 14103 14106 14109 14112 14115 14118 14121 14124 14127 14130 14133 14136 14139 14142 14145 14148 14151 14154 14157 14160 14163 14166 14169 14172 14175 14178 14181 14184 14187 14190 14193 14196 14199 14202 14205 14208 14211 14214 14217 14220 14223 14226 14229 14232 14235 14238 14241 14244 14247 14250 14253 14256 14259 14262 14265 14268 14271 14274 14277 14280 14283 14286 14289 14292 14295 14298 14301 14304 14307 14310 14313 14316 14319 14322 14325 14328 14331 14334 14337 14340 14343 14346 14349 14352 14355 14358 14361 14364 14367 14370 14373 14376 14379 14382 14385 14388 14391 14394 14397 14400 14403 14406 14409 14412 14415 14418 14421 14424 14427 14430 14433 14436 14439 14442 14445 14448 14451 14454 14457 14460 14463 14466 14469 14472 14475 14478 14481 14484 14487 14490 14493 14496 14499 14502 14505 14508 14511 14514 14517 14520 14523 14526 14529 14532 14535 14538 14541 14544 14547 14550 14553 14556 14559 14562 14565 14568 14571 14574 14577 14580 14583 14586 14589 14592 14595 14598 14601 14604 14607 14610 14613 14616 14619 14622 14625 14628 14631 14634 14637 14640 14643 14646 14649 14652 14655 14658 14661 14664 14667 14670 14673 14676 14679 14682 14685 14688 14691 14694 14697 14700 14703 14706 14709 14712 14715 14718 14721 14724 14727 14730 14733 14736 14739 14742 14745 14748 14751 14754 14757 14760 14763 14766 14769 14772 14775 14778 14781 14784 14787 14790 14793 14796 14799 14802 14805 14808 14811 14814 14817 14820 14823 14826 14829 14832 14835 14838 14841 14844 14847 14850 14853 14856 14859 14862 14865 14868 14871 14874 14877 14880 14883 14886 14889 14892 14895 14898 14901 14904 14907 14910 14913 14916 14919 14922 14925 14928 14931 14934 14937 14940 14943 14946 14949 14952 14955 14958 14961 14964 14967 14970 14973 14976 14979 14982 14985 14988 14991 14994 14997 15000 15003 15006 15009 15012 15015 15018 15021 15024 15027 15030 15033 15036 15039 15042 15045 15048 15051 15054 15057 15060 15063 15066 15069 15072 15075 15078 15081 15084 15087 15090 15093 15096 15099 15102 15105 15108 15111 15114 15117 15120 15123 15126 15129 15132 15135 15138 15141 15144 15147 15150 15153 15156 15159 15162 15165 15168 15171 15174 15177 15180 15183 15186 15189 15192 15195 15198 15201 15204 15207 15210 15213 15216 15219 15222 15225 15228 15231 15234 15237 15240 15243 15246 15249 15252 15255 15258 15261 15264 15267 15270 15273 15276 15279 15282 15285 15288 15291 15294 15297 15300 15303 15306 15309 15312 15315 15318 15321 15324 15327 15330 15333 15336 15339 15342 15345 15348 15351 15354 15357 15360 15363 15366 15369 15372 15375 15378 15381 15384 15387 15390 15393 15396 15399 15402 15405 15408 15411 15414 15417 15420 15423 15426 15429 15432 15435 15438 15441 15444 15447 15450 15453 15456 15459 15462 15465 15468 15471 15474 15477 15480 15483 15486 15489 15492 15495 15498 15501 15504 15507 15510 15513 15516 15519 15522 15525 15528 15531 15534 15537 15540 15543 15546 15549 15552 15555 15558 15561 15564 15567 15570 15573 15576 15579 15582 15585 15588 15591 15594 15597 15600 15603 15606 15609 15612 15615 15618 15621 15624 15627 15630 15633 15636 15639 15642 15645 15648 15651 15654 15657 15660 15663 15666 15669 15672 15675 15678 15681 15684 15687 15690 15693 15696 15699 15702 15705 15708 15711 15714 15717 15720 15723 15726 15729 15732 15735 15738 15741 15744 15747 15750 15753 15756 15759 15762 15765 15768 15771 15774 15777 15780 15783 15786 15789 15792 15795 15798 15801 15804 15807 15810 15813 15816 15819 15822 15825 15828 15831 15834 15837 15840 15843 15846 15849 15852 15855 15858 15861 15864 15867 15870 15873 15876 15879 15882 15885 15888 15891 15894 15897 15900 15903 15906 15909 15912 15915 15918 15921 15924 15927 15930 15933 15936 15939 15942 15945 15948 15951 15954 15957 15960 15963 15966 15969 15972 15975 15978 15981 15984 15987 15990 15993 15996 15999 16002 16005 16008 16011 16014 16017 16020 16023 16026 16029 16032 16035 16038 16041 16044 16047 16050 16053 16056 16059 16062 16065 16068 16071 16074 16077 16080 16083 16086 16089 16092 16095 16098 16101 16104 16107 16110 16113 16116 16119 16122 16125 16128 16131 16134 16137 16140 16143 16146 16149 16152 16155 16158 16161 16164 16167 16170 16173 16176 16179 16182 16185 16188 16191 16194 16197 16200 16203 16206 16209 16212 16215 16218 16221 16224 16227 16230 16233 16236 16239 16242 16245 16248 16251 16254 16257 16260 16263 16266 16269 16272 16275 16278 16281 16284 16287 16290 16293 16296 16299 16302 16305 16308 16311 16314 16317 16320 16323 16326 16329 16332 16335 16338 16341 16344 16347 16350 16353 16356 16359 16362 16365 16368 16371 16374 16377 16380 16383 16386 16389 16392 16395 16398 16401 16404 16407 16410 16413 16416 16419 16422 16425 16428 16431 16434 16437 16440 16443 16446 16449 16452 16455 16458 16461 16464 16467 16470 16473 16476 16479 16482 16485 16488 16491 16494 16497 16500 16503 16506 16509 16512 16515 16518 16521 16524 16527 16530 16533 16536 16539 16542 16545 16548 16551 16554 16557 16560 16563 16566 16569 16572 16575 16578 16581 16584 16587 16590 16593 16596 16599 16602 16605 16608 16611 16614 16617 16620 16623 16626 16629 16632 16635 16638 16641 16644 16647 16650 16653 16656 16659 16662 16665 16668 16671 16674 16677 16680 16683 16686 16689 16692 16695 16698 16701 16704 16707 16710 16713 16716 16719 16722 16725 16728 16731 16734 16737 16740 16743 16746 16749 16752 16755 16758 16761 16764 16767 16770 16773 16776 16779 16782 16785 16788 16791 16794 16797 16800 16803 16806 16809 16812 16815 16818 16821 16824 16827 16830 16833 16836 16839 16842 16845 16848 16851 16854 16857 16860 16863 16866 16869 16872 16875 16878 16881 16884 16887 16890 16893 16896 16899 16902 16905 16908 16911 16914 16917 16920 16923 16926 16929 16932 16935 16938 16941 16944 16947 16950 16953 16956 16959 16962 16965 16968 16971 16974 16977 16980 16983 16986 16989 16992 16995 16998 17001 17004 17007 17010 17013 17016 17019 17022 17025 17028 17031 17034 17037 17040 17043 17046 17049 17052 17055 17058 17061 17064 17067 17070 17073 17076 17079 17082 17085 17088 17091 17094 17097 17100 17103 17106 17109 17112 17115 17118 17121 17124 17127 17130 17133 17136 17139 17142 17145 17148 17151 17154 17157 17160 17163 17166 17169 17172 17175 17178 17181 17184 17187 17190 17193 17196 17199 17202 17205 17208 17211 17214 17217 17220 17223 17226 17229 17232 17235 17238 17241 17244 17247 17250 17253 17256 17259 17262 17265 17268 17271 17274 17277 17280 17283 17286 17289 17292 17295 17298 17301 17304 17307 17310 17313 17316 17319 17322 17325 17328 17331 17334 17337 17340 17343 17346 17349 17352 17355 17358 17361 17364 17367 17370 17373 17376 17379 17382 17385 17388 17391 17394 17397 17400 17403 17406 17409 17412 17415 17418 17421 17424 17427 17430 17433 17436 17439 17442 17445 17448 17451 17454 17457 17460 17463 17466 17469 17472 17475 17478 17481 17484 17487 17490 17493 17496 17499 17502 17505 17508 17511 17514 17517 17520 17523 17526 17529 17532 17535 17538 17541 17544 17547 17550 17553 17556 17559 17562 17565 17568 17571 17574 17577 17580 17583 17586 17589 17592 17595 17598 17601 17604 17607 17610 17613 17616 17619 17622 17625 17628 17631 17634 17637 17640 17643 17646 17649 17652 17655 17658 17661 17664 17667 17670 17673 17676 17679 17682 17685 17688 17691 17694 17697 17700 17703 17706 17709 17712 17715 17718 17721 17724 17727 17730 17733 17736 17739 17742 17745 17748 17751 17754 17757 17760 17763 17766 17769 17772 17775 17778 17781 17784 17787 17790 17793 17796 17799 17802 17805 17808 17811 17814 17817 17820 17823 17826 17829 17832 17835 17838 17841 17844 17847 17850 17853 17856 17859 17862 17865 17868 17871 17874 17877 17880 17883 17886 17889 17892 17895 17898 17901 17904 17907 17910 17913 17916 17919 17922 17925 17928 17931 17934 17937 17940 17943 17946 17949 17952 17955 17958 17961 17964 17967 17970 17973 17976 17979 17982 17985 17988 17991 17994 17997 18000 18003 18006 18009 18012 18015 18018 18021 18024 18027 18030 18033 18036 18039 18042 18045 18048 18051 18054 18057 18060 18063 18066 18069 18072 18075 18078 18081 18084 18087 18090 18093 18096 18099 18102 18105 18108 18111 18114 18117 18120 18123 18126 18129 18132 18135 18138 18141 18144 18147 18150 18153 18156 18159 18162 18165 18168 18171 18174 18177 18180 18183 18186 18189 18192 18195 18198 18201 18204 18207 18210 18213 18216 18219 18222 18225 18228 18231 18234 18237 18240 18243 18246 18249 18252 18255 18258 18261 18264 18267 18270 18273 18276 18279 18282 18285 18288 18291 18294 18297 18300 18303 18306 18309 18312 18315 18318 18321 18324 18327 18330 18333 18336 18339 18342 18345 18348 18351 18354 18357 18360 18363 18366 18369 18372 18375 18378 18381 18384 18387 18390 18393 18396 18399 18402 18405 18408 18411 18414 18417 18420 18423 18426 18429 18432 18435 18438 18441 18444 18447 18450 18453 18456 18459 18462 18465 18468 18471 18474 18477 18480 18483 18486 18489 18492 18495 18498 18501 18504 18507 18510 18513 18516 18519 18522 18525 18528 18531 18534 18537 18540 18543 18546 18549 18552 18555 18558 18561 18564 18567 18570 18573 18576 18579 18582 18585 18588 18591 18594 18597 18600 18603 18606 18609 18612 18615 18618 18621 18624 18627 18630 18633 18636 18639 18642 18645 18648 18651 18654 18657 18660 18663 18666 18669 18672 18675 18678 18681 18684 18687 18690 18693 18696 18699 18702 18705 18708 18711 18714 18717 18720 18723 18726 18729 18732 18735 18738 18741 18744 18747 18750 18753 18756 18759 18762 18765 18768 18771 18774 18777 18780 18783 18786 18789 18792 18795 18798 18801 18804 18807 18810 18813 18816 18819 18822 18825 18828 18831 18834 18837 18840 18843 18846 18849 18852 18855 18858 18861 18864 18867 18870 18873 18876 18879 18882 18885 18888 18891 18894 18897 18900 18903 18906 18909 18912 18915 18918 18921 18924 18927 18930 18933 18936 18939 18942 18945 18948 18951 18954 18957 18960 18963 18966 18969 18972 18975 18978 18981 18984 18987 18990 18993 18996 18999 19002 19005 19008 19011 19014 19017 19020 19023 19026 19029 19032 19035 19038 19041 19044 19047 19050 19053 19056 19059 19062 19065 19068 19071 19074 19077 19080 19083 19086 19089 19092 19095 19098 19101 19104 19107 19110 19113 19116 19119 19122 19125 19128 19131 19134 19137 19140 19143 19146 19149 19152 19155 19158 19161 19164 19167 19170 19173 19176 19179 19182 19185 19188 19191 19194 19197 19200 19203 19206 19209 19212 19215 19218 19221 19224 19227 19230 19233 19236 19239 19242 19245 19248 19251 19254 19257 19260 19263 19266 19269 19272 19275 19278 19281 19284 19287 19290 19293 19296 19299 19302 19305 19308 19311 19314 19317 19320 19323 19326 19329 19332 19335 19338 19341 19344 19347 19350 19353 19356 19359 19362 19365 19368 19371 19374 19377 19380 19383 19386 19389 19392 19395 19398 19401 19404 19407 19410 19413 19416 19419 19422 19425 19428 19431 19434 19437 19440 19443 19446 19449 19452 19455 19458 19461 19464 19467 19470 19473 19476 19479 19482 19485 19488 19491 19494 19497 19500 19503 19506 19509 19512 19515 19518 19521 19524 19527 19530 19533 19536 19539 19542 19545 19548 19551 19554 19557 19560 19563 19566 19569 19572 19575 19578 19581 19584 19587 19590 19593 19596 19599 19602 19605 19608 19611 19614 19617 19620 19623 19626 19629 19632 19635 19638 19641 19644 19647 19650 19653 19656 19659 19662 19665 19668 19671 19674 19677 19680 19683 19686 19689 19692 19695 19698 19701 19704 19707 19710 19713 19716 19719 19722 19725 19728 19731 19734 19737 19740 19743 19746 19749 19752 19755 19758 19761 19764 19767 19770 19773 19776 19779 19782 19785 19788 19791 19794 19797 19800 19803 19806 19809 19812 19815 19818 19821 19824 19827 19830 19833 19836 19839 19842 19845 19848 19851 19854 19857 19860 19863 19866 19869 19872 19875 19878 19881 19884 19887 19890 19893 19896 19899 19902 19905 19908 19911 19914 19917 19920 19923 19926 19929 19932 19935 19938 19941 19944 19947 19950 19953 19956 19959 19962 19965 19968 19971 19974 19977 19980 19983 19986 19989 19992 19995 19998 20001 20004 20007 20010 20013 20016 20019 20022 20025 20028 20031 20034 20037 20040 20043 20046 20049 20052 20055 20058 20061 20064 20067 20070 20073 20076 20079 20082 20085 20088 20091 20094 20097 20100 20103 20106 20109 20112 20115 20118 20121 20124 20127 20130 20133 20136 20139 20142 20145 20148 20151 20154 20157 20160 20163 20166 20169 20172 20175 20178 20181 20184 20187 20190 20193 20196 20199 20202 20205 20208 20211 20214 20217 20220 20223 20226 20229 20232 20235 20238 20241 20244 20247 20250 20253 20256 20259 20262 20265 20268 20271 20274 20277 20280 20283 20286 20289 20292 20295 20298 20301 20304 20307 20310 20313 20316 20319 20322 20325 20328 20331 20334 20337 20340 20343 20346 20349 20352 20355 20358 20361 20364 20367 20370 20373 20376 20379 20382 20385 20388 20391 20394 20397 20400 20403 20406 20409 20412 20415 20418 20421 20424 20427 20430 20433 20436 20439 20442 20445 20448 20451 20454 20457 20460 20463 20466 20469 20472 20475 20478 20481 20484 20487 20490 20493 20496 20499 20502 20505 20508 20511 20514 20517 20520 20523 20526 20529 20532 20535 20538 20541 20544 20547 20550 20553 20556 20559 20562 20565 20568 20571 20574 20577 20580 20583 20586 20589 20592 20595 20598 20601 20604 20607 20610 20613 20616 20619 20622 20625 20628 20631 20634 20637 20640 20643 20646 20649 20652 20655 20658 20661 20664 20667 20670 20673 20676 20679 20682 20685 20688 20691 20694 20697 20700 20703 20706 20709 20712 20715 20718 20721 20724 20727 20730 20733 20736 20739 20742 20745 20748 20751 20754 20757 20760 20763 20766 20769 20772 20775 20778 20781 20784 20787 20790 20793 20796 20799 20802 20805 20808 20811 20814 20817 20820 20823 20826 20829 20832 20835 20838 20841 20844 20847 20850 20853 20856 20859 20862 20865 20868 20871 20874 20877 20880 20883 20886 20889 20892 20895 20898 20901 20904 20907 20910 20913 20916 20919 20922 20925 20928 20931 20934 20937 20940 20943 20946 20949 20952 20955 20958 20961 20964 20967 20970 20973 20976 20979 20982 20985 20988 20991 20994 20997 21000 21003 21006 21009 21012 21015 21018 21021 21024 21027 21030 21033 21036 21039 21042 21045 21048 21051 21054 21057 21060 21063 21066 21069 21072 21075 21078 21081 21084 21087 21090 21093 21096 21099 21102 21105 21108 21111 21114 21117 21120 21123 21126 21129 21132 21135 21138 21141 21144 21147 21150 21153 21156 21159 21162 21165 21168 21171 21174 21177 21180 21183 21186 21189 21192 21195 21198 21201 21204 21207 21210 21213 21216 21219 21222 21225 21228 21231 21234 21237 21240 21243 21246 21249 21252 21255 21258 21261 21264 21267 21270 21273 21276 21279 21282 21285 21288 21291 21294 21297 21300 21303 21306 21309 21312 21315 21318 21321 21324 21327 21330 21333 21336 21339 21342 21345 21348 21351 21354 21357 21360 21363 21366 21369 21372 21375 21378 21381 21384 21387 21390 21393 21396 21399 21402 21405 21408 21411 21414 21417 21420 21423 21426 21429 21432 21435 21438 21441 21444 21447 21450 21453 21456 21459 21462 21465 21468 21471 21474 21477 21480 21483 21486 21489 21492 21495 21498 21501 21504 21507 21510 21513 21516 21519 21522 21525 21528 21531 21534 21537 21540 21543 21546 21549 21552 21555 21558 21561 21564 21567 21570 21573 21576 21579 21582 21585 21588 21591 21594 21597 21600 21603 21606 21609 21612 21615 21618 21621 21624 21627 21630 21633 21636 21639 21642 21645 21648 21651 21654 21657 21660 21663 21666 21669 21672 21675 21678 21681 21684 21687 21690 21693 21696 21699 21702 21705 21708 21711 21714 21717 21720 21723 21726 21729 21732 21735 21738 21741 21744 21747 21750 21753 21756 21759 21762 21765 21768 21771 21774 21777 21780 21783 21786 21789 21792 21795 21798 21801 21804 21807 21810 21813 21816 21819 21822 21825 21828 21831 21834 21837 21840 21843 21846 21849 21852 21855 21858 21861 21864 21867 21870 21873 21876 21879 21882 21885 21888 21891 21894 21897 21900 21903 21906 21909 21912 21915 21918 21921 21924 21927 21930 21933 21936 21939 21942 21945 21948 21951 21954 21957 21960 21963 21966 21969 21972 21975 21978 21981 21984 21987 21990 21993 21996 21999 22002 22005 22008 22011 22014 22017 22020 22023 22026 22029 22032 22035 22038 22041 22044 22047 22050 22053 22056 22059 22062 22065 22068 22071 22074 22077 22080 22083 22086 22089 22092 22095 22098 22101 22104 22107 22110 22113 22116 22119 22122 22125 22128 22131 22134 22137 22140 22143 22146 22149 22152 22155 22158 22161 22164 22167 22170 22173 22176 22179 22182 22185 22188 22191 22194 22197 22200 22203 22206 22209 22212 22215 22218 22221 22224 22227 22230 22233 22236 22239 22242 22245 22248 22251 22254 22257 22260 22263 22266 22269 22272 22275 22278 22281 22284 22287 22290 22293 22296 22299 22302 22305 22308 22311 22314 22317 22320 22323 22326 22329 22332 22335 22338 22341 22344 22347 22350 22353 22356 22359 22362 22365 22368 22371 22374 22377 22380 22383 22386 22389 22392 22395 22398 22401 22404 22407 22410 22413 22416 22419 22422 22425 22428 22431 22434 22437 22440 22443 22446 22449 22452 22455 22458 22461 22464 22467 22470 22473 22476 22479 22482 22485 22488 22491 22494 22497 22500 22503 22506 22509 22512 22515 22518 22521 22524 22527 22530 22533 22536 22539 22542 22545 22548 22551 22554 22557 22560 22563 22566 22569 22572 22575 22578 22581 22584 22587 22590 22593 22596 22599 22602 22605 22608 22611 22614 22617 22620 22623 22626 22629 22632 22635 22638 22641 22644 22647 22650 22653 22656 22659 22662 22665 22668 22671 22674 22677 22680 22683 22686 22689 22692 22695 22698 22701 22704 22707 22710 22713 22716 22719 22722 22725 22728 22731 22734 22737 22740 22743 22746 22749 22752 22755 22758 22761 22764 22767 22770 22773 22776 22779 22782 22785 22788 22791 22794 22797 22800 22803 22806 22809 22812 22815 22818 22821 22824 22827 22830 22833 22836 22839 22842 22845 22848 22851 22854 22857 22860 22863 22866 22869 22872 22875 22878 22881 22884 22887 22890 22893 22896 22899 22902 22905 22908 22911 22914 22917 22920 22923 22926 22929 22932 22935 22938 22941 22944 22947 22950 22953 22956 22959 22962 22965 22968 22971 22974 22977 22980 22983 22986 22989 22992 22995 22998 23001 23004 23007 23010 23013 23016 23019 23022 23025 23028 23031 23034 23037 23040 23043 23046 23049 23052 23055 23058 23061 23064 23067 23070 23073 23076 23079 23082 23085 23088 23091 23094 23097 23100 23103 23106 23109 23112 23115 23118 23121 23124 23127 23130 23133 23136 23139 23142 23145 23148 23151 23154 23157 23160 23163 23166 23169 23172 23175 23178 23181 23184 23187 23190 23193 23196 23199 23202 23205 23208 23211 23214 23217 23220 23223 23226 23229 23232 23235 23238 23241 23244 23247 23250 23253 23256 23259 23262 23265 23268 23271 23274 23277 23280 23283 23286 23289 23292 23295 23298 23301 23304 23307 23310 23313 23316 23319 23322 23325 23328 23331 23334 23337 23340 23343 23346 23349 23352 23355 23358 23361 23364 23367 23370 23373 23376 23379 23382 23385 23388 23391 23394 23397 23400 23403 23406 23409 23412 23415 23418 23421 23424 23427 23430 23433 23436 23439 23442 23445 23448 23451 23454 23457 23460 23463 23466 23469 23472 23475 23478 23481 23484 23487 23490 23493 23496 23499 23502 23505 23508 23511 23514 23517 23520 23523 23526 23529 23532 23535 23538 23541 23544 23547 23550 23553 23556 23559 23562 23565 23568 23571 23574 23577 23580 23583 23586 23589 23592 23595 23598 23601 23604 23607 23610 23613 23616 23619 23622 23625 23628 23631 23634 23637 23640 23643 23646 23649 23652 23655 23658 23661 23664 23667 23670 23673 23676 23679 23682 23685 23688 23691 23694 23697 23700 23703 23706 23709 23712 23715 23718 23721 23724 23727 23730 23733 23736 23739 23742 23745 23748 23751 23754 23757 23760 23763 23766 23769 23772 23775 23778 23781 23784 23787 23790 23793 23796 23799 23802 23805 23808 23811 23814 23817 23820 23823 23826 23829 23832 23835 23838 23841 23844 23847 23850 23853 23856 23859 23862 23865 23868 23871 23874 23877 23880 23883 23886 23889 23892 23895 23898 23901 23904 23907 23910 23913 23916 23919 23922 23925 23928 23931 23934 23937 23940 23943 23946 23949 23952 23955 23958 23961 23964 23967 23970 23973 23976 23979 23982 23985 23988 23991 23994 23997 24000 24003 24006 24009 24012 24015 24018 24021 24024 24027 24030 24033 24036 24039 24042 24045 24048 24051 24054 24057 24060 24063 24066 24069 24072 24075 24078 24081 24084 24087 24090 24093 24096 24099 24102 24105 24108 24111 24114 24117 24120 24123 24126 24129 24132 24135 24138 24141 24144 24147 24150 24153 24156 24159 24162 24165 24168 24171 24174 24177 24180 24183 24186 24189 24192 24195 24198 24201 24204 24207 24210 24213 24216 24219 24222 24225 24228 24231 24234 24237 24240 24243 24246 24249 24252 24255 24258 24261 24264 24267 24270 24273 24276 24279 24282 24285 24288 24291 24294 24297 24300 24303 24306 24309 24312 24315 24318 24321 24324 24327 24330 24333 24336 24339 24342 24345 24348 24351 24354 24357 24360 24363 24366 24369 24372 24375 24378 24381 24384 24387 24390 24393 24396 24399 24402 24405 24408 24411 24414 24417 24420 24423 24426 24429 24432 24435 24438 24441 24444 24447 24450 24453 24456 24459 24462 24465 24468 24471 24474 24477 24480 24483 24486 24489 24492 24495 24498 24501 24504 24507 24510 24513 24516 24519 24522 24525 24528 24531 24534 24537 24540 24543 24546 24549 24552 24555 24558 24561 24564 24567 24570 24573 24576 24579 24582 24585 24588 24591 24594 24597 24600 24603 24606 24609 24612 24615 24618 24621 24624 24627 24630 24633 24636 24639 24642 24645 24648 24651 24654 24657 24660 24663 24666 24669 24672 24675 24678 24681 24684 24687 24690 24693 24696 24699 24702 24705 24708 24711 24714 24717 24720 24723 24726 24729 24732 24735 24738 24741 24744 24747 24750 24753 24756 24759 24762 24765 24768 24771 24774 24777 24780 24783 24786 24789 24792 24795 24798 24801 24804 24807 24810 24813 24816 24819 24822 24825 24828 24831 24834 24837 24840 24843 24846 24849 24852 24855 24858 24861 24864 24867 24870 24873 24876 24879 24882 24885 24888 24891 24894 24897 24900 24903 24906 24909 24912 24915 24918 24921 24924 24927 24930 24933 24936 24939 24942 24945 24948 24951 24954 24957 24960 24963 24966 24969 24972 24975 24978 24981 24984 24987 24990 24993 24996 24999 25002 25005 25008 25011 25014 25017 25020 25023 25026 25029 25032 25035 25038 25041 25044 25047 25050 25053 25056 25059 25062 25065 25068 25071 25074 25077 25080 25083 25086 25089 25092 25095 25098 25101 25104 25107 25110 25113 25116 25119 25122 25125 25128 25131 25134 25137 25140 25143 25146 25149 25152 25155 25158 25161 25164 25167 25170 25173 25176 25179 25182 25185 25188 25191 25194 25197 25200 25203 25206 25209 25212 25215 25218 25221 25224 25227 25230 25233 25236 25239 25242 25245 25248 25251 25254 25257 25260 25263 25266 25269 25272 25275 25278 25281 25284 25287 25290 25293 25296 25299 25302 25305 25308 25311 25314 25317 25320 25323 25326 25329 25332 25335 25338 25341 25344 25347 25350 25353 25356 25359 25362 25365 25368 25371 25374 25377 25380 25383 25386 25389 25392 25395 25398 25401 25404 25407 25410 25413 25416 25419 25422 25425 25428 25431 25434 25437 25440 25443 25446 25449 25452 25455 25458 25461 25464 25467 25470 25473 25476 25479 25482 25485 25488 25491 25494 25497 25500 25503 25506 25509 25512 25515 25518 25521 25524 25527 25530 25533 25536 25539 25542 25545 25548 25551 25554 25557 25560 25563 25566 25569 25572 25575 25578 25581 25584 25587 25590 25593 25596 25599 25602 25605 25608 25611 25614 25617 25620 25623 25626 25629 25632 25635 25638 25641 25644 25647 25650 25653 25656 25659 25662 25665 25668 25671 25674 25677 25680 25683 25686 25689 25692 25695 25698 25701 25704 25707 25710 25713 25716 25719 25722 25725 25728 25731 25734 25737 25740 25743 25746 25749 25752 25755 25758 25761 25764 25767 25770 25773 25776 25779 25782 25785 25788 25791 25794 25797 25800 25803 25806 25809 25812 25815 25818 25821 25824 25827 25830 25833 25836 25839 25842 25845 25848 25851 25854 25857 25860 25863 25866 25869 25872 25875 25878 25881 25884 25887 25890 25893 25896 25899 25902 25905 25908 25911 25914 25917 25920 25923 25926 25929 25932 25935 25938 25941 25944 25947 25950 25953 25956 25959 25962 25965 25968 25971 25974 25977 25980 25983 25986 25989 25992 25995 25998 26001 26004 26007 26010 26013 26016 26019 26022 26025 26028 26031 26034 26037 26040 26043 26046 26049 26052 26055 26058 26061 26064 26067 26070 26073 26076 26079 26082 26085 26088 26091 26094 26097 26100 26103 26106 26109 26112 26115 26118 26121 26124 26127 26130 26133 26136 26139 26142 26145 26148 26151 26154 26157 26160 26163 26166 26169 26172 26175 26178 26181 26184 26187 26190 26193 26196 26199 26202 26205 26208 26211 26214 26217 26220 26223 26226 26229 26232 26235 26238 26241 26244 26247 26250 26253 26256 26259 26262 26265 26268 26271 26274 26277 26280 26283 26286 26289 26292 26295 26298 26301 26304 26307 26310 26313 26316 26319 26322 26325 26328 26331 26334 26337 26340 26343 26346 26349 26352 26355 26358 26361 26364 26367 26370 26373 26376 26379 26382 26385 26388 26391 26394 26397 26400 26403 26406 26409 26412 26415 26418 26421 26424 26427 26430 26433 26436 26439 26442 26445 26448 26451 26454 26457 26460 26463 26466 26469 26472 26475 26478 26481 26484 26487 26490 26493 26496 26499 26502 26505 26508 26511 26514 26517 26520 26523 26526 26529 26532 26535 26538 26541 26544 26547 26550 26553 26556 26559 26562 26565 26568 26571 26574 26577 26580 26583 26586 26589 26592 26595 26598 26601 26604 26607 26610 26613 26616 26619 26622 26625 26628 26631 26634 26637 26640 26643 26646 26649 26652 26655 26658 26661 26664 26667 26670 26673 26676 26679 26682 26685 26688 26691 26694 26697 26700 26703 26706 26709 26712 26715 26718 26721 26724 26727 26730 26733 26736 26739 26742 26745 26748 26751 26754 26757 26760 26763 26766 26769 26772 26775 26778 26781 26784 26787 26790 26793 26796 26799 26802 26805 26808 26811 26814 26817 26820 26823 26826 26829 26832 26835 26838 26841 26844 26847 26850 26853 26856 26859 26862 26865 26868 26871 26874 26877 26880 26883 26886 26889 26892 26895 26898 26901 26904 26907 26910 26913 26916 26919 26922 26925 26928 26931 26934 26937 26940 26943 26946 26949 26952 26955 26958 26961 26964 26967 26970 26973 26976 26979 26982 26985 26988 26991 26994 26997 27000 27003 27006 27009 27012 27015 27018 27021 27024 27027 27030 27033 27036 27039 27042 27045 27048 27051 27054 27057 27060 27063 27066 27069 27072 27075 27078 27081 27084 27087 27090 27093 27096 27099 27102 27105 27108 27111 27114 27117 27120 27123 27126 27129 27132 27135 27138 27141 27144 27147 27150 27153 27156 27159 27162 27165 27168 27171 27174 27177 27180 27183 27186 27189 27192 27195 27198 27201 27204 27207 27210 27213 27216 27219 27222 27225 27228 27231 27234 27237 27240 27243 27246 27249 27252 27255 27258 27261 27264 27267 27270 27273 27276 27279 27282 27285 27288 27291 27294 27297 27300 27303 27306 27309 27312 27315 27318 27321 27324 27327 27330 27333 27336 27339 27342 27345 27348 27351 27354 27357 27360 27363 27366 27369 27372 27375 27378 27381 27384 27387 27390 27393 27396 27399 27402 27405 27408 27411 27414 27417 27420 27423 27426 27429 27432 27435 27438 27441 27444 27447 27450 27453 27456 27459 27462 27465 27468 27471 27474 27477 27480 27483 27486 27489 27492 27495 27498 27501 27504 27507 27510 27513 27516 27519 27522 27525 27528 27531 27534 27537 27540 27543 27546 27549 27552 27555 27558 27561 27564 27567 27570 27573 27576 27579 27582 27585 27588 27591 27594 27597 27600 27603 27606 27609 27612 27615 27618 27621 27624 27627 27630 27633 27636 27639 27642 27645 27648 27651 27654 27657 27660 27663 27666 27669 27672 27675 27678 27681 27684 27687 27690 27693 27696 27699 27702 27705 27708 27711 27714 27717 27720 27723 27726 27729 27732 27735 27738 27741 27744 27747 27750 27753 27756 27759 27762 27765 27768 27771 27774 27777 27780 27783 27786 27789 27792 27795 27798 27801 27804 27807 27810 27813 27816 27819 27822 27825 27828 27831 27834 27837 27840 27843 27846 27849 27852 27855 27858 27861 27864 27867 27870 27873 27876 27879 27882 27885 27888 27891 27894 27897 27900 27903 27906 27909 27912 27915 27918 27921 27924 27927 27930 27933 27936 27939 27942 27945 27948 27951 27954 27957 27960 27963 27966 27969 27972 27975 27978 27981 27984 27987 27990 27993 27996 27999 28002 28005 28008 28011 28014 28017 28020 28023 28026 28029 28032 28035 28038 28041 28044 28047 28050 28053 28056 28059 28062 28065 28068 28071 28074 28077 28080 28083 28086 28089 28092 28095 28098 28101 28104 28107 28110 28113 28116 28119 28122 28125 28128 28131 28134 28137 28140 28143 28146 28149 28152 28155 28158 28161 28164 28167 28170 28173 28176 28179 28182 28185 28188 28191 28194 28197 28200 28203 28206 28209 28212 28215 28218 28221 28224 28227 28230 28233 28236 28239 28242 28245 28248 28251 28254 28257 28260 28263 28266 28269 28272 28275 28278 28281 28284 28287 28290 28293 28296 28299 28302 28305 28308 28311 28314 28317 28320 28323 28326 28329 28332 28335 28338 28341 28344 28347 28350 28353 28356 28359 28362 28365 28368 28371 28374 28377 28380 28383 28386 28389 28392 28395 28398 28401 28404 28407 28410 28413 28416 28419 28422 28425 28428 28431 28434 28437 28440 28443 28446 28449 28452 28455 28458 28461 28464 28467 28470 28473 28476 28479 28482 28485 28488 28491 28494 28497 28500 28503 28506 28509 28512 28515 28518 28521 28524 28527 28530 28533 28536 28539 28542 28545 28548 28551 28554 28557 28560 28563 28566 28569 28572 28575 28578 28581 28584 28587 28590 28593 28596 28599 28602 28605 28608 28611 28614 28617 28620 28623 28626 28629 28632 28635 28638 28641 28644 28647 28650 28653 28656 28659 28662 28665 28668 28671 28674 28677 28680 28683 28686 28689 28692 28695 28698 28701 28704 28707 28710 28713 28716 28719 28722 28725 28728 28731 28734 28737 28740 28743 28746 28749 28752 28755 28758 28761 28764 28767 28770 28773 28776 28779 28782 28785 28788 28791 28794 28797 28800 28803 28806 28809 28812 28815 28818 28821 28824 28827 28830 28833 28836 28839 28842 28845 28848 28851 28854 28857 28860 28863 28866 28869 28872 28875 28878 28881 28884 28887 28890 28893 28896 28899 28902 28905 28908 28911 28914 28917 28920 28923 28926 28929 28932 28935 28938 28941 28944 28947 28950 28953 28956 28959 28962 28965 28968 28971 28974 28977 28980 28983 28986 28989 28992 28995 28998 29001 29004 29007 29010 29013 29016 29019 29022 29025 29028 29031 29034 29037 29040 29043 29046 29049 29052 29055 29058 29061 29064 29067 29070 29073 29076 29079 29082 29085 29088 29091 29094 29097 29100 29103 29106 29109 29112 29115 29118 29121 29124 29127 29130 29133 29136 29139 29142 29145 29148 29151 29154 29157 29160 29163 29166 29169 29172 29175 29178 29181 29184 29187 29190 29193 29196 29199 29202 29205 29208 29211 29214 29217 29220 29223 29226 29229 29232 29235 29238 29241 29244 29247 29250 29253 29256 29259 29262 29265 29268 29271 29274 29277 29280 29283 29286 29289 29292 29295 29298 29301 29304 29307 29310 29313 29316 29319 29322 29325 29328 29331 29334 29337 29340 29343 29346 29349 29352 29355 29358 29361 29364 29367 29370 29373 29376 29379 29382 29385 29388 29391 29394 29397 29400 29403 29406 29409 29412 29415 29418 29421 29424 29427 29430 29433 29436 29439 29442 29445 29448 29451 29454 29457 29460 29463 29466 29469 29472 29475 29478 29481 29484 29487 29490 29493 29496 29499 29502 29505 29508 29511 29514 29517 29520 29523 29526 29529 29532 29535 29538 29541 29544 29547 29550 29553 29556 29559 29562 29565 29568 29571 29574 29577 29580 29583 29586 29589 29592 29595 29598 29601 29604 29607 29610 29613 29616 29619 29622 29625 29628 29631 29634 29637 29640 29643 29646 29649 29652 29655 29658 29661 29664 29667 29670 29673 29676 29679 29682 29685 29688 29691 29694 29697 29700 29703 29706 29709 29712 29715 29718 29721 29724 29727 29730 29733 29736 29739 29742 29745 29748 29751 29754 29757 29760 29763 29766 29769 29772 29775 29778 29781 29784 29787 29790 29793 29796 29799 29802 29805 29808 29811 29814 29817 29820 29823 29826 29829 29832 29835 29838 29841 29844 29847 29850 29853 29856 29859 29862 29865 29868 29871 29874 29877 29880 29883 29886 29889 29892 29895 29898 29901 29904 29907 29910 29913 29916 29919 29922 29925 29928 29931 29934 29937 29940 29943 29946 29949 29952 29955 29958 29961 29964 29967 29970 29973 29976 29979 29982 29985 29988 29991 29994 29997 30000 30003 30006 30009 30012 30015 30018 30021 30024 30027 30030 30033 30036 30039 30042 30045 30048 30051 30054 30057 30060 30063 30066 30069 30072 30075 30078 30081 30084 30087 30090 30093 30096 30099 30102 30105 30108 30111 30114 30117 30120 30123 30126 30129 30132 30135 30138 30141 30144 30147 30150 30153 30156 30159 30162 30165 30168 30171 30174 30177 30180 30183 30186 30189 30192 30195 30198 30201 30204 30207 30210 30213 30216 30219 30222 30225 30228 30231 30234 30237 30240 30243 30246 30249 30252 30255 30258 30261 30264 30267 30270 30273 30276 30279 30282 30285 30288 30291 30294 30297 30300 30303 30306 30309 30312 30315 30318 30321 30324 30327 30330 30333 30336 30339 30342 30345 30348 30351 30354 30357 30360 30363 30366 30369 30372 30375 30378 30381 30384 30387 30390 30393 30396 30399 30402 30405 30408 30411 30414 30417 30420 30423 30426 30429 30432 30435 30438 30441 30444 30447 30450 30453 30456 30459 30462 30465 30468 30471 30474 30477 30480 30483 30486 30489 30492 30495 30498 30501 30504 30507 30510 30513 30516 30519 30522 30525 30528 30531 30534 30537 30540 30543 30546 30549 30552 30555 30558 30561 30564 30567 30570 30573 30576 30579 30582 30585 30588 30591 30594 30597 30600 30603 30606 30609 30612 30615 30618 30621 30624 30627 30630 30633 30636 30639 30642 30645 30648 30651 30654 30657 30660 30663 30666 30669 30672 30675 30678 30681 30684 30687 30690 30693 30696 30699 30702 30705 30708 30711 30714 30717 30720 30723 30726 30729 30732 30735 30738 30741 30744 30747 30750 30753 30756 30759 30762 30765 30768 30771 30774 30777 30780 30783 30786 30789 30792 30795 30798 30801 30804 30807 30810 30813 30816 30819 30822 30825 30828 30831 30834 30837 30840 30843 30846 30849 30852 30855 30858 30861 30864 30867 30870 30873 30876 30879 30882 30885 30888 30891 30894 30897 30900 30903 30906 30909 30912 30915 30918 30921 30924 30927 30930 30933 30936 30939 30942 30945 30948 30951 30954 30957 30960 30963 30966 30969 30972 30975 30978 30981 30984 30987 30990 30993 30996 30999 31002 31005 31008 31011 31014 31017 31020 31023 31026 31029 31032 31035 31038 31041 31044 31047 31050 31053 31056 31059 31062 31065 31068 31071 31074 31077 31080 31083 31086 31089 31092 31095 31098 31101 31104 31107 31110 31113 31116 31119 31122 31125 31128 31131 31134 31137 31140 31143 31146 31149 31152 31155 31158 31161 31164 31167 31170 31173 31176 31179 31182 31185 31188 31191 31194 31197 31200 31203 31206 31209 31212 31215 31218 31221 31224 31227 31230 31233 31236 31239 31242 31245 31248 31251 31254 31257 31260 31263 31266 31269 31272 31275 31278 31281 31284 31287 31290 31293 31296 31299 31302 31305 31308 31311 31314 31317 31320 31323 31326 31329 31332 31335 31338 31341 31344 31347 31350 31353 31356 31359 31362 31365 31368 31371 31374 31377 31380 31383 31386 31389 31392 31395 31398 31401 31404 31407 31410 31413 31416 31419 31422 31425 31428 31431 31434 31437 31440 31443 31446 31449 31452 31455 31458 31461 31464 31467 31470 31473 31476 31479 31482 31485 31488 31491 31494 31497 31500 31503 31506 31509 31512 31515 31518 31521 31524 31527 31530 31533 31536 31539 31542 31545 31548 31551 31554 31557 31560 31563 31566 31569 31572 31575 31578 31581 31584 31587 31590 31593 31596 31599 31602 31605 31608 31611 31614 31617 31620 31623 31626 31629 31632 31635 31638 31641 31644 31647 31650 31653 31656 31659 31662 31665 31668 31671 31674 31677 31680 31683 31686 31689 31692 31695 31698 31701 31704 31707 31710 31713 31716 31719 31722 31725 31728 31731 31734 31737 31740 31743 31746 31749 31752 31755 31758 31761 31764 31767 31770 31773 31776 31779 31782 31785 31788 31791 31794 31797 31800 31803 31806 31809 31812 31815 31818 31821 31824 31827 31830 31833 31836 31839 31842 31845 31848 31851 31854 31857 31860 31863 31866 31869 31872 31875 31878 31881 31884 31887 31890 31893 31896 31899 31902 31905 31908 31911 31914 31917 31920 31923 31926 31929 31932 31935 31938 31941 31944 31947 31950 31953 31956 31959 31962 31965 31968 31971 31974 31977 31980 31983 31986 31989 31992 31995 31998 32001 32004 32007 32010 32013 32016 32019 32022 32025 32028 32031 32034 32037 32040 32043 32046 32049 32052 32055 32058 32061 32064 32067 32070 32073 32076 32079 32082 32085 32088 32091 32094 32097 32100 32103 32106 32109 32112 32115 32118 32121 32124 32127 32130 32133 32136 32139 32142 32145 32148 32151 32154 32157 32160 32163 32166 32169 32172 32175 32178 32181 32184 32187 32190 32193 32196 32199 32202 32205 32208 32211 32214 32217 32220 32223 32226 32229 32232 32235 32238 32241 32244 32247 32250 32253 32256 32259 32262 32265 32268 32271 32274 32277 32280 32283 32286 32289 32292 32295 32298 32301 32304 32307 32310 32313 32316 32319 32322 32325 32328 32331 32334 32337 32340 32343 32346 32349 32352 32355 32358 32361 32364 32367 32370 32373 32376 32379 32382 32385 32388 32391 32394 32397 32400 32403 32406 32409 32412 32415 32418 32421 32424 32427 32430 32433 32436 32439 32442 32445 32448 32451 32454 32457 32460 32463 32466 32469 32472 32475 32478 32481 32484 32487 32490 32493 32496 32499 32502 32505 32508 32511 32514 32517 32520 32523 32526 32529 32532 32535 32538 32541 32544 32547 32550 32553 32556 32559 32562 32565 32568 32571 32574 32577 32580 32583 32586 32589 32592 32595 32598 32601 32604 32607 32610 32613 32616 32619 32622 32625 32628 32631 32634 32637 32640 32643 32646 32649 32652 32655 32658 32661 32664 32667 32670 32673 32676 32679 32682 32685 32688 32691 32694 32697 32700 32703 32706 32709 32712 32715 32718 32721 32724 32727 32730 32733 32736 32739 32742 32745 32748 32751 32754 32757 32760 32763 32766 32769 32772 32775 32778 32781 32784 32787 32790 32793 32796 32799 32802 32805 32808 32811 32814 32817 32820 32823 32826 32829 32832 32835 32838 32841 32844 32847 32850 32853 32856 32859 32862 32865 32868 32871 32874 32877 32880 32883 32886 32889 32892 32895 32898 32901 32904 32907 32910 32913 32916 32919 32922 32925 32928 32931 32934 32937 32940 32943 32946 32949 32952 32955 32958 32961 32964 32967 32970 32973 32976 32979 32982 32985 32988 32991 32994 32997 33000 33003 33006 33009 33012 33015 33018 33021 33024 33027 33030 33033 33036 33039 33042 33045 33048 33051 33054 33057 33060 33063 33066 33069 33072 33075 33078 33081 33084 33087 33090 33093 33096 33099 33102 33105 33108 33111 33114 33117 33120 33123 33126 33129 33132 33135 33138 33141 33144 33147 33150 33153 33156 33159 33162 33165 33168 33171 33174 33177 33180 33183 33186 33189 33192 33195 33198 33201 33204 33207 33210 33213 33216 33219 33222 33225 33228 33231 33234 33237 33240 33243 33246 33249 33252 33255 33258 33261 33264 33267 33270 33273 33276 33279 33282 33285 33288 33291 33294 33297 33300 33303 33306 33309 33312 33315 33318 33321 33324 33327 33330 33333 33336 33339 33342 33345 33348 33351 33354 33357 33360 33363 33366 33369 33372 33375 33378 33381 33384 33387 33390 33393 33396 33399 33402 33405 33408 33411 33414 33417 33420 33423 33426 33429 33432 33435 33438 33441 33444 33447 33450 33453 33456 33459 33462 33465 33468 33471 33474 33477 33480 33483 33486 33489 33492 33495 33498 33501 33504 33507 33510 33513 33516 33519 33522 33525 33528 33531 33534 33537 33540 33543 33546 33549 33552 33555 33558 33561 33564 33567 33570 33573 33576 33579 33582 33585 33588 33591 33594 33597 33600 33603 33606 33609 33612 33615 33618 33621 33624 33627 33630 33633 33636 33639 33642 33645 33648 33651 33654 33657 33660 33663 33666 33669 33672 33675 33678 33681 33684 33687 33690 33693 33696 33699 33702 33705 33708 33711 33714 33717 33720 33723 33726 33729 33732 33735 33738 33741 33744 33747 33750 33753 33756 33759 33762 33765 33768 33771 33774 33777 33780 33783 33786 33789 33792 33795 33798 33801 33804 33807 33810 33813 33816 33819 33822 33825 33828 33831 33834 33837 33840 33843 33846 33849 33852 33855 33858 33861 33864 33867 33870 33873 33876 33879 33882 33885 33888 33891 33894 33897 33900 33903 33906 33909 33912 33915 33918 33921 33924 33927 33930 33933 33936 33939 33942 33945 33948 33951 33954 33957 33960 33963 33966 33969 33972 33975 33978 33981 33984 33987 33990 33993 33996 33999 34002 34005 34008 34011 34014 34017 34020 34023 34026 34029 34032 34035 34038 34041 34044 34047 34050 34053 34056 34059 34062 34065 34068 34071 34074 34077 34080 34083 34086 34089 34092 34095 34098 34101 34104 34107 34110 34113 34116 34119 34122 34125 34128 34131 34134 34137 34140 34143 34146 34149 34152 34155 34158 34161 34164 34167 34170 34173 34176 34179 34182 34185 34188 34191 34194 34197 34200 34203 34206 34209 34212 34215 34218 34221 34224 34227 34230 34233 34236 34239 34242 34245 34248 34251 34254 34257 34260 34263 34266 34269 34272 34275 34278 34281 34284 34287 34290 34293 34296 34299 34302 34305 34308 34311 34314 34317 34320 34323 34326 34329 34332 34335 34338 34341 34344 34347 34350 34353 34356 34359 34362 34365 34368 34371 34374 34377 34380 34383 34386 34389 34392 34395 34398 34401 34404 34407 34410 34413 34416 34419 34422 34425 34428 34431 34434 34437 34440 34443 34446 34449 34452 34455 34458 34461 34464 34467 34470 34473 34476 34479 34482 34485 34488 34491 34494 34497 34500 34503 34506 34509 34512 34515 34518 34521 34524 34527 34530 34533 34536 34539 34542 34545 34548 34551 34554 34557 34560 34563 34566 34569 34572 34575 34578 34581 34584 34587 34590 34593 34596 34599 34602 34605 34608 34611 34614 34617 34620 34623 34626 34629 34632 34635 34638 34641 34644 34647 34650 34653 34656 34659 34662 34665 34668 34671 34674 34677 34680 34683 34686 34689 34692 34695 34698 34701 34704 34707 34710 34713 34716 34719 34722 34725 34728 34731 34734 34737 34740 34743 34746 34749 34752 34755 34758 34761 34764 34767 34770 34773 34776 34779 34782 34785 34788 34791 34794 34797 34800 34803 34806 34809 34812 34815 34818 34821 34824 34827 34830 34833 34836 34839 34842 34845 34848 34851 34854 34857 34860 34863 34866 34869 34872 34875 34878 34881 34884 34887 34890 34893 34896 34899 34902 34905 34908 34911 34914 34917 34920 34923 34926 34929 34932 34935 34938 34941 34944 34947 34950 34953 34956 34959 34962 34965 34968 34971 34974 34977 34980 34983 34986 34989 34992 34995 34998 35001 35004 35007 35010 35013 35016 35019 35022 35025 35028 35031 35034 35037 35040 35043 35046 35049 35052 35055 35058 35061 35064 35067 35070 35073 35076 35079 35082 35085 35088 35091 35094 35097 35100 35103 35106 35109 35112 35115 35118 35121 35124 35127 35130 35133 35136 35139 35142 35145 35148 35151 35154 35157 35160 35163 35166 35169 35172 35175 35178 35181 35184 35187 35190 35193 35196 35199 35202 35205 35208 35211 35214 35217 35220 35223 35226 35229 35232 35235 35238 35241 35244 35247 35250 35253 35256 35259 35262 35265 35268 35271 35274 35277 35280 35283 35286 35289 35292 35295 35298 35301 35304 35307 35310 35313 35316 35319 35322 35325 35328 35331 35334 35337 35340 35343 35346 35349 35352 35355 35358 35361 35364 35367 35370 35373 35376 35379 35382 35385 35388 35391 35394 35397 35400 35403 35406 35409 35412 35415 35418 35421 35424 35427 35430 35433 35436 35439 35442 35445 35448 35451 35454 35457 35460 35463 35466 35469 35472 35475 35478 35481 35484 35487 35490 35493 35496 35499 35502 35505 35508 35511 35514 35517 35520 35523 35526 35529 35532 35535 35538 35541 35544 35547 35550 35553 35556 35559 35562 35565 35568 35571 35574 35577 35580 35583 35586 35589 35592 35595 35598 35601 35604 35607 35610 35613 35616 35619 35622 35625 35628 35631 35634 35637 35640 35643 35646 35649 35652 35655 35658 35661 35664 35667 35670 35673 35676 35679 35682 35685 35688 35691 35694 35697 35700 35703 35706 35709 35712 35715 35718 35721 35724 35727 35730 35733 35736 35739 35742 35745 35748 35751 35754 35757 35760 35763 35766 35769 35772 35775 35778 35781 35784 35787 35790 35793 35796 35799 35802 35805 35808 35811 35814 35817 35820 35823 35826 35829 35832 35835 35838 35841 35844 35847 35850 35853 35856 35859 35862 35865 35868 35871 35874 35877 35880 35883 35886 35889 35892 35895 35898 35901 35904 35907 35910 35913 35916 35919 35922 35925 35928 35931 35934 35937 35940 35943 35946 35949 35952 35955 35958 35961 35964 35967 35970 35973 35976 35979 35982 35985 35988 35991 35994 35997 36000 36003 36006 36009 36012 36015 36018 36021 36024 36027 36030 36033 36036 36039 36042 36045 36048 36051 36054 36057 36060 36063 36066 36069 36072 36075 36078 36081 36084 36087 36090 36093 36096 36099 36102 36105 36108 36111 36114 36117 36120 36123 36126 36129 36132 36135 36138 36141 36144 36147 36150 36153 36156 36159 36162 36165 36168 36171 36174 36177 36180 36183 36186 36189 36192 36195 36198 36201 36204 36207 36210 36213 36216 36219 36222 36225 36228 36231 36234 36237 36240 36243 36246 36249 36252 36255 36258 36261 36264 36267 36270 36273 36276 36279 36282 36285 36288 36291 36294 36297 36300 36303 36306 36309 36312 36315 36318 36321 36324 36327 36330 36333 36336 36339 36342 36345 36348 36351 36354 36357 36360 36363 36366 36369 36372 36375 36378 36381 36384 36387 36390 36393 36396 36399 36402 36405 36408 36411 36414 36417 36420 36423 36426 36429 36432 36435 36438 36441 36444 36447 36450 36453 36456 36459 36462 36465 36468 36471 36474 36477 36480 36483 36486 36489 36492 36495 36498 36501 36504 36507 36510 36513 36516 36519 36522 36525 36528 36531 36534 36537 36540 36543 36546 36549 36552 36555 36558 36561 36564 36567 36570 36573 36576 36579 36582 36585 36588 36591 36594 36597 36600 36603 36606 36609 36612 36615 36618 36621 36624 36627 36630 36633 36636 36639 36642 36645 36648 36651 36654 36657 36660 36663 36666 36669 36672 36675 36678 36681 36684 36687 36690 36693 36696 36699 36702 36705 36708 36711 36714 36717 36720 36723 36726 36729 36732 36735 36738 36741 36744 36747 36750 36753 36756 36759 36762 36765 36768 36771 36774 36777 36780 36783 36786 36789 36792 36795 36798 36801 36804 36807 36810 36813 36816 36819 36822 36825 36828 36831 36834 36837 36840 36843 36846 36849 36852 36855 36858 36861 36864 36867 36870 36873 36876 36879 36882 36885 36888 36891 36894 36897 36900 36903 36906 36909 36912 36915 36918 36921 36924 36927 36930 36933 36936 36939 36942 36945 36948 36951 36954 36957 36960 36963 36966 36969 36972 36975 36978 36981 36984 36987 36990 36993 36996 36999 37002 37005 37008 37011 37014 37017 37020 37023 37026 37029 37032 37035 37038 37041 37044 37047 37050 37053 37056 37059 37062 37065 37068 37071 37074 37077 37080 37083 37086 37089 37092 37095 37098 37101 37104 37107 37110 37113 37116 37119 37122 37125 37128 37131 37134 37137 37140 37143 37146 37149 37152 37155 37158 37161 37164 37167 37170 37173 37176 37179 37182 37185 37188 37191 37194 37197 37200 37203 37206 37209 37212 37215 37218 37221 37224 37227 37230 37233 37236 37239 37242 37245 37248 37251 37254 37257 37260 37263 37266 37269 37272 37275 37278 37281 37284 37287 37290 37293 37296 37299 37302 37305 37308 37311 37314 37317 37320 37323 37326 37329 37332 37335 37338 37341 37344 37347 37350 37353 37356 37359 37362 37365 37368 37371 37374 37377 37380 37383 37386 37389 37392 37395 37398 37401 37404 37407 37410 37413 37416 37419 37422 37425 37428 37431 37434 37437 37440 37443 37446 37449 37452 37455 37458 37461 37464 37467 37470 37473 37476 37479 37482 37485 37488 37491 37494 37497 37500 37503 37506 37509 37512 37515 37518 37521 37524 37527 37530 37533 37536 37539 37542 37545 37548 37551 37554 37557 37560 37563 37566 37569 37572 37575 37578 37581 37584 37587 37590 37593 37596 37599 37602 37605 37608 37611 37614 37617 37620 37623 37626 37629 37632 37635 37638 37641 37644 37647 37650 37653 37656 37659 37662 37665 37668 37671 37674 37677 37680 37683 37686 37689 37692 37695 37698 37701 37704 37707 37710 37713 37716 37719 37722 37725 37728 37731 37734 37737 37740 37743 37746 37749 37752 37755 37758 37761 37764 37767 37770 37773 37776 37779 37782 37785 37788 37791 37794 37797 37800 37803 37806 37809 37812 37815 37818 37821 37824 37827 37830 37833 37836 37839 37842 37845 37848 37851 37854 37857 37860 37863 37866 37869 37872 37875 37878 37881 37884 37887 37890 37893 37896 37899 37902 37905 37908 37911 37914 37917 37920 37923 37926 37929 37932 37935 37938 37941 37944 37947 37950 37953 37956 37959 37962 37965 37968 37971 37974 37977 37980 37983 37986 37989 37992 37995 37998 38001 38004 38007 38010 38013 38016 38019 38022 38025 38028 38031 38034 38037 38040 38043 38046 38049 38052 38055 38058 38061 38064 38067 38070 38073 38076 38079 38082 38085 38088 38091 38094 38097 38100 38103 38106 38109 38112 38115 38118 38121 38124 38127 38130 38133 38136 38139 38142 38145 38148 38151 38154 38157 38160 38163 38166 38169 38172 38175 38178 38181 38184 38187 38190 38193 38196 38199 38202 38205 38208 38211 38214 38217 38220 38223 38226 38229 38232 38235 38238 38241 38244 38247 38250 38253 38256 38259 38262 38265 38268 38271 38274 38277 38280 38283 38286 38289 38292 38295 38298 38301 38304 38307 38310 38313 38316 38319 38322 38325 38328 38331 38334 38337 38340 38343 38346 38349 38352 38355 38358 38361 38364 38367 38370 38373 38376 38379 38382 38385 38388 38391 38394 38397 38400 38403 38406 38409 38412 38415 38418 38421 38424 38427 38430 38433 38436 38439 38442 38445 38448 38451 38454 38457 38460 38463 38466 38469 38472 38475 38478 38481 38484 38487 38490 38493 38496 38499 38502 38505 38508 38511 38514 38517 38520 38523 38526 38529 38532 38535 38538 38541 38544 38547 38550 38553 38556 38559 38562 38565 38568 38571 38574 38577 38580 38583 38586 38589 38592 38595 38598 38601 38604 38607 38610 38613 38616 38619 38622 38625 38628 38631 38634 38637 38640 38643 38646 38649 38652 38655 38658 38661 38664 38667 38670 38673 38676 38679 38682 38685 38688 38691 38694 38697 38700 38703 38706 38709 38712 38715 38718 38721 38724 38727 38730 38733 38736 38739 38742 38745 38748 38751 38754 38757 38760 38763 38766 38769 38772 38775 38778 38781 38784 38787 38790 38793 38796 38799 38802 38805 38808 38811 38814 38817 38820 38823 38826 38829 38832 38835 38838 38841 38844 38847 38850 38853 38856 38859 38862 38865 38868 38871 38874 38877 38880 38883 38886 38889 38892 38895 38898 38901 38904 38907 38910 38913 38916 38919 38922 38925 38928 38931 38934 38937 38940 38943 38946 38949 38952 38955 38958 38961 38964 38967 38970 38973 38976 38979 38982 38985 38988 38991 38994 38997 39000 39003 39006 39009 39012 39015 39018 39021 39024 39027 39030 39033 39036 39039 39042 39045 39048 39051 39054 39057 39060 39063 39066 39069 39072 39075 39078 39081 39084 39087 39090 39093 39096 39099 39102 39105 39108 39111 39114 39117 39120 39123 39126 39129 39132 39135 39138 39141 39144 39147 39150 39153 39156 39159 39162 39165 39168 39171 39174 39177 39180 39183 39186 39189 39192 39195 39198 39201 39204 39207 39210 39213 39216 39219 39222 39225 39228 39231 39234 39237 39240 39243 39246 39249 39252 39255 39258 39261 39264 39267 39270 39273 39276 39279 39282 39285 39288 39291 39294 39297 39300 39303 39306 39309 39312 39315 39318 39321 39324 39327 39330 39333 39336 39339 39342 39345 39348 39351 39354 39357 39360 39363 39366 39369 39372 39375 39378 39381 39384 39387 39390 39393 39396 39399 39402 39405 39408 39411 39414 39417 39420 39423 39426 39429 39432 39435 39438 39441 39444 39447 39450 39453 39456 39459 39462 39465 39468 39471 39474 39477 39480 39483 39486 39489 39492 39495 39498 39501 39504 39507 39510 39513 39516 39519 39522 39525 39528 39531 39534 39537 39540 39543 39546 39549 39552 39555 39558 39561 39564 39567 39570 39573 39576 39579 39582 39585 39588 39591 39594 39597 39600 39603 39606 39609 39612 39615 39618 39621 39624 39627 39630 39633 39636 39639 39642 39645 39648 39651 39654 39657 39660 39663 39666 39669 39672 39675 39678 39681 39684 39687 39690 39693 39696 39699 39702 39705 39708 39711 39714 39717 39720 39723 39726 39729 39732 39735 39738 39741 39744 39747 39750 39753 39756 39759 39762 39765 39768 39771 39774 39777 39780 39783 39786 39789 39792 39795 39798 39801 39804 39807 39810 39813 39816 39819 39822 39825 39828 39831 39834 39837 39840 39843 39846 39849 39852 39855 39858 39861 39864 39867 39870 39873 39876 39879 39882 39885 39888 39891 39894 39897 39900 39903 39906 39909 39912 39915 39918 39921 39924 39927 39930 39933 39936 39939 39942 39945 39948 39951 39954 39957 39960 39963 39966 39969 39972 39975 39978 39981 39984 39987 39990 39993 39996 39999 40002 40005 40008 40011 40014 40017 40020 40023 40026 40029 40032 40035 40038 40041 40044 40047 40050 40053 40056 40059 40062 40065 40068 40071 40074 40077 40080 40083 40086 40089 40092 40095 40098 40101 40104 40107 40110 40113 40116 40119 40122 40125 40128 40131 40134 40137 40140 40143 40146 40149 40152 40155 40158 40161 40164 40167 40170 40173 40176 40179 40182 40185 40188 40191 40194 40197 40200 40203 40206 40209 40212 40215 40218 40221 40224 40227 40230 40233 40236 40239 40242 40245 40248 40251 40254 40257 40260 40263 40266 40269 40272 40275 40278 40281 40284 40287 40290 40293 40296 40299 40302 40305 40308 40311 40314 40317 40320 40323 40326 40329 40332 40335 40338 40341 40344 40347 40350 40353 40356 40359 40362 40365 40368 40371 40374 40377 40380 40383 40386 40389 40392 40395 40398 40401 40404 40407 40410 40413 40416 40419 40422 40425 40428 40431 40434 40437 40440 40443 40446 40449 40452 40455 40458 40461 40464 40467 40470 40473 40476 40479 40482 40485 40488 40491 40494 40497 40500 40503 40506 40509 40512 40515 40518 40521 40524 40527 40530 40533 40536 40539 40542 40545 40548 40551 40554 40557 40560 40563 40566 40569 40572 40575 40578 40581 40584 40587 40590 40593 40596 40599 40602 40605 40608 40611 40614 40617 40620 40623 40626 40629 40632 40635 40638 40641 40644 40647 40650 40653 40656 40659 40662 40665 40668 40671 40674 40677 40680 40683 40686 40689 40692 40695 40698 40701 40704 40707 40710 40713 40716 40719 40722 40725 40728 40731 40734 40737 40740 40743 40746 40749 40752 40755 40758 40761 40764 40767 40770 40773 40776 40779 40782 40785 40788 40791 40794 40797 40800 40803 40806 40809 40812 40815 40818 40821 40824 40827 40830 40833 40836 40839 40842 40845 40848 40851 40854 40857 40860 40863 40866 40869 40872 40875 40878 40881 40884 40887 40890 40893 40896 40899 40902 40905 40908 40911 40914 40917 40920 40923 40926 40929 40932 40935 40938 40941 40944 40947 40950 40953 40956 40959 40962 40965 40968 40971 40974 40977 40980 40983 40986 40989 40992 40995 40998 41001 41004 41007 41010 41013 41016 41019 41022 41025 41028 41031 41034 41037 41040 41043 41046 41049 41052 41055 41058 41061 41064 41067 41070 41073 41076 41079 41082 41085 41088 41091 41094 41097 41100 41103 41106 41109 41112 41115 41118 41121 41124 41127 41130 41133 41136 41139 41142 41145 41148 41151 41154 41157 41160 41163 41166 41169 41172 41175 41178 41181 41184 41187 41190 41193 41196 41199 41202 41205 41208 41211 41214 41217 41220 41223 41226 41229 41232 41235 41238 41241 41244 41247 41250 41253 41256 41259 41262 41265 41268 41271 41274 41277 41280 41283 41286 41289 41292 41295 41298 41301 41304 41307 41310 41313 41316 41319 41322 41325 41328 41331 41334 41337 41340 41343 41346 41349 41352 41355 41358 41361 41364 41367 41370 41373 41376 41379 41382 41385 41388 41391 41394 41397 41400 41403 41406 41409 41412 41415 41418 41421 41424 41427 41430 41433 41436 41439 41442 41445 41448 41451 41454 41457 41460 41463 41466 41469 41472 41475 41478 41481 41484 41487 41490 41493 41496 41499 41502 41505 41508 41511 41514 41517 41520 41523 41526 41529 41532 41535 41538 41541 41544 41547 41550 41553 41556 41559 41562 41565 41568 41571 41574 41577 41580 41583 41586 41589 41592 41595 41598 41601 41604 41607 41610 41613 41616 41619 41622 41625 41628 41631 41634 41637 41640 41643 41646 41649 41652 41655 41658 41661 41664 41667 41670 41673 41676 41679 41682 41685 41688 41691 41694 41697 41700 41703 41706 41709 41712 41715 41718 41721 41724 41727 41730 41733 41736 41739 41742 41745 41748 41751 41754 41757 41760 41763 41766 41769 41772 41775 41778 41781 41784 41787 41790 41793 41796 41799 41802 41805 41808 41811 41814 41817 41820 41823 41826 41829 41832 41835 41838 41841 41844 41847 41850 41853 41856 41859 41862 41865 41868 41871 41874 41877 41880 41883 41886 41889 41892 41895 41898 41901 41904 41907 41910 41913 41916 41919 41922 41925 41928 41931 41934 41937 41940 41943 41946 41949 41952 41955 41958 41961 41964 41967 41970 41973 41976 41979 41982 41985 41988 41991 41994 41997 42000 42003 42006 42009 42012 42015 42018 42021 42024 42027 42030 42033 42036 42039 42042 42045 42048 42051 42054 42057 42060 42063 42066 42069 42072 42075 42078 42081 42084 42087 42090 42093 42096 42099 42102 42105 42108 42111 42114 42117 42120 42123 42126 42129 42132 42135 42138 42141 42144 42147 42150 42153 42156 42159 42162 42165 42168 42171 42174 42177 42180 42183 42186 42189 42192 42195 42198 42201 42204 42207 42210 42213 42216 42219 42222 42225 42228 42231 42234 42237 42240 42243 42246 42249 42252 42255 42258 42261 42264 42267 42270 42273 42276 42279 42282 42285 42288 42291 42294 42297 42300 42303 42306 42309 42312 42315 42318 42321 42324 42327 42330 42333 42336 42339 42342 42345 42348 42351 42354 42357 42360 42363 42366 42369 42372 42375 42378 42381 42384 42387 42390 42393 42396 42399 42402 42405 42408 42411 42414 42417 42420 42423 42426 42429 42432 42435 42438 42441 42444 42447 42450 42453 42456 42459 42462 42465 42468 42471 42474 42477 42480 42483 42486 42489 42492 42495 42498 42501 42504 42507 42510 42513 42516 42519 42522 42525 42528 42531 42534 42537 42540 42543 42546 42549 42552 42555 42558 42561 42564 42567 42570 42573 42576 42579 42582 42585 42588 42591 42594 42597 42600 42603 42606 42609 42612 42615 42618 42621 42624 42627 42630 42633 42636 42639 42642 42645 42648 42651 42654 42657 42660 42663 42666 42669 42672 42675 42678 42681 42684 42687 42690 42693 42696 42699 42702 42705 42708 42711 42714 42717 42720 42723 42726 42729 42732 42735 42738 42741 42744 42747 42750 42753 42756 42759 42762 42765 42768 42771 42774 42777 42780 42783 42786 42789 42792 42795 42798 42801 42804 42807 42810 42813 42816 42819 42822 42825 42828 42831 42834 42837 42840 42843 42846 42849 42852 42855 42858 42861 42864 42867 42870 42873 42876 42879 42882 42885 42888 42891 42894 42897 42900 42903 42906 42909 42912 42915 42918 42921 42924 42927 42930 42933 42936 42939 42942 42945 42948 42951 42954 42957 42960 42963 42966 42969 42972 42975 42978 42981 42984 42987 42990 42993 42996 42999 43002 43005 43008 43011 43014 43017 43020 43023 43026 43029 43032 43035 43038 43041 43044 43047 43050 43053 43056 43059 43062 43065 43068 43071 43074 43077 43080 43083 43086 43089 43092 43095 43098 43101 43104 43107 43110 43113 43116 43119 43122 43125 43128 43131 43134 43137 43140 43143 43146 43149 43152 43155 43158 43161 43164 43167 43170 43173 43176 43179 43182 43185 43188 43191 43194 43197 43200 43203 43206 43209 43212 43215 43218 43221 43224 43227 43230 43233 43236 43239 43242 43245 43248 43251 43254 43257 43260 43263 43266 43269 43272 43275 43278 43281 43284 43287 43290 43293 43296 43299 43302 43305 43308 43311 43314 43317 43320 43323 43326 43329 43332 43335 43338 43341 43344 43347 43350 43353 43356 43359 43362 43365 43368 43371 43374 43377 43380 43383 43386 43389 43392 43395 43398 43401 43404 43407 43410 43413 43416 43419 43422 43425 43428 43431 43434 43437 43440 43443 43446 43449 43452 43455 43458 43461 43464 43467 43470 43473 43476 43479 43482 43485 43488 43491 43494 43497 43500 43503 43506 43509 43512 43515 43518 43521 43524 43527 43530 43533 43536 43539 43542 43545 43548 43551 43554 43557 43560 43563 43566 43569 43572 43575 43578 43581 43584 43587 43590 43593 43596 43599 43602 43605 43608 43611 43614 43617 43620 43623 43626 43629 43632 43635 43638 43641 43644 43647 43650 43653 43656 43659 43662 43665 43668 43671 43674 43677 43680 43683 43686 43689 43692 43695 43698 43701 43704 43707 43710 43713 43716 43719 43722 43725 43728 43731 43734 43737 43740 43743 43746 43749 43752 43755 43758 43761 43764 43767 43770 43773 43776 43779 43782 43785 43788 43791 43794 43797 43800 43803 43806 43809 43812 43815 43818 43821 43824 43827 43830 43833 43836 43839 43842 43845 43848 43851 43854 43857 43860 43863 43866 43869 43872 43875 43878 43881 43884 43887 43890 43893 43896 43899 43902 43905 43908 43911 43914 43917 43920 43923 43926 43929 43932 43935 43938 43941 43944 43947 43950 43953 43956 43959 43962 43965 43968 43971 43974 43977 43980 43983 43986 43989 43992 43995 43998 44001 44004 44007 44010 44013 44016 44019 44022 44025 44028 44031 44034 44037 44040 44043 44046 44049 44052 44055 44058 44061 44064 44067 44070 44073 44076 44079 44082 44085 44088 44091 44094 44097 44100 44103 44106 44109 44112 44115 44118 44121 44124 44127 44130 44133 44136 44139 44142 44145 44148 44151 44154 44157 44160 44163 44166 44169 44172 44175 44178 44181 44184 44187 44190 44193 44196 44199 44202 44205 44208 44211 44214 44217 44220 44223 44226 44229 44232 44235 44238 44241 44244 44247 44250 44253 44256 44259 44262 44265 44268 44271 44274 44277 44280 44283 44286 44289 44292 44295 44298 44301 44304 44307 44310 44313 44316 44319 44322 44325 44328 44331 44334 44337 44340 44343 44346 44349 44352 44355 44358 44361 44364 44367 44370 44373 44376 44379 44382 44385 44388 44391 44394 44397 44400 44403 44406 44409 44412 44415 44418 44421 44424 44427 44430 44433 44436 44439 44442 44445 44448 44451 44454 44457 44460 44463 44466 44469 44472 44475 44478 44481 44484 44487 44490 44493 44496 44499 44502 44505 44508 44511 44514 44517 44520 44523 44526 44529 44532 44535 44538 44541 44544 44547 44550 44553 44556 44559 44562 44565 44568 44571 44574 44577 44580 44583 44586 44589 44592 44595 44598 44601 44604 44607 44610 44613 44616 44619 44622 44625 44628 44631 44634 44637 44640 44643 44646 44649 44652 44655 44658 44661 44664 44667 44670 44673 44676 44679 44682 44685 44688 44691 44694 44697 44700 44703 44706 44709 44712 44715 44718 44721 44724 44727 44730 44733 44736 44739 44742 44745 44748 44751 44754 44757 44760 44763 44766 44769 44772 44775 44778 44781 44784 44787 44790 44793 44796 44799 44802 44805 44808 44811 44814 44817 44820 44823 44826 44829 44832 44835 44838 44841 44844 44847 44850 44853 44856 44859 44862 44865 44868 44871 44874 44877 44880 44883 44886 44889 44892 44895 44898 44901 44904 44907 44910 44913 44916 44919 44922 44925 44928 44931 44934 44937 44940 44943 44946 44949 44952 44955 44958 44961 44964 44967 44970 44973 44976 44979 44982 44985 44988 44991 44994 44997 45000 45003 45006 45009 45012 45015 45018 45021 45024 45027 45030 45033 45036 45039 45042 45045 45048 45051 45054 45057 45060 45063 45066 45069 45072 45075 45078 45081 45084 45087 45090 45093 45096 45099 45102 45105 45108 45111 45114 45117 45120 45123 45126 45129 45132 45135 45138 45141 45144 45147 45150 45153 45156 45159 45162 45165 45168 45171 45174 45177 45180 45183 45186 45189 45192 45195 45198 45201 45204 45207 45210 45213 45216 45219 45222 45225 45228 45231 45234 45237 45240 45243 45246 45249 45252 45255 45258 45261 45264 45267 45270 45273 45276 45279 45282 45285 45288 45291 45294 45297 45300 45303 45306 45309 45312 45315 45318 45321 45324 45327 45330 45333 45336 45339 45342 45345 45348 45351 45354 45357 45360 45363 45366 45369 45372 45375 45378 45381 45384 45387 45390 45393 45396 45399 45402 45405 45408 45411 45414 45417 45420 45423 45426 45429 45432 45435 45438 45441 45444 45447 45450 45453 45456 45459 45462 45465 45468 45471 45474 45477 45480 45483 45486 45489 45492 45495 45498 45501 45504 45507 45510 45513 45516 45519 45522 45525 45528 45531 45534 45537 45540 45543 45546 45549 45552 45555 45558 45561 45564 45567 45570 45573 45576 45579 45582 45585 45588 45591 45594 45597 45600 45603 45606 45609 45612 45615 45618 45621 45624 45627 45630 45633 45636 45639 45642 45645 45648 45651 45654 45657 45660 45663 45666 45669 45672 45675 45678 45681 45684 45687 45690 45693 45696 45699 45702 45705 45708 45711 45714 45717 45720 45723 45726 45729 45732 45735 45738 45741 45744 45747 45750 45753 45756 45759 45762 45765 45768 45771 45774 45777 45780 45783 45786 45789 45792 45795 45798 45801 45804 45807 45810 45813 45816 45819 45822 45825 45828 45831 45834 45837 45840 45843 45846 45849 45852 45855 45858 45861 45864 45867 45870 45873 45876 45879 45882 45885 45888 45891 45894 45897 45900 45903 45906 45909 45912 45915 45918 45921 45924 45927 45930 45933 45936 45939 45942 45945 45948 45951 45954 45957 45960 45963 45966 45969 45972 45975 45978 45981 45984 45987 45990 45993 45996 45999 46002 46005 46008 46011 46014 46017 46020 46023 46026 46029 46032 46035 46038 46041 46044 46047 46050 46053 46056 46059 46062 46065 46068 46071 46074 46077 46080 46083 46086 46089 46092 46095 46098 46101 46104 46107 46110 46113 46116 46119 46122 46125 46128 46131 46134 46137 46140 46143 46146 46149 46152 46155 46158 46161 46164 46167 46170 46173 46176 46179 46182 46185 46188 46191 46194 46197 46200 46203 46206 46209 46212 46215 46218 46221 46224 46227 46230 46233 46236 46239 46242 46245 46248 46251 46254 46257 46260 46263 46266 46269 46272 46275 46278 46281 46284 46287 46290 46293 46296 46299 46302 46305 46308 46311 46314 46317 46320 46323 46326 46329 46332 46335 46338 46341 46344 46347 46350 46353 46356 46359 46362 46365 46368 46371 46374 46377 46380 46383 46386 46389 46392 46395 46398 46401 46404 46407 46410 46413 46416 46419 46422 46425 46428 46431 46434 46437 46440 46443 46446 46449 46452 46455 46458 46461 46464 46467 46470 46473 46476 46479 46482 46485 46488 46491 46494 46497 46500 46503 46506 46509 46512 46515 46518 46521 46524 46527 46530 46533 46536 46539 46542 46545 46548 46551 46554 46557 46560 46563 46566 46569 46572 46575 46578 46581 46584 46587 46590 46593 46596 46599 46602 46605 46608 46611 46614 46617 46620 46623 46626 46629 46632 46635 46638 46641 46644 46647 46650 46653 46656 46659 46662 46665 46668 46671 46674 46677 46680 46683 46686 46689 46692 46695 46698 46701 46704 46707 46710 46713 46716 46719 46722 46725 46728 46731 46734 46737 46740 46743 46746 46749 46752 46755 46758 46761 46764 46767 46770 46773 46776 46779 46782 46785 46788 46791 46794 46797 46800 46803 46806 46809 46812 46815 46818 46821 46824 46827 46830 46833 46836 46839 46842 46845 46848 46851 46854 46857 46860 46863 46866 46869 46872 46875 46878 46881 46884 46887 46890 46893 46896 46899 46902 46905 46908 46911 46914 46917 46920 46923 46926 46929 46932 46935 46938 46941 46944 46947 46950 46953 46956 46959 46962 46965 46968 46971 46974 46977 46980 46983 46986 46989 46992 46995 46998 47001 47004 47007 47010 47013 47016 47019 47022 47025 47028 47031 47034 47037 47040 47043 47046 47049 47052 47055 47058 47061 47064 47067 47070 47073 47076 47079 47082 47085 47088 47091 47094 47097 47100 47103 47106 47109 47112 47115 47118 47121 47124 47127 47130 47133 47136 47139 47142 47145 47148 47151 47154 47157 47160 47163 47166 47169 47172 47175 47178 47181 47184 47187 47190 47193 47196 47199 47202 47205 47208 47211 47214 47217 47220 47223 47226 47229 47232 47235 47238 47241 47244 47247 47250 47253 47256 47259 47262 47265 47268 47271 47274 47277 47280 47283 47286 47289 47292 47295 47298 47301 47304 47307 47310 47313 47316 47319 47322 47325 47328 47331 47334 47337 47340 47343 47346 47349 47352 47355 47358 47361 47364 47367 47370 47373 47376 47379 47382 47385 47388 47391 47394 47397 47400 47403 47406 47409 47412 47415 47418 47421 47424 47427 47430 47433 47436 47439 47442 47445 47448 47451 47454 47457 47460 47463 47466 47469 47472 47475 47478 47481 47484 47487 47490 47493 47496 47499 47502 47505 47508 47511 47514 47517 47520 47523 47526 47529 47532 47535 47538 47541 47544 47547 47550 47553 47556 47559 47562 47565 47568 47571 47574 47577 47580 47583 47586 47589 47592 47595 47598 47601 47604 47607 47610 47613 47616 47619 47622 47625 47628 47631 47634 47637 47640 47643 47646 47649 47652 47655 47658 47661 47664 47667 47670 47673 47676 47679 47682 47685 47688 47691 47694 47697 47700 47703 47706 47709 47712 47715 47718 47721 47724 47727 47730 47733 47736 47739 47742 47745 47748 47751 47754 47757 47760 47763 47766 47769 47772 47775 47778 47781 47784 47787 47790 47793 47796 47799 47802 47805 47808 47811 47814 47817 47820 47823 47826 47829 47832 47835 47838 47841 47844 47847 47850 47853 47856 47859 47862 47865 47868 47871 47874 47877 47880 47883 47886 47889 47892 47895 47898 47901 47904 47907 47910 47913 47916 47919 47922 47925 47928 47931 47934 47937 47940 47943 47946 47949 47952 47955 47958 47961 47964 47967 47970 47973 47976 47979 47982 47985 47988 47991 47994 47997 48000 48003 48006 48009 48012 48015 48018 48021 48024 48027 48030 48033 48036 48039 48042 48045 48048 48051 48054 48057 48060 48063 48066 48069 48072 48075 48078 48081 48084 48087 48090 48093 48096 48099 48102 48105 48108 48111 48114 48117 48120 48123 48126 48129 48132 48135 48138 48141 48144 48147 48150 48153 48156 48159 48162 48165 48168 48171 48174 48177 48180 48183 48186 48189 48192 48195 48198 48201 48204 48207 48210 48213 48216 48219 48222 48225 48228 48231 48234 48237 48240 48243 48246 48249 48252 48255 48258 48261 48264 48267 48270 48273 48276 48279 48282 48285 48288 48291 48294 48297 48300 48303 48306 48309 48312 48315 48318 48321 48324 48327 48330 48333 48336 48339 48342 48345 48348 48351 48354 48357 48360 48363 48366 48369 48372 48375 48378 48381 48384 48387 48390 48393 48396 48399 48402 48405 48408 48411 48414 48417 48420 48423 48426 48429 48432 48435 48438 48441 48444 48447 48450 48453 48456 48459 48462 48465 48468 48471 48474 48477 48480 48483 48486 48489 48492 48495 48498 48501 48504 48507 48510 48513 48516 48519 48522 48525 48528 48531 48534 48537 48540 48543 48546 48549 48552 48555 48558 48561 48564 48567 48570 48573 48576 48579 48582 48585 48588 48591 48594 48597 48600 48603 48606 48609 48612 48615 48618 48621 48624 48627 48630 48633 48636 48639 48642 48645 48648 48651 48654 48657 48660 48663 48666 48669 48672 48675 48678 48681 48684 48687 48690 48693 48696 48699 48702 48705 48708 48711 48714 48717 48720 48723 48726 48729 48732 48735 48738 48741 48744 48747 48750 48753 48756 48759 48762 48765 48768 48771 48774 48777 48780 48783 48786 48789 48792 48795 48798 48801 48804 48807 48810 48813 48816 48819 48822 48825 48828 48831 48834 48837 48840 48843 48846 48849 48852 48855 48858 48861 48864 48867 48870 48873 48876 48879 48882 48885 48888 48891 48894 48897 48900 48903 48906 48909 48912 48915 48918 48921 48924 48927 48930 48933 48936 48939 48942 48945 48948 48951 48954 48957 48960 48963 48966 48969 48972 48975 48978 48981 48984 48987 48990 48993 48996 48999 49002 49005 49008 49011 49014 49017 49020 49023 49026 49029 49032 49035 49038 49041 49044 49047 49050 49053 49056 49059 49062 49065 49068 49071 49074 49077 49080 49083 49086 49089 49092 49095 49098 49101 49104 49107 49110 49113 49116 49119 49122 49125 49128 49131 49134 49137 49140 49143 49146 49149 49152 49155 49158 49161 49164 49167 49170 49173 49176 49179 49182 49185 49188 49191 49194 49197 49200 49203 49206 49209 49212 49215 49218 49221 49224 49227 49230 49233 49236 49239 49242 49245 49248 49251 49254 49257 49260 49263 49266 49269 49272 49275 49278 49281 49284 49287 49290 49293 49296 49299 49302 49305 49308 49311 49314 49317 49320 49323 49326 49329 49332 49335 49338 49341 49344 49347 49350 49353 49356 49359 49362 49365 49368 49371 49374 49377 49380 49383 49386 49389 49392 49395 49398 49401 49404 49407 49410 49413 49416 49419 49422 49425 49428 49431 49434 49437 49440 49443 49446 49449 49452 49455 49458 49461 49464 49467 49470 49473 49476 49479 49482 49485 49488 49491 49494 49497 49500 49503 49506 49509 49512 49515 49518 49521 49524 49527 49530 49533 49536 49539 49542 49545 49548 49551 49554 49557 49560 49563 49566 49569 49572 49575 49578 49581 49584 49587 49590 49593 49596 49599 49602 49605 49608 49611 49614 49617 49620 49623 49626 49629 49632 49635 49638 49641 49644 49647 49650 49653 49656 49659 49662 49665 49668 49671 49674 49677 49680 49683 49686 49689 49692 49695 49698 49701 49704 49707 49710 49713 49716 49719 49722 49725 49728 49731 49734 49737 49740 49743 49746 49749 49752 49755 49758 49761 49764 49767 49770 49773 49776 49779 49782 49785 49788 49791 49794 49797 49800 49803 49806 49809 49812 49815 49818 49821 49824 49827 49830 49833 49836 49839 49842 49845 49848 49851 49854 49857 49860 49863 49866 49869 49872 49875 49878 49881 49884 49887 49890 49893 49896 49899 49902 49905 49908 49911 49914 49917 49920 49923 49926 49929 49932 49935 49938 49941 49944 49947 49950 49953 49956 49959 49962 49965 49968 49971 49974 49977 49980 49983 49986 49989 49992 49995 49998 50001 50004 50007 50010 50013 50016 50019 50022 50025 50028 50031 50034 50037 50040 50043 50046 50049 50052 50055 50058 50061 50064 50067 50070 50073 50076 50079 50082 50085 50088 50091 50094 50097 50100 50103 50106 50109 50112 50115 50118 50121 50124 50127 50130 50133 50136 50139 50142 50145 50148 50151 50154 50157 50160 50163 50166 50169 50172 50175 50178 50181 50184 50187 50190 50193 50196 50199 50202 50205 50208 50211 50214 50217 50220 50223 50226 50229 50232 50235 50238 50241 50244 50247 50250 50253 50256 50259 50262 50265 50268 50271 50274 50277 50280 50283 50286 50289 50292 50295 50298 50301 50304 50307 50310 50313 50316 50319 50322 50325 50328 50331 50334 50337 50340 50343 50346 50349 50352 50355 50358 50361 50364 50367 50370 50373 50376 50379 50382 50385 50388 50391 50394 50397 50400 50403 50406 50409 50412 50415 50418 50421 50424 50427 50430 50433 50436 50439 50442 50445 50448 50451 50454 50457 50460 50463 50466 50469 50472 50475 50478 50481 50484 50487 50490 50493 50496 50499 50502 50505 50508 50511 50514 50517 50520 50523 50526 50529 50532 50535 50538 50541 50544 50547 50550 50553 50556 50559 50562 50565 50568 50571 50574 50577 50580 50583 50586 50589 50592 50595 50598 50601 50604 50607 50610 50613 50616 50619 50622 50625 50628 50631 50634 50637 50640 50643 50646 50649 50652 50655 50658 50661 50664 50667 50670 50673 50676 50679 50682 50685 50688 50691 50694 50697 50700 50703 50706 50709 50712 50715 50718 50721 50724 50727 50730 50733 50736 50739 50742 50745 50748 50751 50754 50757 50760 50763 50766 50769 50772 50775 50778 50781 50784 50787 50790 50793 50796 50799 50802 50805 50808 50811 50814 50817 50820 50823 50826 50829 50832 50835 50838 50841 50844 50847 50850 50853 50856 50859 50862 50865 50868 50871 50874 50877 50880 50883 50886 50889 50892 50895 50898 50901 50904 50907 50910 50913 50916 50919 50922 50925 50928 50931 50934 50937 50940 50943 50946 50949 50952 50955 50958 50961 50964 50967 50970 50973 50976 50979 50982 50985 50988 50991 50994 50997 51000 51003 51006 51009 51012 51015 51018 51021 51024 51027 51030 51033 51036 51039 51042 51045 51048 51051 51054 51057 51060 51063 51066 51069 51072 51075 51078 51081 51084 51087 51090 51093 51096 51099 51102 51105 51108 51111 51114 51117 51120 51123 51126 51129 51132 51135 51138 51141 51144 51147 51150 51153 51156 51159 51162 51165 51168 51171 51174 51177 51180 51183 51186 51189 51192 51195 51198 51201 51204 51207 51210 51213 51216 51219 51222 51225 51228 51231 51234 51237 51240 51243 51246 51249 51252 51255 51258 51261 51264 51267 51270 51273 51276 51279 51282 51285 51288 51291 51294 51297 51300 51303 51306 51309 51312 51315 51318 51321 51324 51327 51330 51333 51336 51339 51342 51345 51348 51351 51354 51357 51360 51363 51366 51369 51372 51375 51378 51381 51384 51387 51390 51393 51396 51399 51402 51405 51408 51411 51414 51417 51420 51423 51426 51429 51432 51435 51438 51441 51444 51447 51450 51453 51456 51459 51462 51465 51468 51471 51474 51477 51480 51483 51486 51489 51492 51495 51498 51501 51504 51507 51510 51513 51516 51519 51522 51525 51528 51531 51534 51537 51540 51543 51546 51549 51552 51555 51558 51561 51564 51567 51570 51573 51576 51579 51582 51585 51588 51591 51594 51597 51600 51603 51606 51609 51612 51615 51618 51621 51624 51627 51630 51633 51636 51639 51642 51645 51648 51651 51654 51657 51660 51663 51666 51669 51672 51675 51678 51681 51684 51687 51690 51693 51696 51699 51702 51705 51708 51711 51714 51717 51720 51723 51726 51729 51732 51735 51738 51741 51744 51747 51750 51753 51756 51759 51762 51765 51768 51771 51774 51777 51780 51783 51786 51789 51792 51795 51798 51801 51804 51807 51810 51813 51816 51819 51822 51825 51828 51831 51834 51837 51840 51843 51846 51849 51852 51855 51858 51861 51864 51867 51870 51873 51876 51879 51882 51885 51888 51891 51894 51897 51900 51903 51906 51909 51912 51915 51918 51921 51924 51927 51930 51933 51936 51939 51942 51945 51948 51951 51954 51957 51960 51963 51966 51969 51972 51975 51978 51981 51984 51987 51990 51993 51996 51999 52002 52005 52008 52011 52014 52017 52020 52023 52026 52029 52032 52035 52038 52041 52044 52047 52050 52053 52056 52059 52062 52065 52068 52071 52074 52077 52080 52083 52086 52089 52092 52095 52098 52101 52104 52107 52110 52113 52116 52119 52122 52125 52128 52131 52134 52137 52140 52143 52146 52149 52152 52155 52158 52161 52164 52167 52170 52173 52176 52179 52182 52185 52188 52191 52194 52197 52200 52203 52206 52209 52212 52215 52218 52221 52224 52227 52230 52233 52236 52239 52242 52245 52248 52251 52254 52257 52260 52263 52266 52269 52272 52275 52278 52281 52284 52287 52290 52293 52296 52299 52302 52305 52308 52311 52314 52317 52320 52323 52326 52329 52332 52335 52338 52341 52344 52347 52350 52353 52356 52359 52362 52365 52368 52371 52374 52377 52380 52383 52386 52389 52392 52395 52398 52401 52404 52407 52410 52413 52416 52419 52422 52425 52428 52431 52434 52437 52440 52443 52446 52449 52452 52455 52458 52461 52464 52467 52470 52473 52476 52479 52482 52485 52488 52491 52494 52497 52500 52503 52506 52509 52512 52515 52518 52521 52524 52527 52530 52533 52536 52539 52542 52545 52548 52551 52554 52557 52560 52563 52566 52569 52572 52575 52578 52581 52584 52587 52590 52593 52596 52599 52602 52605 52608 52611 52614 52617 52620 52623 52626 52629 52632 52635 52638 52641 52644 52647 52650 52653 52656 52659 52662 52665 52668 52671 52674 52677 52680 52683 52686 52689 52692 52695 52698 52701 52704 52707 52710 52713 52716 52719 52722 52725 52728 52731 52734 52737 52740 52743 52746 52749 52752 52755 52758 52761 52764 52767 52770 52773 52776 52779 52782 52785 52788 52791 52794 52797 52800 52803 52806 52809 52812 52815 52818 52821 52824 52827 52830 52833 52836 52839 52842 52845 52848 52851 52854 52857 52860 52863 52866 52869 52872 52875 52878 52881 52884 52887 52890 52893 52896 52899 52902 52905 52908 52911 52914 52917 52920 52923 52926 52929 52932 52935 52938 52941 52944 52947 52950 52953 52956 52959 52962 52965 52968 52971 52974 52977 52980 52983 52986 52989 52992 52995 52998 53001 53004 53007 53010 53013 53016 53019 53022 53025 53028 53031 53034 53037 53040 53043 53046 53049 53052 53055 53058 53061 53064 53067 53070 53073 53076 53079 53082 53085 53088 53091 53094 53097 53100 53103 53106 53109 53112 53115 53118 53121 53124 53127 53130 53133 53136 53139 53142 53145 53148 53151 53154 53157 53160 53163 53166 53169 53172 53175 53178 53181 53184 53187 53190 53193 53196 53199 53202 53205 53208 53211 53214 53217 53220 53223 53226 53229 53232 53235 53238 53241 53244 53247 53250 53253 53256 53259 53262 53265 53268 53271 53274 53277 53280 53283 53286 53289 53292 53295 53298 53301 53304 53307 53310 53313 53316 53319 53322 53325 53328 53331 53334 53337 53340 53343 53346 53349 53352 53355 53358 53361 53364 53367 53370 53373 53376 53379 53382 53385 53388 53391 53394 53397 53400 53403 53406 53409 53412 53415 53418 53421 53424 53427 53430 53433 53436 53439 53442 53445 53448 53451 53454 53457 53460 53463 53466 53469 53472 53475 53478 53481 53484 53487 53490 53493 53496 53499 53502 53505 53508 53511 53514 53517 53520 53523 53526 53529 53532 53535 53538 53541 53544 53547 53550 53553 53556 53559 53562 53565 53568 53571 53574 53577 53580 53583 53586 53589 53592 53595 53598 53601 53604 53607 53610 53613 53616 53619 53622 53625 53628 53631 53634 53637 53640 53643 53646 53649 53652 53655 53658 53661 53664 53667 53670 53673 53676 53679 53682 53685 53688 53691 53694 53697 53700 53703 53706 53709 53712 53715 53718 53721 53724 53727 53730 53733 53736 53739 53742 53745 53748 53751 53754 53757 53760 53763 53766 53769 53772 53775 53778 53781 53784 53787 53790 53793 53796 53799 53802 53805 53808 53811 53814 53817 53820 53823 53826 53829 53832 53835 53838 53841 53844 53847 53850 53853 53856 53859 53862 53865 53868 53871 53874 53877 53880 53883 53886 53889 53892 53895 53898 53901 53904 53907 53910 53913 53916 53919 53922 53925 53928 53931 53934 53937 53940 53943 53946 53949 53952 53955 53958 53961 53964 53967 53970 53973 53976 53979 53982 53985 53988 53991 53994 53997 54000 54003 54006 54009 54012 54015 54018 54021 54024 54027 54030 54033 54036 54039 54042 54045 54048 54051 54054 54057 54060 54063 54066 54069 54072 54075 54078 54081 54084 54087 54090 54093 54096 54099 54102 54105 54108 54111 54114 54117 54120 54123 54126 54129 54132 54135 54138 54141 54144 54147 54150 54153 54156 54159 54162 54165 54168 54171 54174 54177 54180 54183 54186 54189 54192 54195 54198 54201 54204 54207 54210 54213 54216 54219 54222 54225 54228 54231 54234 54237 54240 54243 54246 54249 54252 54255 54258 54261 54264 54267 54270 54273 54276 54279 54282 54285 54288 54291 54294 54297 54300 54303 54306 54309 54312 54315 54318 54321 54324 54327 54330 54333 54336 54339 54342 54345 54348 54351 54354 54357 54360 54363 54366 54369 54372 54375 54378 54381 54384 54387 54390 54393 54396 54399 54402 54405 54408 54411 54414 54417 54420 54423 54426 54429 54432 54435 54438 54441 54444 54447 54450 54453 54456 54459 54462 54465 54468 54471 54474 54477 54480 54483 54486 54489 54492 54495 54498 54501 54504 54507 54510 54513 54516 54519 54522 54525 54528 54531 54534 54537 54540 54543 54546 54549 54552 54555 54558 54561 54564 54567 54570 54573 54576 54579 54582 54585 54588 54591 54594 54597 54600 54603 54606 54609 54612 54615 54618 54621 54624 54627 54630 54633 54636 54639 54642 54645 54648 54651 54654 54657 54660 54663 54666 54669 54672 54675 54678 54681 54684 54687 54690 54693 54696 54699 54702 54705 54708 54711 54714 54717 54720 54723 54726 54729 54732 54735 54738 54741 54744 54747 54750 54753 54756 54759 54762 54765 54768 54771 54774 54777 54780 54783 54786 54789 54792 54795 54798 54801 54804 54807 54810 54813 54816 54819 54822 54825 54828 54831 54834 54837 54840 54843 54846 54849 54852 54855 54858 54861 54864 54867 54870 54873 54876 54879 54882 54885 54888 54891 54894 54897 54900 54903 54906 54909 54912 54915 54918 54921 54924 54927 54930 54933 54936 54939 54942 54945 54948 54951 54954 54957 54960 54963 54966 54969 54972 54975 54978 54981 54984 54987 54990 54993 54996 54999 55002 55005 55008 55011 55014 55017 55020 55023 55026 55029 55032 55035 55038 55041 55044 55047 55050 55053 55056 55059 55062 55065 55068 55071 55074 55077 55080 55083 55086 55089 55092 55095 55098 55101 55104 55107 55110 55113 55116 55119 55122 55125 55128 55131 55134 55137 55140 55143 55146 55149 55152 55155 55158 55161 55164 55167 55170 55173 55176 55179 55182 55185 55188 55191 55194 55197 55200 55203 55206 55209 55212 55215 55218 55221 55224 55227 55230 55233 55236 55239 55242 55245 55248 55251 55254 55257 55260 55263 55266 55269 55272 55275 55278 55281 55284 55287 55290 55293 55296 55299 55302 55305 55308 55311 55314 55317 55320 55323 55326 55329 55332 55335 55338 55341 55344 55347 55350 55353 55356 55359 55362 55365 55368 55371 55374 55377 55380 55383 55386 55389 55392 55395 55398 55401 55404 55407 55410 55413 55416 55419 55422 55425 55428 55431 55434 55437 55440 55443 55446 55449 55452 55455 55458 55461 55464 55467 55470 55473 55476 55479 55482 55485 55488 55491 55494 55497 55500 55503 55506 55509 55512 55515 55518 55521 55524 55527 55530 55533 55536 55539 55542 55545 55548 55551 55554 55557 55560 55563 55566 55569 55572 55575 55578 55581 55584 55587 55590 55593 55596 55599 55602 55605 55608 55611 55614 55617 55620 55623 55626 55629 55632 55635 55638 55641 55644 55647 55650 55653 55656 55659 55662 55665 55668 55671 55674 55677 55680 55683 55686 55689 55692 55695 55698 55701 55704 55707 55710 55713 55716 55719 55722 55725 55728 55731 55734 55737 55740 55743 55746 55749 55752 55755 55758 55761 55764 55767 55770 55773 55776 55779 55782 55785 55788 55791 55794 55797 55800 55803 55806 55809 55812 55815 55818 55821 55824 55827 55830 55833 55836 55839 55842 55845 55848 55851 55854 55857 55860 55863 55866 55869 55872 55875 55878 55881 55884 55887 55890 55893 55896 55899 55902 55905 55908 55911 55914 55917 55920 55923 55926 55929 55932 55935 55938 55941 55944 55947 55950 55953 55956 55959 55962 55965 55968 55971 55974 55977 55980 55983 55986 55989 55992 55995 55998 56001 56004 56007 56010 56013 56016 56019 56022 56025 56028 56031 56034 56037 56040 56043 56046 56049 56052 56055 56058 56061 56064 56067 56070 56073 56076 56079 56082 56085 56088 56091 56094 56097 56100 56103 56106 56109 56112 56115 56118 56121 56124 56127 56130 56133 56136 56139 56142 56145 56148 56151 56154 56157 56160 56163 56166 56169 56172 56175 56178 56181 56184 56187 56190 56193 56196 56199 56202 56205 56208 56211 56214 56217 56220 56223 56226 56229 56232 56235 56238 56241 56244 56247 56250 56253 56256 56259 56262 56265 56268 56271 56274 56277 56280 56283 56286 56289 56292 56295 56298 56301 56304 56307 56310 56313 56316 56319 56322 56325 56328 56331 56334 56337 56340 56343 56346 56349 56352 56355 56358 56361 56364 56367 56370 56373 56376 56379 56382 56385 56388 56391 56394 56397 56400 56403 56406 56409 56412 56415 56418 56421 56424 56427 56430 56433 56436 56439 56442 56445 56448 56451 56454 56457 56460 56463 56466 56469 56472 56475 56478 56481 56484 56487 56490 56493 56496 56499 56502 56505 56508 56511 56514 56517 56520 56523 56526 56529 56532 56535 56538 56541 56544 56547 56550 56553 56556 56559 56562 56565 56568 56571 56574 56577 56580 56583 56586 56589 56592 56595 56598 56601 56604 56607 56610 56613 56616 56619 56622 56625 56628 56631 56634 56637 56640 56643 56646 56649 56652 56655 56658 56661 56664 56667 56670 56673 56676 56679 56682 56685 56688 56691 56694 56697 56700 56703 56706 56709 56712 56715 56718 56721 56724 56727 56730 56733 56736 56739 56742 56745 56748 56751 56754 56757 56760 56763 56766 56769 56772 56775 56778 56781 56784 56787 56790 56793 56796 56799 56802 56805 56808 56811 56814 56817 56820 56823 56826 56829 56832 56835 56838 56841 56844 56847 56850 56853 56856 56859 56862 56865 56868 56871 56874 56877 56880 56883 56886 56889 56892 56895 56898 56901 56904 56907 56910 56913 56916 56919 56922 56925 56928 56931 56934 56937 56940 56943 56946 56949 56952 56955 56958 56961 56964 56967 56970 56973 56976 56979 56982 56985 56988 56991 56994 56997 57000 57003 57006 57009 57012 57015 57018 57021 57024 57027 57030 57033 57036 57039 57042 57045 57048 57051 57054 57057 57060 57063 57066 57069 57072 57075 57078 57081 57084 57087 57090 57093 57096 57099 57102 57105 57108 57111 57114 57117 57120 57123 57126 57129 57132 57135 57138 57141 57144 57147 57150 57153 57156 57159 57162 57165 57168 57171 57174 57177 57180 57183 57186 57189 57192 57195 57198 57201 57204 57207 57210 57213 57216 57219 57222 57225 57228 57231 57234 57237 57240 57243 57246 57249 57252 57255 57258 57261 57264 57267 57270 57273 57276 57279 57282 57285 57288 57291 57294 57297 57300 57303 57306 57309 57312 57315 57318 57321 57324 57327 57330 57333 57336 57339 57342 57345 57348 57351 57354 57357 57360 57363 57366 57369 57372 57375 57378 57381 57384 57387 57390 57393 57396 57399 57402 57405 57408 57411 57414 57417 57420 57423 57426 57429 57432 57435 57438 57441 57444 57447 57450 57453 57456 57459 57462 57465 57468 57471 57474 57477 57480 57483 57486 57489 57492 57495 57498 57501 57504 57507 57510 57513 57516 57519 57522 57525 57528 57531 57534 57537 57540 57543 57546 57549 57552 57555 57558 57561 57564 57567 57570 57573 57576 57579 57582 57585 57588 57591 57594 57597 57600 57603 57606 57609 57612 57615 57618 57621 57624 57627 57630 57633 57636 57639 57642 57645 57648 57651 57654 57657 57660 57663 57666 57669 57672 57675 57678 57681 57684 57687 57690 57693 57696 57699 57702 57705 57708 57711 57714 57717 57720 57723 57726 57729 57732 57735 57738 57741 57744 57747 57750 57753 57756 57759 57762 57765 57768 57771 57774 57777 57780 57783 57786 57789 57792 57795 57798 57801 57804 57807 57810 57813 57816 57819 57822 57825 57828 57831 57834 57837 57840 57843 57846 57849 57852 57855 57858 57861 57864 57867 57870 57873 57876 57879 57882 57885 57888 57891 57894 57897 57900 57903 57906 57909 57912 57915 57918 57921 57924 57927 57930 57933 57936 57939 57942 57945 57948 57951 57954 57957 57960 57963 57966 57969 57972 57975 57978 57981 57984 57987 57990 57993 57996 57999 58002 58005 58008 58011 58014 58017 58020 58023 58026 58029 58032 58035 58038 58041 58044 58047 58050 58053 58056 58059 58062 58065 58068 58071 58074 58077 58080 58083 58086 58089 58092 58095 58098 58101 58104 58107 58110 58113 58116 58119 58122 58125 58128 58131 58134 58137 58140 58143 58146 58149 58152 58155 58158 58161 58164 58167 58170 58173 58176 58179 58182 58185 58188 58191 58194 58197 58200 58203 58206 58209 58212 58215 58218 58221 58224 58227 58230 58233 58236 58239 58242 58245 58248 58251 58254 58257 58260 58263 58266 58269 58272 58275 58278 58281 58284 58287 58290 58293 58296 58299 58302 58305 58308 58311 58314 58317 58320 58323 58326 58329 58332 58335 58338 58341 58344 58347 58350 58353 58356 58359 58362 58365 58368 58371 58374 58377 58380 58383 58386 58389 58392 58395 58398 58401 58404 58407 58410 58413 58416 58419 58422 58425 58428 58431 58434 58437 58440 58443 58446 58449 58452 58455 58458 58461 58464 58467 58470 58473 58476 58479 58482 58485 58488 58491 58494 58497 58500 58503 58506 58509 58512 58515 58518 58521 58524 58527 58530 58533 58536 58539 58542 58545 58548 58551 58554 58557 58560 58563 58566 58569 58572 58575 58578 58581 58584 58587 58590 58593 58596 58599 58602 58605 58608 58611 58614 58617 58620 58623 58626 58629 58632 58635 58638 58641 58644 58647 58650 58653 58656 58659 58662 58665 58668 58671 58674 58677 58680 58683 58686 58689 58692 58695 58698 58701 58704 58707 58710 58713 58716 58719 58722 58725 58728 58731 58734 58737 58740 58743 58746 58749 58752 58755 58758 58761 58764 58767 58770 58773 58776 58779 58782 58785 58788 58791 58794 58797 58800 58803 58806 58809 58812 58815 58818 58821 58824 58827 58830 58833 58836 58839 58842 58845 58848 58851 58854 58857 58860 58863 58866 58869 58872 58875 58878 58881 58884 58887 58890 58893 58896 58899 58902 58905 58908 58911 58914 58917 58920 58923 58926 58929 58932 58935 58938 58941 58944 58947 58950 58953 58956 58959 58962 58965 58968 58971 58974 58977 58980 58983 58986 58989 58992 58995 58998 59001 59004 59007 59010 59013 59016 59019 59022 59025 59028 59031 59034 59037 59040 59043 59046 59049 59052 59055 59058 59061 59064 59067 59070 59073 59076 59079 59082 59085 59088 59091 59094 59097 59100 59103 59106 59109 59112 59115 59118 59121 59124 59127 59130 59133 59136 59139 59142 59145 59148 59151 59154 59157 59160 59163 59166 59169 59172 59175 59178 59181 59184 59187 59190 59193 59196 59199 59202 59205 59208 59211 59214 59217 59220 59223 59226 59229 59232 59235 59238 59241 59244 59247 59250 59253 59256 59259 59262 59265 59268 59271 59274 59277 59280 59283 59286 59289 59292 59295 59298 59301 59304 59307 59310 59313 59316 59319 59322 59325 59328 59331 59334 59337 59340 59343 59346 59349 59352 59355 59358 59361 59364 59367 59370 59373 59376 59379 59382 59385 59388 59391 59394 59397 59400 59403 59406 59409 59412 59415 59418 59421 59424 59427 59430 59433 59436 59439 59442 59445 59448 59451 59454 59457 59460 59463 59466 59469 59472 59475 59478 59481 59484 59487 59490 59493 59496 59499 59502 59505 59508 59511 59514 59517 59520 59523 59526 59529 59532 59535 59538 59541 59544 59547 59550 59553 59556 59559 59562 59565 59568 59571 59574 59577 59580 59583 59586 59589 59592 59595 59598 59601 59604 59607 59610 59613 59616 59619 59622 59625 59628 59631 59634 59637 59640 59643 59646 59649 59652 59655 59658 59661 59664 59667 59670 59673 59676 59679 59682 59685 59688 59691 59694 59697 59700 59703 59706 59709 59712 59715 59718 59721 59724 59727 59730 59733 59736 59739 59742 59745 59748 59751 59754 59757 59760 59763 59766 59769 59772 59775 59778 59781 59784 59787 59790 59793 59796 59799 59802 59805 59808 59811 59814 59817 59820 59823 59826 59829 59832 59835 59838 59841 59844 59847 59850 59853 59856 59859 59862 59865 59868 59871 59874 59877 59880 59883 59886 59889 59892 59895 59898 59901 59904 59907 59910 59913 59916 59919 59922 59925 59928 59931 59934 59937 59940 59943 59946 59949 59952 59955 59958 59961 59964 59967 59970 59973 59976 59979 59982 59985 59988 59991 59994 59997 60000 60003 60006 60009 60012 60015 60018 60021 60024 60027 60030 60033 60036 60039 60042 60045 60048 60051 60054 60057 60060 60063 60066 60069 60072 60075 60078 60081 60084 60087 60090 60093 60096 60099 60102 60105 60108 60111 60114 60117 60120 60123 60126 60129 60132 60135 60138 60141 60144 60147 60150 60153 60156 60159 60162 60165 60168 60171 60174 60177 60180 60183 60186 60189 60192 60195 60198 60201 60204 60207 60210 60213 60216 60219 60222 60225 60228 60231 60234 60237 60240 60243 60246 60249 60252 60255 60258 60261 60264 60267 60270 60273 60276 60279 60282 60285 60288 60291 60294 60297 60300 60303 60306 60309 60312 60315 60318 60321 60324 60327 60330 60333 60336 60339 60342 60345 60348 60351 60354 60357 60360 60363 60366 60369 60372 60375 60378 60381 60384 60387 60390 60393 60396 60399 60402 60405 60408 60411 60414 60417 60420 60423 60426 60429 60432 60435 60438 60441 60444 60447 60450 60453 60456 60459 60462 60465 60468 60471 60474 60477 60480 60483 60486 60489 60492 60495 60498 60501 60504 60507 60510 60513 60516 60519 60522 60525 60528 60531 60534 60537 60540 60543 60546 60549 60552 60555 60558 60561 60564 60567 60570 60573 60576 60579 60582 60585 60588 60591 60594 60597 60600 60603 60606 60609 60612 60615 60618 60621 60624 60627 60630 60633 60636 60639 60642 60645 60648 60651 60654 60657 60660 60663 60666 60669 60672 60675 60678 60681 60684 60687 60690 60693 60696 60699 60702 60705 60708 60711 60714 60717 60720 60723 60726 60729 60732 60735 60738 60741 60744 60747 60750 60753 60756 60759 60762 60765 60768 60771 60774 60777 60780 60783 60786 60789 60792 60795 60798 60801 60804 60807 60810 60813 60816 60819 60822 60825 60828 60831 60834 60837 60840 60843 60846 60849 60852 60855 60858 60861 60864 60867 60870 60873 60876 60879 60882 60885 60888 60891 60894 60897 60900 60903 60906 60909 60912 60915 60918 60921 60924 60927 60930 60933 60936 60939 60942 60945 60948 60951 60954 60957 60960 60963 60966 60969 60972 60975 60978 60981 60984 60987 60990 60993 60996 60999 61002 61005 61008 61011 61014 61017 61020 61023 61026 61029 61032 61035 61038 61041 61044 61047 61050 61053 61056 61059 61062 61065 61068 61071 61074 61077 61080 61083 61086 61089 61092 61095 61098 61101 61104 61107 61110 61113 61116 61119 61122 61125 61128 61131 61134 61137 61140 61143 61146 61149 61152 61155 61158 61161 61164 61167 61170 61173 61176 61179 61182 61185 61188 61191 61194 61197 61200 61203 61206 61209 61212 61215 61218 61221 61224 61227 61230 61233 61236 61239 61242 61245 61248 61251 61254 61257 61260 61263 61266 61269 61272 61275 61278 61281 61284 61287 61290 61293 61296 61299 61302 61305 61308 61311 61314 61317 61320 61323 61326 61329 61332 61335 61338 61341 61344 61347 61350 61353 61356 61359 61362 61365 61368 61371 61374 61377 61380 61383 61386 61389 61392 61395 61398 61401 61404 61407 61410 61413 61416 61419 61422 61425 61428 61431 61434 61437 61440 61443 61446 61449 61452 61455 61458 61461 61464 61467 61470 61473 61476 61479 61482 61485 61488 61491 61494 61497 61500 61503 61506 61509 61512 61515 61518 61521 61524 61527 61530 61533 61536 61539 61542 61545 61548 61551 61554 61557 61560 61563 61566 61569 61572 61575 61578 61581 61584 61587 61590 61593 61596 61599 61602 61605 61608 61611 61614 61617 61620 61623 61626 61629 61632 61635 61638 61641 61644 61647 61650 61653 61656 61659 61662 61665 61668 61671 61674 61677 61680 61683 61686 61689 61692 61695 61698 61701 61704 61707 61710 61713 61716 61719 61722 61725 61728 61731 61734 61737 61740 61743 61746 61749 61752 61755 61758 61761 61764 61767 61770 61773 61776 61779 61782 61785 61788 61791 61794 61797 61800 61803 61806 61809 61812 61815 61818 61821 61824 61827 61830 61833 61836 61839 61842 61845 61848 61851 61854 61857 61860 61863 61866 61869 61872 61875 61878 61881 61884 61887 61890 61893 61896 61899 61902 61905 61908 61911 61914 61917 61920 61923 61926 61929 61932 61935 61938 61941 61944 61947 61950 61953 61956 61959 61962 61965 61968 61971 61974 61977 61980 61983 61986 61989 61992 61995 61998 62001 62004 62007 62010 62013 62016 62019 62022 62025 62028 62031 62034 62037 62040 62043 62046 62049 62052 62055 62058 62061 62064 62067 62070 62073 62076 62079 62082 62085 62088 62091 62094 62097 62100 62103 62106 62109 62112 62115 62118 62121 62124 62127 62130 62133 62136 62139 62142 62145 62148 62151 62154 62157 62160 62163 62166 62169 62172 62175 62178 62181 62184 62187 62190 62193 62196 62199 62202 62205 62208 62211 62214 62217 62220 62223 62226 62229 62232 62235 62238 62241 62244 62247 62250 62253 62256 62259 62262 62265 62268 62271 62274 62277 62280 62283 62286 62289 62292 62295 62298 62301 62304 62307 62310 62313 62316 62319 62322 62325 62328 62331 62334 62337 62340 62343 62346 62349 62352 62355 62358 62361 62364 62367 62370 62373 62376 62379 62382 62385 62388 62391 62394 62397 62400 62403 62406 62409 62412 62415 62418 62421 62424 62427 62430 62433 62436 62439 62442 62445 62448 62451 62454 62457 62460 62463 62466 62469 62472 62475 62478 62481 62484 62487 62490 62493 62496 62499 62502 62505 62508 62511 62514 62517 62520 62523 62526 62529 62532 62535 62538 62541 62544 62547 62550 62553 62556 62559 62562 62565 62568 62571 62574 62577 62580 62583 62586 62589 62592 62595 62598 62601 62604 62607 62610 62613 62616 62619 62622 62625 62628 62631 62634 62637 62640 62643 62646 62649 62652 62655 62658 62661 62664 62667 62670 62673 62676 62679 62682 62685 62688 62691 62694 62697 62700 62703 62706 62709 62712 62715 62718 62721 62724 62727 62730 62733 62736 62739 62742 62745 62748 62751 62754 62757 62760 62763 62766 62769 62772 62775 62778 62781 62784 62787 62790 62793 62796 62799 62802 62805 62808 62811 62814 62817 62820 62823 62826 62829 62832 62835 62838 62841 62844 62847 62850 62853 62856 62859 62862 62865 62868 62871 62874 62877 62880 62883 62886 62889 62892 62895 62898 62901 62904 62907 62910 62913 62916 62919 62922 62925 62928 62931 62934 62937 62940 62943 62946 62949 62952 62955 62958 62961 62964 62967 62970 62973 62976 62979 62982 62985 62988 62991 62994 62997 63000 63003 63006 63009 63012 63015 63018 63021 63024 63027 63030 63033 63036 63039 63042 63045 63048 63051 63054 63057 63060 63063 63066 63069 63072 63075 63078 63081 63084 63087 63090 63093 63096 63099 63102 63105 63108 63111 63114 63117 63120 63123 63126 63129 63132 63135 63138 63141 63144 63147 63150 63153 63156 63159 63162 63165 63168 63171 63174 63177 63180 63183 63186 63189 63192 63195 63198 63201 63204 63207 63210 63213 63216 63219 63222 63225 63228 63231 63234 63237 63240 63243 63246 63249 63252 63255 63258 63261 63264 63267 63270 63273 63276 63279 63282 63285 63288 63291 63294 63297 63300 63303 63306 63309 63312 63315 63318 63321 63324 63327 63330 63333 63336 63339 63342 63345 63348 63351 63354 63357 63360 63363 63366 63369 63372 63375 63378 63381 63384 63387 63390 63393 63396 63399 63402 63405 63408 63411 63414 63417 63420 63423 63426 63429 63432 63435 63438 63441 63444 63447 63450 63453 63456 63459 63462 63465 63468 63471 63474 63477 63480 </DataArray>
<DataArray  type="UInt8"  Name="types"  format="ascii">5 5 5 5 5 5 5 5 5 5 5 5 5 5 5 5 5 5 5 5 5 5 5 5 5 5 5 5 5 5 5 5 5 5 5 5 5 5 5 5 5 5 5 5 5 5 5 5 5 5 5 5 5 5 5 5 5 5 5 5 5 5 5 5 5 5 5 5 5 5 5 5 5 5 5 5 5 5 5 5 5 5 5 5 5 5 5 5 5 5 5 5 5 5 5 5 5 5 5 5 5 5 5 5 5 5 5 5 5 5 5 5 5 5 5 5 5 5 5 5 5 5 5 5 5 5 5 5 5 5 5 5 5 5 5 5 5 5 5 5 5 5 5 5 5 5 5 5 5 5 5 5 5 5 5 5 5 5 5 5 5 5 5 5 5 5 5 5 5 5 5 5 5 5 5 5 5 5 5 5 5 5 5 5 5 5 5 5 5 5 5 5 5 5 5 5 5 5 5 5 5 5 5 5 5 5 5 5 5 5 5 5 5 5 5 5 5 5 5 5 5 5 5 5 5 5 5 5 5 5 5 5 5 5 5 5 5 5 5 5 5 5 5 5 5 5 5 5 5 5 5 5 5 5 5 5 5 5 5 5 5 5 5 5 5 5 5 5 5 5 5 5 5 5 5 5 5 5 5 5 5 5 5 5 5 5 5 5 5 5 5 5 5 5 5 5 5 5 5 5 5 5 5 5 5 5 5 5 5 5 5 5 5 5 5 5 5 5 5 5 5 5 5 5 5 5 5 5 5 5 5 5 5 5 5 5 5 5 5 5 5 5 5 5 5 5 5 5 5 5 5 5 5 5 5 5 5 5 5 5 5 5 5 5 5 5 5 5 5 5 5 5 5 5 5 5 5 5 5 5 5 5 5 5 5 5 5 5 5 5 5 5 5 5 5 5 5 5 5 5 5 5 5 5 5 5 5 5 5 5 5 5 5 5 5 5 5 5 5 5 5 5 5 5 5 5 5 5 5 5 5 5 5 5 5 5 5 5 5 5 5 5 5 5 5 5 5 5 5 5 5 5 5 5 5 5 5 5 5 5 5 5 5 5 5 5 5 5 5 5 5 5 5 5 5 5 5 5 5 5 5 5 5 5 5 5 5 5 5 5 5 5 5 5 5 5 5 5 5 5 5 5 5 5 5 5 5 5 5 5 5 5 5 5 5 5 5 5 5 5 5 5 5 5 5 5 5 5 5 5 5 5 5 5 5 5 5 5 5 5 5 5 5 5 5 5 5 5 5 5 5 5 5 5 5 5 5 5 5 5 5 5 5 5 5 5 5 5 5 5 5 5 5 5 5 5 5 5 5 5 5 5 5 5 5 5 5 5 5 5 5 5 5 5 5 5 5 5 5 5 5 5 5 5 5 5 5 5 5 5 5 5 5 5 5 5 5 5 5 5 5 5 5 5 5 5 5 5 5 5 5 5 5 5 5 5 5 5 5 5 5 5 5 5 5 5 5 5 5 5 5 5 5 5 5 5 5 5 5 5 5 5 5 5 5 5 5 5 5 5 5 5 5 5 5 5 5 5 5 5 5 5 5 5 5 5 5 5 5 5 5 5 5 5 5 5 5 5 5 5 5 5 5 5 5 5 5 5 5 5 5 5 5 5 5 5 5 5 5 5 5 5 5 5 5 5 5 5 5 5 5 5 5 5 5 5 5 5 5 5 5 5 5 5 5 5 5 5 5 5 5 5 5 5 5 5 5 5 5 5 5 5 5 5 5 5 5 5 5 5 5 5 5 5 5 5 5 5 5 5 5 5 5 5 5 5 5 5 5 5 5 5 5 5 5 5 5 5 5 5 5 5 5 5 5 5 5 5 5 5 5 5 5 5 5 5 5 5 5 5 5 5 5 5 5 5 5 5 5 5 5 5 5 5 5 5 5 5 5 5 5 5 5 5 5 5 5 5 5 5 5 5 5 5 5 5 5 5 5 5 5 5 5 5 5 5 5 5 5 5 5 5 5 5 5 5 5 5 5 5 5 5 5 5 5 5 5 5 5 5 5 5 5 5 5 5 5 5 5 5 5 5 5 5 5 5 5 5 5 5 5 5 5 5 5 5 5 5 5 5 5 5 5 5 5 5 5 5 5 5 5 5 5 5 5 5 5 5 5 5 5 5 5 5 5 5 5 5 5 5 5 5 5 5 5 5 5 5 5 5 5 5 5 5 5 5 5 5 5 5 5 5 5 5 5 5 5 5 5 5 5 5 5 5 5 5 5 5 5 5 5 5 5 5 5 5 5 5 5 5 5 5 5 5 5 5 5 5 5 5 5 5 5 5 5 5 5 5 5 5 5 5 5 5 5 5 5 5 5 5 5 5 5 5 5 5 5 5 5 5 5 5 5 5 5 5 5 5 5 5 5 5 5 5 5 5 5 5 5 5 5 5 5 5 5 5 5 5 5 5 5 5 5 5 5 5 5 5 5 5 5 5 5 5 5 5 5 5 5 5 5 5 5 5 5 5 5 5 5 5 5 5 5 5 5 5 5 5 5 5 5 5 5 5 5 5 5 5 5 5 5 5 5 5 5 5 5 5 5 5 5 5 5 5 5 5 5 5 5 5 5 5 5 5 5 5 5 5 5 5 5 5 5 5 5 5 5 5 5 5 5 5 5 5 5 5 5 5 5 5 5 5 5 5 5 5 5 5 5 5 5 5 5 5 5 5 5 5 5 5 5 5 5 5 5 5 5 5 5 5 5 5 5 5 5 5 5 5 5 5 5 5 5 5 5 5 5 5 5 5 5 5 5 5 5 5 5 5 5 5 5 5 5 5 5 5 5 5 5 5 5 5 5 5 5 5 5 5 5 5 5 5 5 5 5 5 5 5 5 5 5 5 5 5 5 5 5 5 5 5 5 5 5 5 5 5 5 5 5 5 5 5 5 5 5 5 5 5 5 5 5 5 5 5 5 5 5 5 5 5 5 5 5 5 5 5 5 5 5 5 5 5 5 5 5 5 5 5 5 5 5 5 5 5 5 5 5 5 5 5 5 5 5 5 5 5 5 5 5 5 5 5 5 5 5 5 5 5 5 5 5 5 5 5 5 5 5 5 5 5 5 5 5 5 5 5 5 5 5 5 5 5 5 5 5 5 5 5 5 5 5 5 5 5 5 5 5 5 5 5 5 5 5 5 5 5 5 5 5 5 5 5 5 5 5 5 5 5 5 5 5 5 5 5 5 5 5 5 5 5 5 5 5 5 5 5 5 5 5 5 5 5 5 5 5 5 5 5 5 5 5 5 5 5 5 5 5 5 5 5 5 5 5 5 5 5 5 5 5 5 5 5 5 5 5 5 5 5 5 5 5 5 5 5 5 5 5 5 5 5 5 5 5 5 5 5 5 5 5 5 5 5 5 5 5 5 5 5 5 5 5 5 5 5 5 5 5 5 5 5 5 5 5 5 5 5 5 5 5 5 5 5 5 5 5 5 5 5 5 5 5 5 5 5 5 5 5 5 5 5 5 5 5 5 5 5 5 5 5 5 5 5 5 5 5 5 5 5 5 5 5 5 5 5 5 5 5 5 5 5 5 5 5 5 5 5 5 5 5 5 5 5 5 5 5 5 5 5 5 5 5 5 5 5 5 5 5 5 5 5 5 5 5 5 5 5 5 5 5 5 5 5 5 5 5 5 5 5 5 5 5 5 5 5 5 5 5 5 5 5 5 5 5 5 5 5 5 5 5 5 5 5 5 5 5 5 5 5 5 5 5 5 5 5 5 5 5 5 5 5 5 5 5 5 5 5 5 5 5 5 5 5 5 5 5 5 5 5 5 5 5 5 5 5 5 5 5 5 5 5 5 5 5 5 5 5 5 5 5 5 5 5 5 5 5 5 5 5 5 5 5 5 5 5 5 5 5 5 5 5 5 5 5 5 5 5 5 5 5 5 5 5 5 5 5 5 5 5 5 5 5 5 5 5 5 5 5 5 5 5 5 5 5 5 5 5 5 5 5 5 5 5 5 5 5 5 5 5 5 5 5 5 5 5 5 5 5 5 5 5 5 5 5 5 5 5 5 5 5 5 5 5 5 5 5 5 5 5 5 5 5 5 5 5 5 5 5 5 5 5 5 5 5 5 5 5 5 5 5 5 5 5 5 5 5 5 5 5 5 5 5 5 5 5 5 5 5 5 5 5 5 5 5 5 5 5 5 5 5 5 5 5 5 5 5 5 5 5 5 5 5 5 5 5 5 5 5 5 5 5 5 5 5 5 5 5 5 5 5 5 5 5 5 5 5 5 5 5 5 5 5 5 5 5 5 5 5 5 5 5 5 5 5 5 5 5 5 5 5 5 5 5 5 5 5 5 5 5 5 5 5 5 5 5 5 5 5 5 5 5 5 5 5 5 5 5 5 5 5 5 5 5 5 5 5 5 5 5 5 5 5 5 5 5 5 5 5 5 5 5 5 5 5 5 5 5 5 5 5 5 5 5 5 5 5 5 5 5 5 5 5 5 5 5 5 5 5 5 5 5 5 5 5 5 5 5 5 5 5 5 5 5 5 5 5 5 5 5 5 5 5 5 5 5 5 5 5 5 5 5 5 5 5 5 5 5 5 5 5 5 5 5 5 5 5 5 5 5 5 5 5 5 5 5 5 5 5 5 5 5 5 5 5 5 5 5 5 5 5 5 5 5 5 5 5 5 5 5 5 5 5 5 5 5 5 5 5 5 5 5 5 5 5 5 5 5 5 5 5 5 5 5 5 5 5 5 5 5 5 5 5 5 5 5 5 5 5 5 5 5 5 5 5 5 5 5 5 5 5 5 5 5 5 5 5 5 5 5 5 5 5 5 5 5 5 5 5 5 5 5 5 5 5 5 5 5 5 5 5 5 5 5 5 5 5 5 5 5 5 5 5 5 5 5 5 5 5 5 5 5 5 5 5 5 5 5 5 5 5 5 5 5 5 5 5 5 5 5 5 5 5 5 5 5 5 5 5 5 5 5 5 5 5 5 5 5 5 5 5 5 5 5 5 5 5 5 5 5 5 5 5 5 5 5 5 5 5 5 5 5 5 5 5 5 5 5 5 5 5 5 5 5 5 5 5 5 5 5 5 5 5 5 5 5 5 5 5 5 5 5 5 5 5 5 5 5 5 5 5 5 5 5 5 5 5 5 5 5 5 5 5 5 5 5 5 5 5 5 5 5 5 5 5 5 5 5 5 5 5 5 5 5 5 5 5 5 5 5 5 5 5 5 5 5 5 5 5 5 5 5 5 5 5 5 5 5 5 5 5 5 5 5 5 5 5 5 5 5 5 5 5 5 5 5 5 5 5 5 5 5 5 5 5 5 5 5 5 5 5 5 5 5 5 5 5 5 5 5 5 5 5 5 5 5 5 5 5 5 5 5 5 5 5 5 5 5 5 5 5 5 5 5 5 5 5 5 5 5 5 5 5 5 5 5 5 5 5 5 5 5 5 5 5 5 5 5 5 5 5 5 5 5 5 5 5 5 5 5 5 5 5 5 5 5 5 5 5 5 5 5 5 5 5 5 5 5 5 5 5 5 5 5 5 5 5 5 5 5 5 5 5 5 5 5 5 5 5 5 5 5 5 5 5 5 5 5 5 5 5 5 5 5 5 5 5 5 5 5 5 5 5 5 5 5 5 5 5 5 5 5 5 5 5 5 5 5 5 5 5 5 5 5 5 5 5 5 5 5 5 5 5 5 5 5 5 5 5 5 5 5 5 5 5 5 5 5 5 5 5 5 5 5 5 5 5 5 5 5 5 5 5 5 5 5 5 5 5 5 5 5 5 5 5 5 5 5 5 5 5 5 5 5 5 5 5 5 5 5 5 5 5 5 5 5 5 5 5 5 5 5 5 5 5 5 5 5 5 5 5 5 5 5 5 5 5 5 5 5 5 5 5 5 5 5 5 5 5 5 5 5 5 5 5 5 5 5 5 5 5 5 5 5 5 5 5 5 5 5 5 5 5 5 5 5 5 5 5 5 5 5 5 5 5 5 5 5 5 5 5 5 5 5 5 5 5 5 5 5 5 5 5 5 5 5 5 5 5 5 5 5 5 5 5 5 5 5 5 5 5 5 5 5 5 5 5 5 5 5 5 5 5 5 5 5 5 5 5 5 5 5 5 5 5 5 5 5 5 5 5 5 5 5 5 5 5 5 5 5 5 5 5 5 5 5 5 5 5 5 5 5 5 5 5 5 5 5 5 5 5 5 5 5 5 5 5 5 5 5 5 5 5 5 5 5 5 5 5 5 5 5 5 5 5 5 5 5 5 5 5 5 5 5 5 5 5 5 5 5 5 5 5 5 5 5 5 5 5 5 5 5 5 5 5 5 5 5 5 5 5 5 5 5 5 5 5 5 5 5 5 5 5 5 5 5 5 5 5 5 5 5 5 5 5 5 5 5 5 5 5 5 5 5 5 5 5 5 5 5 5 5 5 5 5 5 5 5 5 5 5 5 5 5 5 5 5 5 5 5 5 5 5 5 5 5 5 5 5 5 5 5 5 5 5 5 5 5 5 5 5 5 5 5 5 5 5 5 5 5 5 5 5 5 5 5 5 5 5 5 5 5 5 5 5 5 5 5 5 5 5 5 5 5 5 5 5 5 5 5 5 5 5 5 5 5 5 5 5 5 5 5 5 5 5 5 5 5 5 5 5 5 5 5 5 5 5 5 5 5 5 5 5 5 5 5 5 5 5 5 5 5 5 5 5 5 5 5 5 5 5 5 5 5 5 5 5 5 5 5 5 5 5 5 5 5 5 5 5 5 5 5 5 5 5 5 5 5 5 5 5 5 5 5 5 5 5 5 5 5 5 5 5 5 5 5 5 5 5 5 5 5 5 5 5 5 5 5 5 5 5 5 5 5 5 5 5 5 5 5 5 5 5 5 5 5 5 5 5 5 5 5 5 5 5 5 5 5 5 5 5 5 5 5 5 5 5 5 5 5 5 5 5 5 5 5 5 5 5 5 5 5 5 5 5 5 5 5 5 5 5 5 5 5 5 5 5 5 5 5 5 5 5 5 5 5 5 5 5 5 5 5 5 5 5 5 5 5 5 5 5 5 5 5 5 5 5 5 5 5 5 5 5 5 5 5 5 5 5 5 5 5 5 5 5 5 5 5 5 5 5 5 5 5 5 5 5 5 5 5 5 5 5 5 5 5 5 5 5 5 5 5 5 5 5 5 5 5 5 5 5 5 5 5 5 5 5 5 5 5 5 5 5 5 5 5 5 5 5 5 5 5 5 5 5 5 5 5 5 5 5 5 5 5 5 5 5 5 5 5 5 5 5 5 5 5 5 5 5 5 5 5 5 5 5 5 5 5 5 5 5 5 5 5 5 5 5 5 5 5 5 5 5 5 5 5 5 5 5 5 5 5 5 5 5 5 5 5 5 5 5 5 5 5 5 5 5 5 5 5 5 5 5 5 5 5 5 5 5 5 5 5 5 5 5 5 5 5 5 5 5 5 5 5 5 5 5 5 5 5 5 5 5 5 5 5 5 5 5 5 5 5 5 5 5 5 5 5 5 5 5 5 5 5 5 5 5 5 5 5 5 5 5 5 5 5 5 5 5 5 5 5 5 5 5 5 5 5 5 5 5 5 5 5 5 5 5 5 5 5 5 5 5 5 5 5 5 5 5 5 5 5 5 5 5 5 5 5 5 5 5 5 5 5 5 5 5 5 5 5 5 5 5 5 5 5 5 5 5 5 5 5 5 5 5 5 5 5 5 5 5 5 5 5 5 5 5 5 5 5 5 5 5 5 5 5 5 5 5 5 5 5 5 5 5 5 5 5 5 5 5 5 5 5 5 5 5 5 5 5 5 5 5 5 5 5 5 5 5 5 5 5 5 5 5 5 5 5 5 5 5 5 5 5 5 5 5 5 5 5 5 5 5 5 5 5 5 5 5 5 5 5 5 5 5 5 5 5 5 5 5 5 5 5 5 5 5 5 5 5 5 5 5 5 5 5 5 5 5 5 5 5 5 5 5 5 5 5 5 5 5 5 5 5 5 5 5 5 5 5 5 5 5 5 5 5 5 5 5 5 5 5 5 5 5 5 5 5 5 5 5 5 5 5 5 5 5 5 5 5 5 5 5 5 5 5 5 5 5 5 5 5 5 5 5 5 5 5 5 5 5 5 5 5 5 5 5 5 5 5 5 5 5 5 5 5 5 5 5 5 5 5 5 5 5 5 5 5 5 5 5 5 5 5 5 5 5 5 5 5 5 5 5 5 5 5 5 5 5 5 5 5 5 5 5 5 5 5 5 5 5 5 5 5 5 5 5 5 5 5 5 5 5 5 5 5 5 5 5 5 5 5 5 5 5 5 5 5 5 5 5 5 5 5 5 5 5 5 5 5 5 5 5 5 5 5 5 5 5 5 5 5 5 5 5 5 5 5 5 5 5 5 5 5 5 5 5 5 5 5 5 5 5 5 5 5 5 5 5 5 5 5 5 5 5 5 5 5 5 5 5 5 5 5 5 5 5 5 5 5 5 5 5 5 5 5 5 5 5 5 5 5 5 5 5 5 5 5 5 5 5 5 5 5 5 5 5 5 5 5 5 5 5 5 5 5 5 5 5 5 5 5 5 5 5 5 5 5 5 5 5 5 5 5 5 5 5 5 5 5 5 5 5 5 5 5 5 5 5 5 5 5 5 5 5 5 5 5 5 5 5 5 5 5 5 5 5 5 5 5 5 5 5 5 5 5 5 5 5 5 5 5 5 5 5 5 5 5 5 5 5 5 5 5 5 5 5 5 5 5 5 5 5 5 5 5 5 5 5 5 5 5 5 5 5 5 5 5 5 5 5 5 5 5 5 5 5 5 5 5 5 5 5 5 5 5 5 5 5 5 5 5 5 5 5 5 5 5 5 5 5 5 5 5 5 5 5 5 5 5 5 5 5 5 5 5 5 5 5 5 5 5 5 5 5 5 5 5 5 5 5 5 5 5 5 5 5 5 5 5 5 5 5 5 5 5 5 5 5 5 5 5 5 5 5 5 5 5 5 5 5 5 5 5 5 5 5 5 5 5 5 5 5 5 5 5 5 5 5 5 5 5 5 5 5 5 5 5 5 5 5 5 5 5 5 5 5 5 5 5 5 5 5 5 5 5 5 5 5 5 5 5 5 5 5 5 5 5 5 5 5 5 5 5 5 5 5 5 5 5 5 5 5 5 5 5 5 5 5 5 5 5 5 5 5 5 5 5 5 5 5 5 5 5 5 5 5 5 5 5 5 5 5 5 5 5 5 5 5 5 5 5 5 5 5 5 5 5 5 5 5 5 5 5 5 5 5 5 5 5 5 5 5 5 5 5 5 5 5 5 5 5 5 5 5 5 5 5 5 5 5 5 5 5 5 5 5 5 5 5 5 5 5 5 5 5 5 5 5 5 5 5 5 5 5 5 5 5 5 5 5 5 5 5 5 5 5 5 5 5 5 5 5 5 5 5 5 5 5 5 5 5 5 5 5 5 5 5 5 5 5 5 5 5 5 5 5 5 5 5 5 5 5 5 5 5 5 5 5 5 5 5 5 5 5 5 5 5 5 5 5 5 5 5 5 5 5 5 5 5 5 5 5 5 5 5 5 5 5 5 5 5 5 5 5 5 5 5 5 5 5 5 5 5 5 5 5 5 5 5 5 5 5 5 5 5 5 5 5 5 5 5 5 5 5 5 5 5 5 5 5 5 5 5 5 5 5 5 5 5 5 5 5 5 5 5 5 5 5 5 5 5 5 5 5 5 5 5 5 5 5 5 5 5 5 5 5 5 5 5 5 5 5 5 5 5 5 5 5 5 5 5 5 5 5 5 5 5 5 5 5 5 5 5 5 5 5 5 5 5 5 5 5 5 5 5 5 5 5 5 5 5 5 5 5 5 5 5 5 5 5 5 5 5 5 5 5 5 5 5 5 5 5 5 5 5 5 5 5 5 5 5 5 5 5 5 5 5 5 5 5 5 5 5 5 5 5 5 5 5 5 5 5 5 5 5 5 5 5 5 5 5 5 5 5 5 5 5 5 5 5 5 5 5 5 5 5 5 5 5 5 5 5 5 5 5 5 5 5 5 5 5 5 5 5 5 5 5 5 5 5 5 5 5 5 5 5 5 5 5 5 5 5 5 5 5 5 5 5 5 5 5 5 5 5 5 5 5 5 5 5 5 5 5 5 5 5 5 5 5 5 5 5 5 5 5 5 5 5 5 5 5 5 5 5 5 5 5 5 5 5 5 5 5 5 5 5 5 5 5 5 5 5 5 5 5 5 5 5 5 5 5 5 5 5 5 5 5 5 5 5 5 5 5 5 5 5 5 5 5 5 5 5 5 5 5 5 5 5 5 5 5 5 5 5 5 5 5 5 5 5 5 5 5 5 5 5 5 5 5 5 5 5 5 5 5 5 5 5 5 5 5 5 5 5 5 5 5 5 5 5 5 5 5 5 5 5 5 5 5 5 5 5 5 5 5 5 5 5 5 5 5 5 5 5 5 5 5 5 5 5 5 5 5 5 5 5 5 5 5 5 5 5 5 5 5 5 5 5 5 5 5 5 5 5 5 5 5 5 5 5 5 5 5 5 5 5 5 5 5 5 5 5 5 5 5 5 5 5 5 5 5 5 5 5 5 5 5 5 5 5 5 5 5 5 5 5 5 5 5 5 5 5 5 5 5 5 5 5 5 5 5 5 5 5 5 5 5 5 5 5 5 5 5 5 5 5 5 5 5 5 5 5 5 5 5 5 5 5 5 5 5 5 5 5 5 5 5 5 5 5 5 5 5 5 5 5 5 5 5 5 5 5 5 5 5 5 5 5 5 5 5 5 5 5 5 5 5 5 5 5 5 5 5 5 5 5 5 5 5 5 5 5 5 5 5 5 5 5 5 5 5 5 5 5 5 5 5 5 5 5 5 5 5 5 5 5 5 5 5 5 5 5 5 5 5 5 5 5 5 5 5 5 5 5 5 5 5 5 5 5 5 5 5 5 5 5 5 5 5 5 5 5 5 5 5 5 5 5 5 5 5 5 5 5 5 5 5 5 5 5 5 5 5 5 5 5 5 5 5 5 5 5 5 5 5 5 5 5 5 5 5 5 5 5 5 5 5 5 5 5 5 5 5 5 5 5 5 5 5 5 5 5 5 5 5 5 5 5 5 5 5 5 5 5 5 5 5 5 5 5 5 5 5 5 5 5 5 5 5 5 5 5 5 5 5 5 5 5 5 5 5 5 5 5 5 5 5 5 5 5 5 5 5 5 5 5 5 5 5 5 5 5 5 5 5 5 5 5 5 5 5 5 5 5 5 5 5 5 5 5 5 5 5 5 5 5 5 5 5 5 5 5 5 5 5 5 5 5 5 5 5 5 5 5 5 5 5 5 5 5 5 5 5 5 5 5 5 5 5 5 5 5 5 5 5 5 5 5 5 5 5 5 5 5 5 5 5 5 5 5 5 5 5 5 5 5 5 5 5 5 5 5 5 5 5 5 5 5 5 5 5 5 5 5 5 5 5 5 5 5 5 5 5 5 5 5 5 5 5 5 5 5 5 5 5 5 5 5 5 5 5 5 5 5 5 5 5 5 5 5 5 5 5 5 5 5 5 5 5 5 5 5 5 5 5 5 5 5 5 5 5 5 5 5 5 5 5 5 5 5 5 5 5 5 5 5 5 5 5 5 5 5 5 5 5 5 5 5 5 5 5 5 5 5 5 5 5 5 5 5 5 5 5 5 5 5 5 5 5 5 5 5 5 5 5 5 5 5 5 5 5 5 5 5 5 5 5 5 5 5 5 5 5 5 5 5 5 5 5 5 5 5 5 5 5 5 5 5 5 5 5 5 5 5 5 5 5 5 5 5 5 5 5 5 5 5 5 5 5 5 5 5 5 5 5 5 5 5 5 5 5 5 5 5 5 5 5 5 5 5 5 5 5 5 5 5 5 5 5 5 5 5 5 5 5 5 5 5 5 5 5 5 5 5 5 5 5 5 5 5 5 5 5 5 5 5 5 5 5 5 5 5 5 5 5 5 5 5 5 5 5 5 5 5 5 5 5 5 5 5 5 5 5 5 5 5 5 5 5 5 5 5 5 5 5 5 5 5 5 5 5 5 5 5 5 5 5 5 5 5 5 5 5 5 5 5 5 5 5 5 5 5 5 5 5 5 5 5 5 5 5 5 5 5 5 5 5 5 5 5 5 5 5 5 5 5 5 5 5 5 5 5 5 5 5 5 5 5 5 5 5 5 5 5 5 5 5 5 5 5 5 5 5 5 5 5 5 5 5 5 5 5 5 5 5 5 5 5 5 5 5 5 5 5 5 5 5 5 5 5 5 5 5 5 5 5 5 5 5 5 5 5 5 5 5 5 5 5 5 5 5 5 5 5 5 5 5 5 5 5 5 5 5 5 5 5 5 5 5 5 5 5 5 5 5 5 5 5 5 5 5 5 5 5 5 5 5 5 5 5 5 5 5 5 5 5 5 5 5 5 5 5 5 5 5 5 5 5 5 5 5 5 5 5 5 5 5 5 5 5 5 5 5 5 5 5 5 5 5 5 5 5 5 5 5 5 5 5 5 5 5 5 5 5 5 5 5 5 5 5 5 5 5 5 5 5 5 5 5 5 5 5 5 5 5 5 5 5 5 5 5 5 5 5 5 5 5 5 5 5 5 5 5 5 5 5 5 5 5 5 5 5 5 5 5 5 5 5 5 5 5 5 5 5 5 5 5 5 5 5 5 5 5 5 5 5 5 5 5 5 5 5 5 5 5 5 5 5 5 5 5 5 5 5 5 5 5 5 5 5 5 5 5 5 5 5 5 5 5 5 5 5 5 5 5 5 5 5 5 5 5 5 5 5 5 5 5 5 5 5 5 5 5 5 5 5 5 5 5 5 5 5 5 5 5 5 5 5 5 5 5 5 5 5 5 5 5 5 5 5 5 5 5 5 5 5 5 5 5 5 5 5 5 5 5 5 5 5 5 5 5 5 5 5 5 5 5 5 5 5 5 5 5 5 5 5 5 5 5 5 5 5 5 5 5 5 5 5 5 5 5 5 5 5 5 5 5 5 5 5 5 5 5 5 5 5 5 5 5 5 5 5 5 5 5 5 5 5 5 5 5 5 5 5 5 5 5 5 5 5 5 5 5 5 5 5 5 5 5 5 5 5 5 5 5 5 5 5 5 5 5 5 5 5 5 5 5 5 5 5 5 5 5 5 5 5 5 5 5 5 5 5 5 5 5 5 5 5 5 5 5 5 5 5 5 5 5 5 5 5 5 5 5 5 5 5 5 5 5 5 5 5 5 5 5 5 5 5 5 5 5 5 5 5 5 5 5 5 5 5 5 5 5 5 5 5 5 5 5 5 5 5 5 5 5 5 5 5 5 5 5 5 5 5 5 5 5 5 5 5 5 5 5 5 5 5 5 5 5 5 5 5 5 5 5 5 5 5 5 5 5 5 5 5 5 5 5 5 5 5 5 5 5 5 5 5 5 5 5 5 5 5 5 5 5 5 5 5 5 5 5 5 5 5 5 5 5 5 5 5 5 5 5 5 5 5 5 5 5 5 5 5 5 5 5 5 5 5 5 5 5 5 5 5 5 5 5 5 5 5 5 5 5 5 5 5 5 5 5 5 5 5 5 5 5 5 5 5 5 5 5 5 5 5 5 5 5 5 5 5 5 5 5 5 5 5 5 5 5 5 5 5 5 5 5 5 5 5 5 5 5 5 5 5 5 5 5 5 5 5 5 5 5 5 5 5 5 5 5 5 5 5 5 5 5 5 5 5 5 5 5 5 5 5 5 5 5 5 5 5 5 5 5 5 5 5 5 5 5 5 5 5 5 5 5 5 5 5 5 5 5 5 5 5 5 5 5 5 5 5 5 5 5 5 5 5 5 5 5 5 5 5 5 5 5 5 5 5 5 5 5 5 5 5 5 5 5 5 5 5 5 5 5 5 5 5 5 5 5 5 5 5 5 5 5 5 5 5 5 5 5 5 5 5 5 5 5 5 5 5 5 5 5 5 5 5 5 5 5 5 5 5 5 5 5 5 5 5 5 5 5 5 5 5 5 5 5 5 5 5 5 5 5 5 5 5 5 5 5 5 5 5 5 5 5 5 5 5 5 5 5 5 5 5 5 5 5 5 5 5 5 5 5 5 5 5 5 5 5 5 5 5 5 5 5 5 5 5 5 5 5 5 5 5 5 5 5 5 5 5 5 5 5 5 5 5 5 5 5 5 5 5 5 5 5 5 5 5 5 5 5 5 5 5 5 5 5 5 5 5 5 5 5 5 5 5 5 5 5 5 5 5 5 5 5 5 5 5 5 5 5 5 5 5 5 5 5 5 5 5 5 5 5 5 5 5 5 5 5 5 5 5 5 5 5 5 5 5 5 5 5 5 5 5 5 5 5 5 5 5 5 5 5 5 5 5 5 5 5 5 5 5 5 5 5 5 5 5 5 5 5 5 5 5 5 5 5 5 5 5 5 5 5 5 5 5 5 5 5 5 5 5 5 5 5 5 5 5 5 5 5 5 5 5 5 5 5 5 5 5 5 5 5 5 5 5 5 5 5 5 5 5 5 5 5 5 5 5 5 5 5 5 5 5 5 5 5 5 5 5 5 5 5 5 5 5 5 5 5 5 5 5 5 5 5 5 5 5 5 5 5 5 5 5 5 5 5 5 5 5 5 5 5 5 5 5 5 5 5 5 5 5 5 5 5 5 5 5 5 5 5 5 5 5 5 5 5 5 5 5 5 5 5 5 5 5 5 5 5 5 5 5 5 5 5 5 5 5 5 5 5 5 5 5 5 5 5 5 5 5 5 5 5 5 5 5 5 5 5 5 5 5 5 5 5 5 5 5 5 5 5 5 5 5 5 5 5 5 5 5 5 5 5 5 5 5 5 5 5 5 5 5 5 5 5 5 5 5 5 5 5 5 5 5 5 5 5 5 5 5 5 5 5 5 5 5 5 5 5 5 5 5 5 5 5 5 5 5 5 5 5 5 5 5 5 5 5 5 5 5 5 5 5 5 5 5 5 5 5 5 5 5 5 5 5 5 5 5 5 5 5 5 5 5 5 5 5 5 5 5 5 5 5 5 5 5 5 5 5 5 5 5 5 5 5 5 5 5 5 5 5 5 5 5 5 5 5 5 5 5 5 5 5 5 5 5 5 5 5 5 5 5 5 5 5 5 5 5 5 5 5 5 5 5 5 5 5 5 5 5 5 5 5 5 5 5 5 5 5 5 5 5 5 5 5 5 5 5 5 5 5 5 5 5 5 5 5 5 5 5 5 5 5 5 5 5 5 5 5 5 5 5 5 5 5 5 5 5 5 5 5 5 5 5 5 5 5 5 5 5 5 5 5 5 5 5 5 5 5 5 5 5 5 5 5 5 5 5 5 5 5 5 5 5 5 5 5 5 5 5 5 5 5 5 5 5 5 5 5 5 5 5 5 5 5 5 5 5 5 5 5 5 5 5 5 5 5 5 5 5 5 5 5 5 5 5 5 5 5 5 5 5 5 5 5 5 5 5 5 5 5 5 5 5 5 5 5 5 5 5 5 5 5 5 5 5 5 5 5 5 5 5 5 5 5 5 5 5 5 5 5 5 5 5 5 5 5 5 5 5 5 5 5 5 5 5 5 5 5 5 5 5 5 5 5 5 5 5 5 5 5 5 5 5 5 5 5 5 5 5 5 5 5 5 5 5 5 5 5 5 5 5 5 5 5 5 5 5 5 5 5 5 5 5 5 5 5 5 5 5 5 5 5 5 5 5 5 5 5 5 5 5 5 5 5 5 5 5 5 5 5 5 5 5 5 5 5 5 5 5 5 5 5 5 5 5 5 5 5 5 5 5 5 5 5 5 5 5 5 5 5 5 5 5 5 5 5 5 5 5 5 5 5 5 5 5 5 5 5 5 5 5 5 5 5 5 5 5 5 5 5 5 5 5 5 5 5 5 5 5 5 5 5 5 5 5 5 5 5 5 5 5 5 5 5 5 5 5 5 5 5 5 5 5 5 5 5 5 5 5 5 5 5 5 5 5 5 5 5 5 5 5 5 5 5 5 5 5 5 5 5 5 5 5 5 5 5 5 5 5 5 5 5 5 5 5 5 5 5 5 5 5 5 5 5 5 5 5 5 5 5 5 5 5 5 5 5 5 5 5 5 5 5 5 5 5 5 5 5 5 5 5 5 5 5 5 5 5 5 5 5 5 5 5 5 5 5 5 5 5 5 5 5 5 5 5 5 5 5 5 5 5 5 5 5 5 5 5 5 5 5 5 5 5 5 5 5 5 5 5 5 5 5 5 5 5 5 5 5 5 5 5 5 5 5 5 5 5 5 5 5 5 5 5 5 5 5 5 5 5 5 5 5 5 5 5 5 5 5 5 5 5 5 5 5 5 5 5 5 5 5 5 5 5 5 5 5 5 5 5 5 5 5 5 5 5 5 5 5 5 5 5 5 5 5 5 5 5 5 5 5 5 5 5 5 5 5 5 5 5 5 5 5 5 5 5 5 5 5 5 5 5 5 5 5 5 5 5 5 5 5 5 5 5 5 5 5 5 5 5 5 5 5 5 5 5 5 5 5 5 5 5 5 5 5 5 5 5 5 5 5 5 5 5 5 5 5 5 5 5 5 5 5 5 5 5 5 5 5 5 5 5 5 5 5 5 5 5 5 5 5 5 5 5 5 5 5 5 5 5 5 5 5 5 5 5 5 5 5 5 5 5 5 5 5 5 5 5 5 5 5 5 5 5 5 5 5 5 5 5 5 5 5 5 5 5 5 5 5 5 5 5 5 5 5 5 5 5 5 5 5 5 5 5 5 5 5 5 5 5 5 5 5 5 5 5 5 5 5 5 5 5 5 5 5 5 5 5 5 5 5 5 5 5 5 5 5 5 5 5 5 5 5 5 5 5 5 5 5 5 5 5 5 5 5 5 5 5 5 5 5 5 5 5 5 5 5 5 5 5 5 5 5 5 5 5 5 5 5 5 5 5 5 5 5 5 5 5 5 5 5 5 5 5 5 5 5 5 5 5 5 5 5 5 5 5 5 5 5 5 5 5 5 5 5 5 5 5 5 5 5 5 5 5 5 5 5 5 5 5 5 5 5 5 5 5 5 5 5 5 5 5 5 5 5 5 5 5 5 5 5 5 5 5 5 5 5 5 5 5 5 5 5 5 5 5 5 5 5 5 5 5 5 5 5 5 5 5 5 5 5 5 5 5 5 5 5 5 5 5 5 5 5 5 5 5 5 5 5 5 5 5 5 5 5 5 5 5 5 5 5 5 5 5 5 5 5 5 5 5 5 5 5 5 5 5 5 5 5 5 5 5 5 5 5 5 5 5 5 5 5 5 5 5 5 5 5 5 5 5 5 5 5 5 5 5 5 5 5 5 5 5 5 5 5 5 5 5 5 5 5 5 5 5 5 5 5 5 5 5 5 5 5 5 5 5 5 5 5 5 5 5 5 5 5 5 5 5 5 5 5 5 5 5 5 5 5 5 5 5 5 5 5 5 5 5 5 5 5 5 5 5 5 5 5 5 5 5 5 5 5 5 5 5 5 5 5 5 5 5 5 5 5 5 5 5 5 5 5 5 5 5 5 5 5 5 5 5 5 5 5 5 5 5 5 5 5 5 5 5 5 5 5 5 5 5 5 5 5 5 5 5 5 5 5 5 5 5 5 5 5 5 5 5 5 5 5 5 5 5 5 5 5 5 5 5 5 5 5 5 5 5 5 5 5 5 5 5 5 5 5 5 5 5 5 5 5 5 5 5 5 5 5 5 5 5 5 5 5 5 5 5 5 5 5 5 5 5 5 5 5 5 5 5 5 5 5 5 5 5 5 5 5 5 5 5 5 5 5 5 5 5 5 5 5 5 5 5 5 5 5 5 5 5 5 5 5 5 5 5 5 5 5 5 5 5 5 5 5 5 5 5 5 5 5 5 5 5 5 5 5 5 5 5 5 5 5 5 5 5 5 5 5 5 5 5 5 5 5 5 5 5 5 5 5 5 5 5 5 5 5 5 5 5 5 5 5 5 5 5 5 5 5 5 5 5 5 5 5 5 5 5 5 5 5 5 5 5 5 5 5 5 5 5 5 5 5 5 5 5 5 5 5 5 5 5 5 5 5 5 5 5 5 5 5 5 5 5 5 5 5 5 5 5 5 5 5 5 5 5 5 5 5 5 5 5 5 5 5 5 5 5 5 5 5 5 5 5 5 5 5 5 5 5 5 5 5 5 5 5 5 5 5 5 5 5 5 5 5 5 5 5 5 5 5 5 5 5 5 5 5 5 5 5 5 5 5 5 5 5 5 5 5 5 5 5 5 5 5 5 5 5 5 5 5 5 5 5 5 5 5 5 5 5 5 5 5 5 5 5 5 5 5 5 5 5 5 5 5 5 5 5 5 5 5 5 5 5 5 5 5 5 5 5 5 5 5 5 5 5 5 5 5 5 5 5 5 5 5 5 5 5 5 5 5 5 5 5 5 5 5 5 5 5 5 5 5 5 5 5 5 5 5 5 5 5 5 5 5 5 5 5 5 5 5 5 5 5 5 5 5 5 5 5 5 5 5 5 5 5 5 5 5 5 5 5 5 5 5 5 5 5 5 5 5 5 5 5 5 5 5 5 5 5 5 5 5 5 5 5 5 5 5 5 5 5 5 5 5 5 5 5 5 5 5 5 5 5 5 5 5 5 5 5 5 5 5 5 5 5 5 5 5 5 5 5 5 5 5 5 5 5 5 5 5 5 5 5 5 5 5 5 5 5 5 5 5 5 5 5 5 5 5 5 5 5 5 5 5 5 5 5 5 5 5 5 5 5 5 5 5 5 5 5 5 5 5 5 5 5 5 5 5 5 5 5 5 5 5 5 5 5 5 5 5 5 5 5 5 5 5 5 5 5 5 5 5 5 5 5 5 5 5 5 5 5 5 5 5 5 5 5 5 5 5 5 5 5 5 5 5 5 5 5 5 5 5 5 5 5 5 5 5 5 5 5 5 5 5 5 5 5 5 5 5 5 5 5 5 5 5 5 5 5 5 5 5 5 5 5 5 5 5 5 5 5 5 5 5 5 5 5 5 5 5 5 5 5 5 5 5 5 5 5 5 5 5 5 5 5 5 5 5 5 5 5 5 5 5 5 5 5 5 5 5 5 5 5 5 5 5 5 5 5 5 5 5 5 5 5 5 5 5 5 5 5 5 5 5 5 5 5 5 5 5 5 5 5 5 5 5 5 5 5 5 5 5 5 5 5 5 5 5 5 5 5 5 5 5 5 5 5 5 5 5 5 5 5 5 5 5 5 5 5 5 5 5 5 5 5 5 5 5 5 5 5 5 5 5 5 5 5 5 5 5 5 5 5 5 5 5 5 5 5 5 5 5 5 5 5 5 5 5 5 5 5 5 5 5 5 5 5 5 5 5 5 5 5 5 5 5 5 5 5 5 5 5 5 5 5 5 5 5 5 5 5 5 5 5 5 5 5 5 5 5 5 5 5 5 5 5 5 5 5 5 5 5 5 5 5 5 5 5 5 5 5 5 5 5 5 5 5 5 5 5 5 5 5 5 5 5 5 5 5 5 5 5 5 5 5 5 5 5 5 5 5 5 5 5 5 5 5 5 5 5 5 5 5 5 5 5 5 5 5 5 5 5 5 5 5 5 5 5 5 5 5 5 5 5 5 5 5 5 5 5 5 5 5 5 5 5 5 5 5 5 5 5 5 5 5 5 5 5 5 5 5 5 5 5 5 5 5 5 5 5 5 5 5 5 5 5 5 5 5 5 5 5 5 5 5 5 5 5 5 5 5 5 5 5 5 5 5 5 5 5 5 5 5 5 5 5 5 5 5 5 5 5 5 5 5 5 5 5 5 5 5 5 5 5 5 5 5 5 5 5 5 5 5 5 5 5 5 5 5 5 5 5 5 5 5 5 5 5 5 5 5 5 5 5 5 5 5 5 5 5 5 5 5 5 5 5 5 5 5 5 5 5 5 5 5 5 5 5 5 5 5 5 5 5 5 5 5 5 5 5 5 5 5 5 5 5 5 5 5 5 5 5 5 5 5 5 5 5 5 5 5 5 5 5 5 5 5 5 5 5 5 5 5 5 5 5 5 5 5 5 5 5 5 5 5 5 5 5 5 5 5 5 5 5 5 5 5 5 5 5 5 5 5 5 5 5 5 5 5 5 5 5 5 5 5 5 5 5 5 5 5 5 5 5 5 5 5 5 5 5 5 5 5 5 5 5 5 5 5 5 5 5 5 5 5 5 5 5 5 5 5 5 5 5 5 5 5 5 5 5 5 5 5 5 5 5 5 5 5 5 5 5 5 5 5 5 5 5 5 5 5 5 5 5 5 5 5 5 5 5 5 5 5 5 5 5 5 5 5 5 5 5 5 5 5 5 5 5 5 5 5 5 5 5 5 5 5 5 5 5 5 5 5 5 5 5 5 5 5 5 5 5 5 5 5 5 5 5 5 5 5 5 5 5 5 5 5 5 5 5 5 5 5 5 5 5 5 5 5 5 5 5 5 5 5 5 5 5 5 5 5 5 5 5 5 5 5 5 5 5 5 5 5 5 5 5 5 5 5 5 5 5 5 5 5 5 5 5 5 5 5 5 5 5 5 5 5 5 5 5 5 5 5 5 5 5 5 5 5 5 5 5 5 5 5 5 5 5 5 5 5 5 5 5 5 5 5 5 5 5 5 5 5 5 5 5 5 5 5 5 5 5 5 5 5 5 5 5 5 5 5 5 5 5 5 5 5 5 5 5 5 5 5 5 5 5 5 5 5 5 5 5 5 5 5 5 5 5 5 5 5 5 5 5 5 5 5 5 5 5 5 5 5 5 5 5 5 5 5 5 5 5 5 5 5 5 5 5 5 5 5 5 5 5 5 5 5 5 5 5 5 5 5 5 5 5 5 5 5 5 5 5 5 5 5 5 5 5 5 5 5 5 5 5 5 5 5 5 5 5 5 5 5 5 5 5 5 5 5 5 5 5 5 5 5 5 5 5 5 5 5 5 5 5 5 5 5 5 5 5 5 5 5 5 5 5 5 5 5 5 5 5 5 5 5 5 5 5 5 5 5 5 5 5 5 5 5 5 5 5 5 5 5 5 5 5 5 5 5 5 5 5 5 5 5 5 5 5 5 5 5 5 5 5 5 5 5 5 5 5 5 5 5 5 5 5 5 5 5 5 5 5 5 5 5 5 5 5 5 5 5 5 5 5 5 5 5 5 5 5 5 5 5 5 5 5 5 5 5 5 5 5 5 5 5 5 5 5 5 5 5 5 5 5 5 5 5 5 5 5 5 5 5 5 5 5 5 5 5 5 5 5 5 5 5 5 5 5 5 5 5 5 5 5 5 5 5 5 5 5 5 5 5 5 5 5 5 5 5 5 5 5 5 5 5 5 5 5 5 5 5 5 5 5 5 5 5 5 5 5 5 5 5 5 5 5 5 5 5 5 5 5 5 5 5 5 5 5 5 5 5 5 5 5 5 5 5 5 5 5 5 5 5 5 5 5 5 5 5 5 5 5 5 5 5 5 5 5 5 5 5 5 5 5 5 5 5 5 5 5 5 5 5 5 5 5 5 5 5 5 5 5 5 5 5 5 5 5 5 5 5 5 5 5 5 5 5 5 5 5 5 5 5 5 5 5 5 5 5 5 5 5 5 5 5 5 5 5 5 5 5 5 5 5 5 5 5 5 5 5 5 5 5 5 5 5 5 5 5 5 5 5 5 5 5 5 5 5 5 5 5 5 5 5 5 5 5 5 5 5 5 5 5 5 5 5 5 5 5 5 5 5 5 5 5 5 5 5 5 5 5 5 5 5 5 5 5 5 5 5 5 5 5 5 5 5 5 5 5 5 5 5 5 5 5 5 5 5 5 5 5 5 5 5 5 5 5 5 5 5 5 5 5 5 5 5 5 5 5 5 5 5 5 5 5 5 5 5 5 5 5 5 5 5 5 5 5 5 5 5 5 5 5 5 5 5 5 5 5 5 5 5 5 5 5 5 5 5 5 5 5 5 5 5 5 5 5 5 5 5 5 5 5 5 5 5 5 5 5 5 5 5 5 5 5 5 5 5 5 5 5 5 5 5 5 5 5 5 5 5 5 5 5 5 5 5 5 5 5 5 5 5 5 5 5 5 5 5 5 5 5 5 5 5 5 5 5 5 5 5 5 5 5 5 5 5 5 5 5 5 5 5 5 5 5 5 5 5 5 5 5 5 5 5 5 5 5 5 5 5 5 5 5 5 5 5 5 5 5 5 5 5 5 5 5 5 5 5 5 5 5 5 5 5 5 5 5 5 5 5 5 5 5 5 5 5 5 5 5 5 5 5 5 5 5 5 5 5 5 5 5 5 5 5 5 5 5 5 5 5 5 5 5 5 5 5 5 5 5 5 5 5 5 5 5 5 5 5 5 5 5 5 5 5 5 5 5 5 5 5 5 5 5 5 5 5 5 5 5 5 5 5 5 5 5 5 5 5 5 5 5 5 5 5 5 5 5 5 5 5 5 5 5 5 5 5 5 5 5 5 5 5 5 5 5 5 5 5 5 5 5 5 5 5 5 5 5 5 5 5 5 5 5 5 5 5 5 5 5 5 5 5 5 5 5 5 5 5 5 5 5 5 5 5 5 5 5 5 5 5 5 5 5 5 5 5 5 5 5 5 5 5 5 5 5 5 5 5 5 5 5 5 5 5 5 5 5 5 5 5 5 5 5 5 5 5 5 5 5 5 5 5 5 5 5 5 5 5 5 5 5 5 5 5 5 5 5 5 5 5 5 5 5 5 5 5 5 5 5 5 5 5 5 5 5 5 5 5 5 5 5 5 5 5 5 5 5 5 5 5 5 5 5 5 5 5 5 5 5 5 5 5 5 5 5 5 5 5 5 5 5 5 5 5 5 5 5 5 5 5 5 5 5 5 5 5 5 5 5 5 5 5 5 5 5 5 5 5 5 5 5 5 5 5 5 5 5 5 5 5 5 5 5 5 5 5 5 5 5 5 5 5 5 5 5 5 5 5 5 5 5 5 5 5 5 5 5 5 5 5 5 5 5 5 5 5 5 5 5 5 5 5 5 5 5 5 5 5 5 5 5 5 5 5 5 5 5 5 5 5 5 5 5 5 5 5 5 5 5 5 5 5 5 5 5 5 5 5 5 5 5 5 5 5 5 5 5 5 5 5 5 5 5 5 5 5 5 5 5 5 5 5 5 5 5 5 5 5 5 5 5 5 5 5 5 5 5 5 5 5 5 5 5 5 5 5 5 5 5 5 5 5 5 5 5 5 5 5 5 5 5 5 5 5 5 5 5 5 5 5 5 5 5 5 5 5 5 5 5 5 5 5 5 5 5 5 5 5 5 5 5 5 5 5 5 5 5 5 5 5 5 5 5 5 5 5 5 5 5 5 5 5 5 5 5 5 5 5 5 5 5 5 5 5 5 5 5 5 5 5 5 5 5 5 5 5 5 5 5 5 5 5 5 5 5 5 5 5 5 5 5 5 5 5 5 5 5 5 5 5 5 5 5 5 5 5 5 5 5 5 5 5 5 5 5 5 5 5 5 5 5 5 5 5 5 5 5 5 5 5 5 5 5 5 5 5 5 5 5 5 5 5 5 5 5 5 5 5 5 5 5 5 5 5 5 5 5 5 5 5 5 5 5 5 5 5 5 5 5 5 5 5 5 5 5 5 5 5 5 5 5 5 5 5 5 5 5 5 5 5 5 5 5 5 5 5 5 5 5 5 5 5 5 5 5 5 5 5 5 5 5 5 5 5 5 5 5 5 5 5 5 5 5 5 5 5 5 5 5 5 5 5 5 5 5 5 5 5 5 5 5 5 5 5 5 5 5 5 5 5 5 5 5 5 5 5 5 5 5 5 5 5 5 5 5 5 5 5 5 5 5 5 5 5 5 5 5 5 5 5 5 5 5 5 5 5 5 5 5 5 5 5 5 5 5 5 5 5 5 5 5 5 5 5 5 5 5 5 5 5 5 5 5 5 5 5 5 5 5 5 5 5 5 5 5 5 5 5 5 5 5 5 5 5 5 5 5 5 5 5 5 5 5 5 5 5 5 5 5 5 5 5 5 5 5 5 5 5 5 5 5 5 5 5 5 5 5 5 5 5 5 5 5 5 5 5 5 5 5 5 5 5 5 5 5 5 5 5 5 5 5 5 5 5 5 5 5 5 5 5 5 5 5 5 5 5 5 5 5 5 5 5 5 5 5 5 5 5 5 5 5 5 5 5 5 5 5 5 5 5 5 5 5 5 5 5 5 5 5 5 5 5 5 5 5 5 5 5 5 5 5 5 5 5 5 5 5 5 5 5 5 5 5 5 5 5 5 5 5 5 5 5 5 5 5 5 5 5 5 5 5 5 5 5 5 5 5 5 5 5 5 5 5 5 5 5 5 5 5 5 5 5 5 5 5 5 5 5 5 5 5 5 5 5 5 5 5 5 5 5 5 5 5 5 5 5 5 5 5 5 5 5 5 5 5 5 5 5 5 5 5 5 5 5 5 5 5 5 5 5 5 5 5 5 5 5 5 5 5 5 5 5 5 5 5 5 5 5 5 5 5 5 5 5 5 5 5 5 5 5 5 5 5 5 5 5 5 5 5 5 5 5 5 5 5 5 5 5 5 5 5 5 5 5 5 5 5 5 5 5 5 5 5 5 5 5 5 5 5 5 5 5 5 5 5 5 5 5 5 5 5 5 5 5 5 5 5 5 5 5 5 5 5 5 5 5 5 5 5 5 5 5 5 5 5 5 5 5 5 5 5 5 5 5 5 5 5 5 5 5 5 5 5 5 5 5 5 5 5 5 5 5 5 5 5 5 5 5 5 5 5 5 5 5 5 5 5 5 5 5 5 5 5 5 5 5 5 5 5 5 5 5 5 5 5 5 5 5 5 5 5 5 5 5 5 5 5 5 5 5 5 5 5 5 5 5 5 5 5 5 5 5 5 5 5 5 5 5 5 5 5 5 5 5 5 5 5 5 5 5 5 5 5 5 5 5 5 5 5 5 5 5 5 5 5 5 5 5 5 5 5 5 5 5 5 5 5 5 5 5 5 5 5 5 5 5 5 5 5 5 5 5 5 5 5 5 5 5 5 5 5 5 5 5 5 5 5 5 5 5 5 5 5 5 5 5 5 5 5 5 5 5 5 5 5 5 5 5 5 5 5 5 5 5 5 5 5 5 5 5 5 5 5 5 5 5 5 5 5 5 5 5 5 5 5 5 5 5 5 5 5 5 5 5 5 5 5 5 5 5 5 5 5 5 5 5 5 5 5 5 5 5 5 5 5 5 5 5 5 5 5 5 5 5 5 5 5 5 5 5 5 5 5 5 5 5 5 5 5 5 5 5 5 5 5 5 5 5 5 5 5 5 5 5 5 5 5 5 5 5 5 5 5 5 5 5 5 5 5 5 5 5 5 5 5 5 5 5 5 5 5 5 5 5 5 5 5 5 5 5 5 5 5 5 5 5 5 5 5 5 5 5 5 5 5 5 5 5 5 5 5 5 5 5 5 5 5 5 5 5 5 5 5 5 5 5 5 5 5 5 5 5 5 5 5 5 5 5 5 5 5 5 5 5 5 5 5 5 5 5 5 5 5 5 5 5 5 5 5 5 5 5 5 5 5 5 5 5 5 5 5 5 5 5 5 5 5 5 5 5 5 5 5 5 5 5 5 5 5 5 5 5 5 5 5 5 5 5 5 5 5 5 5 5 5 5 5 5 5 5 5 5 5 5 5 5 5 5 5 5 5 5 5 5 5 5 5 5 5 5 5 5 5 5 5 5 5 5 5 5 5 5 5 5 5 5 5 5 5 5 5 5 5 5 5 5 5 5 5 5 5 5 5 5 5 5 5 5 5 5 5 5 5 5 5 5 5 5 5 5 5 5 5 5 5 5 5 5 5 5 5 5 5 5 5 5 5 5 5 5 5 5 5 5 5 5 5 5 5 5 5 5 5 5 5 5 5 5 5 5 5 5 5 5 5 5 5 5 5 5 5 5 5 5 5 5 5 5 5 5 5 5 5 5 5 5 5 5 5 5 5 5 5 5 5 5 5 5 5 5 5 5 5 5 5 5 5 5 5 5 5 5 5 5 5 5 5 5 5 5 5 5 5 5 5 5 5 5 5 5 5 5 5 5 5 5 5 5 5 5 5 5 5 5 5 5 5 5 5 5 5 5 5 5 5 5 5 5 5 5 5 5 5 5 5 5 5 5 5 5 5 5 5 5 5 5 5 5 5 5 5 5 5 5 5 5 5 5 5 5 5 5 5 5 5 5 5 5 5 5 5 5 5 5 5 5 5 5 5 5 5 5 5 5 5 5 5 5 5 5 5 5 5 5 5 5 5 5 5 5 5 5 5 5 5 5 5 5 5 5 5 5 5 5 5 5 5 5 5 5 5 5 5 5 5 5 5 5 5 5 5 5 5 5 5 5 5 5 5 5 5 5 5 5 5 5 5 5 5 5 5 5 5 5 5 5 5 5 5 5 5 5 5 5 5 5 5 5 5 5 5 5 5 5 5 5 5 5 5 5 5 5 5 5 5 5 5 5 5 5 5 5 5 5 5 5 5 5 5 5 5 5 5 5 5 5 5 5 5 5 5 5 5 5 5 5 5 5 5 5 5 5 5 5 5 5 5 5 5 5 5 5 5 5 5 5 5 5 5 5 5 5 5 5 5 5 5 5 5 5 5 5 5 5 5 5 5 5 5 5 5 5 5 5 5 5 5 5 5 5 5 5 5 5 5 5 5 5 5 5 5 5 5 5 5 5 5 5 5 5 5 5 5 5 5 5 5 5 5 5 5 5 5 5 5 5 5 5 5 5 5 5 5 5 5 5 5 5 5 5 5 5 5 5 5 5 5 5 5 5 5 5 5 5 5 5 5 5 5 5 5 5 5 5 5 5 5 5 5 5 5 5 5 5 5 5 5 5 5 5 5 5 5 5 5 5 5 5 5 5 5 5 5 5 5 5 5 5 5 5 5 5 5 5 5 5 5 5 5 5 5 5 5 5 5 5 5 5 5 5 5 5 5 5 5 5 5 5 5 5 5 5 5 5 5 5 5 5 5 5 5 5 5 5 5 5 5 5 5 5 5 5 5 5 5 5 5 5 5 5 5 5 5 5 5 5 5 5 5 5 5 5 5 5 5 5 5 5 5 5 5 5 5 5 5 5 5 5 5 5 5 5 5 5 5 5 5 5 5 5 5 5 5 5 5 5 5 5 5 5 5 5 5 5 5 5 5 5 5 5 5 5 5 5 5 5 5 5 5 5 5 5 5 5 5 5 5 5 5 5 5 5 5 5 5 5 5 5 5 5 5 5 5 5 5 5 5 5 5 5 5 5 5 5 5 5 5 5 5 5 5 5 5 5 5 5 5 5 5 5 5 5 5 5 5 5 5 5 5 5 5 5 5 5 5 5 5 5 5 5 5 5 5 5 5 5 5 5 5 5 5 5 5 5 5 5 5 5 5 5 5 5 5 5 5 5 5 5 5 5 5 5 5 5 5 5 5 5 5 5 5 5 5 5 5 5 5 5 5 5 5 5 5 5 5 5 5 5 5 5 5 5 5 5 5 5 5 5 5 5 5 5 5 5 5 5 5 5 5 5 5 5 5 5 5 5 5 5 5 5 5 5 5 5 5 5 5 5 5 5 5 5 5 5 5 5 5 5 5 5 5 5 5 5 5 5 5 5 5 5 5 5 5 5 5 5 5 5 5 5 5 5 5 5 5 5 5 5 5 5 5 5 5 5 5 5 5 5 5 5 5 5 5 5 5 5 5 5 5 5 5 5 5 5 5 5 5 5 5 5 5 5 5 5 5 5 5 5 5 5 5 5 5 5 5 5 5 5 5 5 5 5 5 5 5 5 5 5 5 5 5 5 5 5 5 5 5 5 5 5 5 5 5 5 5 5 5 5 5 5 5 5 5 5 5 5 5 5 5 5 5 5 5 5 5 5 5 5 5 5 5 5 5 5 5 5 5 5 5 5 5 5 5 5 5 5 5 5 5 5 5 5 5 5 5 5 5 5 5 5 5 5 5 5 5 5 5 5 5 5 5 5 5 5 5 5 5 5 5 5 5 5 5 5 5 5 5 5 5 5 5 5 5 5 5 5 5 5 5 5 5 5 5 5 5 5 5 5 5 5 5 5 5 5 5 5 5 5 5 5 5 5 5 5 5 5 5 5 5 5 5 5 5 5 5 5 5 5 5 5 5 5 5 5 5 5 5 5 5 5 5 5 5 5 5 5 5 5 5 5 5 5 5 5 5 5 5 5 5 5 5 5 5 5 5 5 5 5 5 5 5 5 5 5 5 5 5 5 5 5 5 5 5 5 5 5 5 5 5 5 5 5 5 5 5 5 5 5 5 5 5 5 5 5 5 5 5 5 5 5 5 5 5 5 5 5 5 5 5 5 5 5 5 5 5 5 5 5 5 5 5 5 5 5 5 5 5 5 5 5 5 5 5 5 5 5 5 5 5 5 5 5 5 5 5 5 5 5 5 5 5 5 5 5 5 5 5 5 5 5 5 5 5 5 5 5 5 5 5 5 5 5 5 5 5 5 5 5 5 5 5 5 5 5 5 5 5 5 5 5 5 5 5 5 5 5 5 5 5 5 5 5 5 5 5 5 5 5 5 5 5 5 5 5 5 5 5 5 5 5 5 5 5 5 5 5 5 5 5 5 5 5 5 5 5 5 5 5 5 5 5 5 5 5 5 5 5 5 5 5 5 5 5 5 5 5 5 5 5 5 5 5 5 5 5 5 5 5 5 5 5 5 5 5 5 5 5 5 5 5 5 5 5 5 5 5 5 5 5 5 5 5 5 5 5 5 5 5 5 5 5 5 5 5 5 5 5 5 5 5 5 5 5 5 5 5 5 5 5 5 5 5 5 5 5 5 5 5 5 5 5 5 5 5 5 5 5 5 5 5 5 5 5 5 5 5 5 5 5 5 5 5 5 5 5 5 5 5 5 5 5 5 5 5 5 5 5 5 5 5 5 5 5 5 5 5 5 5 5 5 5 5 5 5 5 5 5 5 5 5 5 5 5 5 5 5 5 5 5 5 5 5 5 5 5 5 5 5 5 5 5 5 5 5 5 5 5 5 5 5 5 5 5 5 5 5 5 5 5 5 5 5 5 5 5 5 5 5 5 5 5 5 5 5 5 5 5 5 5 5 5 5 5 5 5 5 5 5 5 5 5 5 5 5 5 5 5 5 5 5 5 5 5 5 5 5 5 5 5 5 5 5 5 5 5 5 5 5 5 5 5 5 5 5 5 5 5 5 5 5 5 5 5 5 5 5 5 5 5 5 5 5 5 5 5 5 5 5 5 5 5 5 5 5 5 5 5 5 5 5 5 5 5 5 5 5 5 5 5 5 5 5 5 5 5 5 5 5 5 5 5 5 5 5 5 5 5 5 5 5 5 5 5 5 5 5 5 5 5 5 5 5 5 5 5 5 5 5 5 5 5 5 5 5 5 5 5 5 5 5 5 5 5 5 5 5 5 5 5 5 5 5 5 5 5 5 5 5 5 5 5 5 5 5 5 5 5 5 5 5 5 5 5 5 5 5 5 5 5 5 5 5 5 5 5 5 5 5 5 5 5 5 5 5 5 5 5 5 5 5 5 5 5 5 5 5 5 5 5 5 5 5 5 5 5 5 5 5 5 5 5 5 5 5 5 5 5 5 5 5 5 5 5 5 5 5 5 5 5 5 5 5 5 5 5 5 5 5 5 5 5 5 5 5 5 5 5 5 5 5 5 5 5 5 5 5 5 5 5 5 5 5 5 5 5 5 5 5 5 5 5 5 5 5 5 5 5 5 5 5 5 5 5 5 5 5 5 5 5 5 5 5 5 5 5 5 5 5 5 5 5 5 5 5 5 5 5 5 5 5 5 5 5 5 5 5 5 5 5 5 5 5 5 5 5 5 5 5 5 5 5 5 5 5 5 5 5 5 5 5 5 5 5 5 5 5 5 5 5 5 5 5 5 5 5 5 5 5 5 5 5 5 5 5 5 5 5 5 5 5 5 5 5 5 5 5 5 5 5 5 5 5 5 5 5 5 5 5 5 5 5 5 5 5 5 5 5 5 5 5 5 5 5 5 5 5 5 5 5 5 5 5 5 5 5 5 5 5 5 5 5 5 5 5 5 5 5 5 5 5 5 5 5 5 5 5 5 5 5 5 5 5 5 5 5 5 5 5 5 5 5 5 5 5 5 5 5 5 5 5 5 5 5 5 5 5 5 5 5 5 5 5 5 5 5 5 5 5 5 5 5 5 5 5 5 5 5 5 5 5 5 5 5 5 5 5 5 5 5 5 5 5 5 5 5 5 5 5 5 5 5 5 5 5 5 5 5 5 5 5 5 5 5 5 5 5 5 5 5 5 5 5 5 5 5 5 5 5 5 5 5 5 5 5 5 5 5 5 5 5 5 5 5 5 5 5 5 5 5 5 5 5 5 5 5 5 5 5 5 5 5 5 5 5 5 5 5 5 5 5 5 5 5 5 5 5 5 5 5 5 5 5 5 5 5 5 5 5 5 5 5 5 5 5 5 5 5 5 5 5 5 5 5 5 5 5 5 5 5 5 5 5 5 5 5 5 5 5 5 5 5 5 5 5 5 5 5 5 5 5 5 5 5 5 5 5 5 5 5 5 5 5 5 5 5 5 5 5 5 5 5 5 5 5 5 5 5 5 5 5 5 5 5 5 5 5 5 5 5 5 5 5 5 5 5 5 5 5 5 5 5 5 5 5 5 5 5 5 5 5 5 5 5 5 5 5 5 5 5 5 5 5 5 5 5 5 5 5 5 5 5 5 5 5 5 5 5 5 5 5 5 5 5 5 5 5 5 5 5 5 5 5 5 5 5 5 5 5 5 5 5 5 5 5 5 5 5 5 5 5 5 5 5 5 5 5 5 5 5 5 5 5 5 5 5 5 5 5 5 5 5 5 5 5 5 5 5 5 5 5 5 5 5 5 5 5 5 5 5 5 5 5 5 5 5 5 5 5 5 5 5 5 5 5 5 5 5 5 5 5 5 5 5 5 5 5 5 5 5 5 5 5 5 5 5 5 5 5 5 5 5 5 5 5 5 5 5 5 5 5 5 5 5 5 5 5 5 5 5 5 5 5 5 5 5 5 5 5 5 5 5 5 5 5 5 5 5 5 5 5 5 5 5 5 5 5 5 5 5 5 5 5 5 5 5 5 5 5 5 5 5 5 5 5 5 5 5 5 5 5 5 5 5 5 5 5 5 5 5 5 5 5 5 5 5 5 5 5 5 5 5 5 5 5 5 5 5 5 5 5 5 5 5 5 5 5 5 5 5 5 5 5 5 5 5 5 5 5 5 5 5 5 5 5 5 5 5 5 5 5 5 5 5 5 5 5 5 5 5 5 5 5 5 5 5 5 5 5 5 5 5 5 5 5 5 5 5 5 5 5 5 5 5 5 5 5 5 5 5 5 5 5 5 5 5 5 5 5 5 5 5 5 5 5 5 5 5 5 5 5 5 5 5 5 5 5 5 5 5 5 5 5 5 5 5 5 5 5 5 5 5 5 5 5 5 5 5 5 5 5 5 5 5 5 5 5 5 5 5 5 5 5 5 5 5 5 5 5 5 5 5 5 5 5 5 5 5 5 5 5 5 5 5 5 5 5 5 5 5 5 5 5 5 5 5 5 5 5 5 5 5 5 5 5 5 5 5 5 5 5 5 5 5 5 5 5 5 5 5 5 5 5 5 5 5 5 5 5 5 5 5 5 5 5 5 5 5 5 5 5 5 5 5 5 5 5 5 5 5 5 5 5 5 5 5 5 5 5 5 5 5 5 5 5 5 5 5 5 5 5 5 5 5 5 5 5 5 5 5 5 5 5 5 5 5 5 5 5 5 5 5 5 5 5 5 5 5 5 5 5 5 5 5 5 5 5 5 5 5 5 5 5 5 5 5 5 5 5 5 5 5 5 5 5 5 5 5 5 5 5 5 5 5 5 5 5 5 5 5 5 5 5 5 5 5 5 5 5 5 5 5 5 5 5 5 5 5 5 5 5 5 5 5 5 5 5 5 5 5 5 5 5 5 5 5 5 5 5 5 5 5 5 5 5 5 5 5 5 5 5 5 5 5 5 5 5 5 5 5 5 5 5 5 5 5 5 5 5 5 5 5 5 5 5 5 5 5 5 5 5 5 5 5 5 5 5 5 5 5 5 5 5 5 5 5 5 5 5 5 5 5 5 5 5 5 5 5 5 5 5 5 5 5 5 5 5 5 5 5 5 5 5 5 5 5 5 5 5 5 5 5 5 5 5 5 5 5 5 5 5 5 5 5 5 5 5 5 5 5 5 5 5 5 5 5 5 5 5 5 5 5 5 5 5 5 5 5 5 5 5 5 5 5 5 5 5 5 5 5 5 5 5 5 5 5 5 5 5 5 5 5 5 5 5 5 5 5 5 5 5 5 5 5 5 5 5 5 5 5 5 5 5 5 5 5 5 5 5 5 5 5 5 5 5 5 5 5 5 5 5 5 5 5 5 5 5 5 5 5 5 5 5 5 5 5 5 5 5 5 5 5 5 5 5 5 5 5 5 5 5 5 5 5 5 5 5 5 5 5 5 5 5 5 5 5 5 5 5 5 5 5 5 5 5 5 5 5 5 5 5 5 5 5 5 5 5 5 5 5 5 5 5 5 5 5 5 5 5 5 5 5 5 5 5 5 5 5 5 5 5 5 5 5 5 5 5 5 5 5 5 5 5 5 5 5 5 5 5 5 5 5 5 5 5 5 5 5 5 5 5 5 5 5 5 5 5 5 5 5 5 5 5 5 5 5 5 5 5 5 5 5 5 5 5 5 5 5 5 5 5 5 5 5 5 5 5 5 5 5 5 5 5 5 5 5 5 5 5 5 5 5 5 5 5 5 5 5 5 5 5 5 5 5 5 5 5 5 5 5 5 5 5 5 5 5 5 5 5 5 5 5 5 5 5 5 5 5 5 5 5 5 5 5 5 5 5 5 5 5 5 5 5 5 5 5 5 5 5 5 5 5 5 5 5 5 5 5 5 5 5 5 5 5 5 5 5 5 5 5 5 5 5 5 5 5 5 5 5 5 5 5 5 5 5 5 5 5 5 5 5 5 5 5 5 5 5 5 5 5 5 5 5 5 5 5 5 5 5 5 5 5 5 5 5 5 5 5 5 5 5 5 5 5 5 5 5 5 5 5 5 5 5 5 5 5 5 5 5 5 5 5 5 5 5 5 5 5 5 5 5 5 5 5 5 5 5 5 5 5 5 5 5 5 5 5 5 5 5 5 5 5 5 5 5 5 5 5 5 5 5 5 5 5 5 5 5 5 5 5 5 5 5 5 5 5 5 5 5 5 5 5 5 5 5 5 5 5 5 5 5 5 5 5 5 5 5 5 5 5 5 5 5 5 5 5 5 5 5 5 5 5 5 5 5 5 5 5 5 5 5 5 5 5 5 5 5 5 5 5 5 5 5 5 5 5 5 5 5 5 5 5 5 5 5 5 5 5 5 5 5 5 5 5 5 5 5 5 5 5 5 5 5 5 5 5 5 5 5 5 5 5 5 5 5 5 5 5 5 5 5 5 5 5 5 5 5 5 5 5 5 5 5 5 5 5 5 5 5 5 5 5 5 5 5 5 5 5 5 5 5 5 5 5 5 5 5 5 5 5 5 5 5 5 5 5 5 5 5 5 5 5 5 5 5 5 5 5 5 5 5 5 5 5 5 5 5 5 5 5 5 5 5 5 5 5 5 5 5 5 5 5 5 5 5 5 5 5 5 5 5 5 5 5 5 5 5 5 5 5 5 5 5 5 5 5 5 5 5 5 5 5 5 5 5 5 5 5 5 5 5 5 5 5 5 5 5 5 5 5 5 5 5 5 5 5 5 5 5 5 5 5 5 5 5 5 5 5 5 5 5 5 5 5 5 5 5 5 5 5 5 5 5 5 5 5 5 5 5 5 5 5 5 5 5 5 5 5 5 5 5 5 5 5 5 5 5 5 5 5 5 5 5 5 5 5 5 5 5 5 5 5 5 5 5 5 5 5 5 5 5 5 5 5 5 5 5 5 5 5 5 5 5 5 5 5 5 5 5 5 5 5 5 5 5 5 5 5 5 5 5 5 5 5 5 5 5 5 5 5 5 5 5 5 5 5 5 5 5 5 5 5 5 5 5 5 5 5 5 5 5 5 5 5 5 5 5 5 5 5 5 5 5 5 5 5 5 5 5 5 5 5 5 5 5 5 5 5 5 5 5 5 5 5 5 5 5 5 5 5 5 5 5 5 5 5 5 5 5 5 5 5 5 5 5 5 5 5 5 5 5 5 5 5 5 5 5 5 5 5 5 5 5 5 5 5 5 5 5 5 5 5 5 5 5 5 5 5 5 5 5 5 5 5 5 5 5 5 5 5 5 5 5 5 5 5 5 5 5 5 5 5 5 5 5 5 5 5 5 5 5 5 5 5 5 5 5 5 5 5 5 5 5 5 5 5 5 5 5 5 5 5 5 5 5 5 5 5 5 5 5 5 5 5 5 5 5 5 5 5 5 5 5 5 5 5 5 5 5 5 5 5 5 5 5 5 5 5 5 5 5 5 5 5 5 5 5 5 5 5 5 5 5 5 5 5 5 5 5 5 5 5 5 5 5 5 5 5 5 5 5 5 5 5 5 5 5 5 5 5 5 5 5 5 5 5 5 5 5 5 5 5 5 5 5 5 5 5 5 5 5 5 5 5 5 5 5 5 5 5 5 5 5 5 5 5 5 5 5 5 5 5 5 5 5 5 5 5 5 5 5 5 5 5 5 5 5 5 5 5 5 5 5 5 5 5 5 5 5 5 5 5 5 5 5 5 5 5 5 5 5 5 5 5 5 5 5 5 5 5 5 5 5 5 5 5 5 5 5 5 5 5 5 5 5 5 5 5 5 5 5 5 5 5 5 5 5 5 5 5 5 5 5 5 5 5 5 5 5 5 5 5 5 5 5 5 5 5 5 5 5 5 5 5 5 5 5 5 5 5 5 5 5 5 5 5 5 5 5 5 5 5 5 5 5 5 5 5 5 5 5 5 5 5 5 5 5 5 5 5 5 5 5 5 5 5 5 5 5 5 5 5 5 5 5 5 5 5 5 5 5 5 5 5 5 5 5 5 5 5 5 5 5 5 5 5 5 5 5 5 5 5 5 5 5 5 5 5 5 5 5 5 5 5 5 5 5 5 5 5 5 5 5 5 5 5 5 5 5 5 5 5 5 5 5 5 5 5 5 5 5 5 5 5 5 5 5 5 5 5 5 5 5 5 5 5 5 5 5 5 5 5 5 5 5 5 5 5 5 5 5 5 5 5 5 5 5 5 5 5 5 5 5 5 5 5 5 5 5 5 5 5 5 5 5 5 5 5 5 5 5 5 5 5 5 5 5 5 5 5 5 5 5 5 5 5 5 5 5 5 5 5 5 5 5 5 5 5 5 5 5 5 5 5 5 5 5 5 5 5 5 5 5 5 5 5 5 5 5 5 5 5 5 5 5 5 5 5 5 5 5 5 5 5 5 5 5 5 5 5 5 5 5 5 5 5 5 5 5 5 5 5 5 5 5 5 5 5 5 5 5 5 5 5 5 5 5 5 5 5 5 5 5 5 5 5 5 5 5 5 5 5 5 5 5 5 5 5 5 5 5 5 5 5 5 5 5 5 5 5 5 5 5 5 5 5 5 5 5 5 5 5 5 5 5 5 5 5 5 5 5 5 5 5 5 5 5 5 5 5 5 5 5 5 5 5 5 5 5 5 5 5 5 5 5 5 5 5 5 5 5 5 5 5 5 5 5 5 5 5 5 5 5 5 5 5 5 5 5 5 5 5 5 5 5 5 5 5 5 5 5 5 5 5 5 5 5 5 5 5 5 5 5 5 5 5 5 5 5 5 5 5 5 5 5 5 5 5 5 5 5 5 5 5 5 5 5 5 5 5 5 5 5 5 5 5 5 5 5 5 5 5 5 5 5 5 5 5 5 5 5 5 5 5 5 5 5 5 5 5 5 5 5 5 5 5 5 5 5 5 5 5 5 5 5 5 5 5 5 5 5 5 5 5 5 5 5 5 5 5 5 5 5 5 5 5 5 5 5 5 5 5 5 5 5 5 5 5 5 5 5 5 5 5 5 5 5 5 5 5 5 5 5 5 5 5 5 5 5 5 5 5 5 5 5 5 5 5 5 5 5 5 5 5 5 5 5 5 5 5 5 5 5 5 5 5 5 5 5 5 5 5 5 5 5 5 5 5 5 5 5 5 5 5 5 5 5 5 5 5 5 5 5 5 5 5 5 5 5 5 5 5 5 5 5 5 5 5 5 5 5 5 5 5 5 5 5 5 5 5 5 5 5 5 5 5 5 5 5 5 5 5 5 5 5 5 5 5 5 5 5 5 5 5 5 5 5 5 5 5 5 5 5 5 5 5 5 5 5 5 5 5 5 5 5 5 5 5 5 5 5 5 5 5 5 5 5 5 5 5 5 5 5 5 5 5 5 5 5 5 5 5 5 5 5 5 5 5 5 5 5 5 5 5 5 5 5 5 5 5 5 5 5 5 5 5 5 5 5 5 5 5 5 5 5 5 5 5 5 5 5 5 5 5 5 5 5 5 5 5 5 5 5 5 5 5 5 5 5 5 5 5 5 5 5 5 5 5 5 5 5 5 5 5 5 5 5 5 5 5 5 5 5 5 5 5 5 5 5 5 5 5 5 5 5 5 5 5 5 5 5 5 5 5 5 5 5 5 5 5 5 5 5 5 5 5 5 5 5 5 5 5 5 5 5 5 5 5 5 5 5 5 5 5 5 5 5 5 5 5 5 5 5 5 5 5 5 5 5 5 5 5 5 5 5 5 5 5 5 5 5 5 5 5 5 5 5 5 5 5 5 5 5 5 5 5 5 5 5 5 5 5 5 5 5 5 5 5 5 5 5 5 5 5 5 5 5 5 5 5 5 5 5 5 5 5 5 5 5 5 5 5 5 5 5 5 5 5 5 5 5 5 5 5 5 5 5 5 5 5 5 5 5 5 5 5 5 5 5 5 5 5 5 5 5 5 5 5 5 5 5 5 5 5 5 5 5 5 5 5 5 5 5 5 5 5 5 5 5 5 5 5 5 5 5 5 5 5 5 5 5 5 5 5 5 5 5 5 5 5 5 5 5 5 5 5 5 5 5 5 5 5 5 5 5 5 5 5 5 5 5 5 5 5 5 5 5 5 5 5 5 5 5 5 5 5 5 5 5 5 5 5 5 5 5 5 5 5 5 5 5 5 5 5 5 5 5 5 5 5 5 5 5 5 5 5 5 5 5 5 5 5 5 5 5 5 5 5 5 5 5 5 5 5 5 5 5 5 5 5 5 5 5 5 5 5 5 5 5 5 5 5 5 5 5 5 5 5 5 5 5 5 5 5 5 5 5 5 5 5 5 5 5 5 5 5 5 5 5 5 5 5 5 5 5 5 5 5 5 5 5 5 5 5 5 5 5 5 5 5 5 5 5 5 5 5 5 5 5 5 5 5 5 5 5 5 5 5 5 5 5 5 5 5 5 5 5 5 5 5 5 5 5 5 5 5 5 5 5 5 5 5 5 5 5 5 5 5 5 5 5 5 5 5 5 5 5 5 5 5 5 5 5 5 5 5 5 5 5 5 5 5 5 5 5 5 5 5 5 5 5 5 5 5 5 5 5 5 5 5 5 5 5 5 5 5 5 5 5 5 5 5 5 5 5 5 5 5 5 5 5 5 5 5 5 5 5 5 5 5 5 5 5 5 5 5 5 5 5 5 5 5 5 5 5 5 5 5 5 5 5 5 5 5 5 5 5 5 5 5 5 5 5 5 5 5 5 5 5 5 5 5 5 5 5 5 5 5 5 5 5 5 5 5 5 5 5 5 5 5 5 5 5 5 5 5 5 5 5 5 5 5 5 5 5 5 5 5 5 5 5 5 5 5 5 5 5 5 5 5 5 5 5 5 5 5 5 5 5 5 5 5 5 5 5 5 5 5 5 5 5 5 5 5 5 5 5 5 5 5 5 5 5 5 5 5 5 5 5 5 5 5 5 5 5 5 5 5 5 5 5 5 5 5 5 5 5 5 5 5 5 5 5 5 5 5 5 5 5 5 5 5 5 5 5 5 5 5 5 5 5 5 5 5 5 5 5 5 5 5 5 5 5 5 5 5 5 5 5 5 5 5 5 5 5 5 5 5 5 5 5 5 5 5 5 5 5 5 5 5 5 5 5 5 5 5 5 5 5 5 5 5 5 5 5 5 5 5 5 5 5 5 5 5 5 5 5 5 5 5 5 5 5 5 5 5 5 5 5 5 5 5 5 5 5 5 5 5 5 5 5 5 5 5 5 5 5 5 5 5 5 5 5 5 5 5 5 5 5 5 5 5 5 5 5 5 5 5 5 5 5 5 5 5 5 5 5 5 5 5 5 5 5 5 5 5 5 5 5 5 5 5 5 5 5 5 5 5 5 5 5 5 5 5 5 5 5 5 5 5 5 5 5 5 5 5 5 5 5 5 5 5 5 5 5 5 5 5 5 5 5 5 5 5 5 5 5 5 5 5 5 5 5 5 5 5 5 5 5 5 5 5 5 5 5 5 5 5 5 5 5 5 5 5 5 5 5 5 5 5 5 5 5 5 5 5 5 5 5 5 5 5 5 5 5 5 5 5 5 5 5 5 5 5 5 5 5 5 5 5 5 5 5 5 5 5 5 5 5 5 5 5 5 5 5 5 5 5 5 5 5 5 5 5 5 5 5 5 5 5 5 5 5 5 5 5 5 5 5 5 5 5 5 5 5 5 5 5 5 5 5 5 5 5 5 5 5 5 5 5 5 5 5 5 5 5 5 5 5 5 5 5 5 5 5 5 5 5 5 5 5 5 5 5 5 5 5 5 5 5 5 5 5 5 5 5 5 5 5 5 5 5 5 5 5 5 5 5 5 5 5 5 5 5 5 5 5 5 5 5 5 5 5 5 5 5 5 5 5 5 5 5 5 5 5 5 5 5 5 5 5 5 5 5 5 5 5 5 5 5 5 5 5 5 5 5 5 5 5 5 5 5 5 5 5 5 5 5 5 5 5 5 5 5 5 5 5 5 5 5 5 5 5 5 5 5 5 5 5 5 5 5 5 5 5 5 5 5 5 5 5 5 5 5 5 5 5 5 5 5 5 5 5 5 5 5 5 5 5 5 5 5 5 5 5 5 5 5 5 5 5 5 5 5 5 5 5 5 5 5 5 5 5 5 5 5 5 5 5 5 5 5 5 5 5 5 5 5 5 5 5 5 5 5 5 5 5 5 5 5 5 5 5 5 5 5 5 5 5 5 5 5 5 5 5 5 5 5 5 5 5 5 5 5 5 5 5 5 5 5 5 5 5 5 5 5 5 5 5 5 5 5 5 5 5 5 5 5 5 5 5 5 5 5 5 5 5 5 5 5 5 5 5 5 5 5 5 5 5 5 5 5 5 5 5 5 5 5 5 5 5 5 5 5 5 5 5 5 5 5 5 5 5 5 5 5 5 5 5 5 5 5 5 5 5 5 5 5 5 5 5 5 5 5 5 5 5 5 5 5 5 5 5 5 5 5 5 5 5 5 5 5 5 5 5 5 5 5 5 5 5 5 5 5 5 5 5 5 5 5 5 5 5 5 5 5 5 5 5 5 5 5 5 5 5 5 5 5 5 5 5 5 5 5 5 5 5 5 5 5 5 5 5 5 5 5 5 5 5 5 5 5 5 5 5 5 5 5 5 5 5 5 5 5 5 5 5 5 5 5 5 5 5 5 5 5 5 5 5 5 5 5 5 5 5 5 5 5 5 5 5 5 5 5 5 5 5 5 5 5 5 5 5 5 5 5 5 5 5 5 5 5 5 5 5 5 5 5 5 5 5 5 5 5 5 5 5 5 5 5 5 5 5 5 5 5 5 5 5 5 5 5 5 5 5 5 5 5 5 5 5 5 5 5 5 5 5 5 5 5 5 5 5 5 5 5 5 5 5 5 5 5 5 5 5 5 5 5 5 5 5 5 5 5 5 5 5 5 5 5 5 5 5 5 5 5 5 5 5 5 5 5 5 5 5 5 5 5 5 5 5 5 5 5 5 5 5 5 5 5 5 5 5 5 5 5 5 5 5 5 5 5 5 5 5 5 5 5 5 5 5 5 5 5 5 5 5 5 5 5 5 5 5 5 5 5 5 5 5 5 5 5 5 5 5 5 5 5 5 5 5 5 5 5 5 5 5 5 5 5 5 5 5 5 5 5 5 5 5 5 5 5 5 5 5 5 5 5 5 5 5 5 5 5 5 5 5 5 5 5 5 5 5 5 5 5 5 5 5 5 5 5 5 5 5 5 5 5 5 5 5 5 5 5 5 5 5 5 5 5 5 5 5 5 5 5 5 5 5 5 5 5 5 5 5 5 5 5 5 5 5 5 5 5 5 5 5 5 5 5 5 5 5 5 5 5 5 5 5 5 5 5 5 5 5 5 5 5 5 5 5 5 5 5 5 5 5 5 5 5 5 5 5 5 5 5 5 5 5 5 5 5 5 5 5 5 5 5 5 5 5 5 5 5 5 5 5 5 5 5 5 5 5 5 5 5 5 5 5 5 5 5 5 5 5 5 5 5 5 5 5 5 5 5 5 5 5 5 5 5 5 5 5 5 5 5 5 5 5 5 5 5 5 5 5 5 5 5 5 5 5 5 5 5 5 5 5 5 5 5 5 5 5 5 5 5 5 5 5 5 5 5 5 5 5 5 5 5 5 5 5 5 5 5 5 5 5 5 5 5 5 5 5 5 5 5 5 5 5 5 5 5 5 5 5 5 5 5 5 5 5 5 5 5 5 5 5 5 5 5 5 5 5 5 5 5 5 5 5 5 5 5 5 5 5 5 5 5 5 5 5 5 5 5 5 5 5 5 5 5 5 5 5 5 5 5 5 5 5 5 5 5 5 5 5 5 5 5 5 5 5 5 5 5 5 5 5 5 5 5 5 5 5 5 5 5 5 5 5 5 5 5 5 5 5 5 5 5 5 5 5 5 5 5 5 5 5 5 5 5 5 5 5 5 5 5 5 5 5 5 5 5 5 5 5 5 5 5 5 5 5 5 5 5 5 5 5 5 5 5 5 5 5 5 5 5 5 5 5 5 5 5 5 5 5 5 5 5 5 5 5 5 5 5 5 5 5 5 5 5 5 5 5 5 5 5 5 5 5 5 5 5 5 5 5 5 5 5 5 5 5 5 5 5 5 5 5 5 5 5 5 5 5 5 5 5 5 5 5 5 5 5 5 5 5 5 5 5 5 5 5 5 5 5 5 5 5 5 5 5 5 5 5 5 5 5 5 5 5 5 5 5 5 5 5 5 5 5 5 5 5 5 5 5 5 5 5 5 5 5 5 5 5 5 5 5 5 5 5 5 5 5 5 5 5 5 5 5 5 5 5 5 5 5 5 5 5 5 5 5 5 5 5 5 5 5 5 5 5 5 5 5 5 5 5 5 5 5 5 5 5 5 5 5 5 5 5 5 5 5 5 5 5 5 5 5 5 5 5 5 5 5 5 5 5 5 5 5 5 5 5 5 5 5 5 5 5 5 5 5 5 5 5 5 5 5 5 5 5 5 5 5 5 5 5 5 5 5 5 5 5 5 5 5 5 5 5 5 5 5 5 5 5 5 5 5 5 5 5 5 5 5 5 5 5 5 5 5 5 5 5 5 5 5 5 5 5 5 5 5 5 5 5 5 5 5 5 5 5 5 5 5 5 5 5 5 5 5 5 5 5 5 5 5 5 5 5 5 5 5 5 5 5 5 5 5 5 5 5 5 5 5 5 5 5 5 5 5 5 5 5 5 5 5 5 5 5 5 5 5 5 5 5 5 5 5 5 5 5 5 5 5 5 5 5 5 5 5 5 5 5 5 5 5 5 5 5 5 5 5 5 5 5 5 5 5 5 5 5 5 5 5 5 5 5 5 5 5 5 5 5 5 5 5 5 5 5 5 5 5 5 5 5 5 5 5 5 5 5 5 5 5 5 5 5 5 5 5 5 5 5 5 5 5 5 5 5 5 5 5 5 5 5 5 5 5 5 5 5 5 5 5 5 5 5 5 5 5 5 5 5 5 5 5 5 5 5 5 5 5 5 5 5 5 5 5 5 5 5 5 5 5 5 5 5 5 5 5 5 5 5 5 5 5 5 5 5 5 5 5 5 5 5 5 5 5 5 5 5 5 5 5 5 5 5 5 5 5 5 5 5 5 5 5 5 5 5 5 5 5 5 5 5 5 5 5 5 5 5 5 5 5 5 5 5 5 5 5 5 5 5 5 5 5 5 5 5 5 5 5 5 5 5 5 5 5 5 5 5 5 5 5 5 5 5 5 5 5 5 5 5 5 5 5 5 5 5 5 5 5 5 5 5 5 5 5 5 5 5 5 5 5 5 5 5 5 5 5 5 5 5 5 5 5 5 5 5 5 5 5 5 5 5 5 5 5 5 5 5 5 5 5 5 5 5 5 5 5 5 5 5 5 5 5 5 5 5 5 5 5 5 5 5 5 5 5 5 5 5 5 5 5 5 5 5 5 5 5 5 5 5 5 5 5 5 5 5 5 5 5 5 5 5 5 5 5 5 5 5 5 5 5 5 5 5 5 5 5 5 5 5 5 5 5 5 5 5 5 5 5 5 5 5 5 5 5 5 5 5 5 5 5 5 5 5 5 5 5 5 5 5 5 5 5 5 5 5 5 5 5 5 5 5 5 5 5 5 5 5 5 5 5 5 5 5 5 5 5 5 5 5 5 5 5 5 5 5 5 5 5 5 5 5 5 5 5 5 5 5 5 5 5 5 5 5 5 5 5 5 5 5 5 5 5 5 5 5 5 5 5 5 5 5 5 5 5 5 5 5 5 5 5 5 5 5 5 5 5 5 5 5 5 5 5 5 5 5 5 5 5 5 5 5 5 5 5 5 5 5 5 5 5 5 5 5 5 5 5 5 5 5 5 5 5 5 5 5 5 5 5 5 5 5 5 5 5 5 5 5 5 5 5 5 5 5 5 5 5 5 5 5 5 5 5 5 5 5 5 5 5 5 5 5 5 5 5 5 5 5 5 5 5 5 5 5 5 5 5 5 5 5 5 5 5 5 5 5 5 5 5 5 5 5 5 5 5 5 5 5 5 5 5 5 5 5 5 5 5 5 5 5 5 5 5 5 5 5 5 5 5 5 5 5 5 5 5 5 5 5 5 5 5 5 5 5 5 5 5 5 5 5 5 5 5 5 5 5 5 5 5 5 5 5 5 5 5 5 5 5 5 5 5 5 5 5 5 5 5 5 5 5 5 5 5 5 5 5 5 5 5 5 5 5 5 5 5 5 5 5 5 5 5 5 5 5 5 5 5 5 5 5 5 5 5 5 5 5 5 5 5 5 5 5 5 5 5 5 5 5 5 5 5 5 5 5 5 5 5 5 5 5 5 5 5 5 5 5 5 5 5 5 5 5 5 5 5 5 5 5 5 5 5 5 5 5 5 5 5 5 5 5 5 5 5 5 5 5 5 5 5 5 5 5 5 5 5 5 5 5 5 5 5 5 5 5 5 5 5 5 5 5 5 5 5 5 5 5 5 5 5 5 5 5 5 5 5 5 5 5 5 5 5 5 5 5 5 5 5 5 5 5 5 5 5 5 5 5 5 5 5 5 5 5 5 5 5 5 5 5 5 5 5 5 5 5 5 5 5 5 5 5 5 5 5 5 5 5 5 5 5 5 5 5 5 5 5 5 5 5 5 5 5 5 5 5 5 5 5 5 5 5 5 5 5 5 5 5 5 5 5 5 5 5 5 5 5 5 5 5 5 5 5 5 5 5 5 5 5 5 5 5 5 5 5 5 5 5 5 5 5 5 5 5 5 5 5 5 5 5 5 5 5 5 5 5 5 5 5 5 5 5 5 5 5 5 5 5 5 5 5 5 5 5 5 5 5 5 5 5 5 5 5 5 5 5 5 5 5 5 5 5 5 5 5 5 5 5 5 5 5 5 5 5 5 5 5 5 5 5 5 5 5 5 5 5 5 5 5 5 5 5 5 5 5 5 5 5 5 5 5 5 5 5 5 5 5 5 5 5 5 5 5 5 5 5 5 5 5 5 5 5 5 5 5 5 5 5 5 5 5 5 5 5 5 5 5 5 5 5 5 5 5 5 5 5 5 5 5 5 5 5 5 5 5 5 5 5 5 5 5 5 5 5 5 5 5 5 5 5 5 5 5 5 5 5 5 5 5 5 5 5 5 5 5 5 5 5 5 5 5 5 5 5 5 5 5 5 5 5 5 5 5 5 5 5 5 5 5 5 5 5 5 5 5 5 5 5 5 5 5 5 5 5 5 5 5 5 5 5 5 5 5 5 5 5 5 5 5 5 5 5 5 5 5 5 5 5 5 5 5 5 5 5 5 5 5 5 5 5 5 5 5 5 5 5 5 5 5 5 5 5 5 5 5 5 5 5 5 5 5 5 5 5 5 5 5 5 5 5 5 5 5 5 5 5 5 5 5 5 5 5 5 5 5 5 5 5 5 5 5 5 5 5 5 5 5 5 5 5 5 5 5 5 5 5 5 5 5 5 5 5 5 5 5 5 5 5 5 5 5 5 5 5 5 5 5 5 5 5 5 5 5 5 5 5 5 5 5 5 5 5 5 5 5 5 5 5 5 5 5 5 5 5 5 5 5 5 5 5 5 5 5 5 5 5 5 5 5 5 5 5 5 5 5 5 5 5 5 5 5 5 5 5 5 5 5 5 5 5 5 5 5 5 5 5 5 5 5 5 5 5 5 5 5 5 5 5 5 5 5 5 5 5 5 5 5 5 5 5 5 5 5 5 5 5 5 5 5 5 5 5 5 5 5 5 5 5 5 5 5 5 5 5 5 5 5 5 5 5 5 5 5 5 5 5 5 5 5 5 5 5 5 5 5 5 5 5 5 5 5 5 5 5 5 5 5 5 5 5 5 5 5 5 5 5 5 5 5 5 5 5 5 5 5 5 5 5 5 5 5 5 5 5 5 5 5 5 5 5 5 5 5 5 5 5 5 5 5 5 5 5 5 5 5 5 5 5 5 5 5 5 5 5 5 5 5 5 5 5 5 5 5 5 5 5 5 5 5 5 5 5 5 5 5 5 5 5 5 5 5 5 5 5 5 5 5 5 5 5 5 5 5 5 5 5 5 5 5 5 5 5 5 5 5 5 5 5 5 5 5 5 5 5 5 5 5 5 5 5 5 5 5 5 5 5 5 5 5 5 5 5 5 5 5 5 5 5 5 5 5 5 5 5 5 5 5 5 5 5 5 5 5 5 5 5 5 5 5 5 5 5 5 5 5 5 5 5 5 5 5 5 5 5 5 5 5 5 5 5 5 5 5 5 5 5 5 5 5 5 5 5 5 5 5 5 5 5 5 5 5 5 5 5 5 5 5 5 5 5 5 5 5 5 5 5 5 5 5 5 5 5 5 5 5 5 5 5 5 5 5 5 5 5 5 5 5 5 5 5 5 5 5 5 5 5 5 5 5 5 5 5 5 5 5 5 5 5 5 5 5 5 5 5 5 5 5 5 5 5 5 5 5 5 5 5 5 5 5 5 5 5 5 5 5 5 5 5 5 5 5 5 5 5 5 5 5 5 5 5 5 5 5 5 5 5 5 5 5 5 5 5 5 5 5 5 5 5 5 5 5 5 5 5 5 5 5 5 5 5 5 5 5 5 5 5 5 5 5 5 5 5 5 5 5 5 5 5 5 5 5 5 5 5 5 5 5 5 5 5 5 5 5 5 5 5 5 5 5 5 5 5 5 5 5 5 5 5 5 5 5 5 5 5 5 5 5 5 5 5 5 5 5 5 5 5 5 5 5 5 5 5 5 5 5 5 5 5 5 5 5 5 5 5 5 5 5 5 5 5 5 5 5 5 5 5 5 5 5 5 5 5 5 5 5 5 5 5 5 5 5 5 5 5 5 5 5 5 5 5 5 5 5 5 5 5 5 5 5 5 5 5 5 5 5 5 5 5 5 5 5 5 5 5 5 5 5 5 5 5 5 5 5 5 5 5 5 5 5 5 5 5 5 5 5 5 5 5 5 5 5 5 5 5 5 5 5 5 5 5 5 5 5 5 5 5 5 5 5 5 5 5 5 5 5 5 5 5 5 5 5 5 5 5 5 5 5 5 5 5 5 5 5 5 5 5 5 5 5 5 5 5 5 5 5 5 5 5 5 5 5 5 5 5 5 5 5 5 5 5 5 5 5 5 5 5 5 5 5 5 5 5 5 5 5 5 5 5 5 5 5 5 5 5 5 5 5 5 5 5 5 5 5 5 5 5 5 5 5 5 5 5 5 5 5 5 5 5 5 5 5 5 5 5 5 5 5 5 5 5 5 5 5 5 5 5 5 5 5 5 5 5 5 5 5 5 5 5 5 5 5 5 5 5 5 5 5 5 5 5 5 5 5 5 5 5 5 5 5 5 5 5 5 5 5 5 5 5 5 5 5 5 5 5 5 5 5 5 5 5 5 5 5 5 5 5 5 5 5 5 5 5 5 5 5 5 5 5 5 5 5 5 5 5 5 5 5 5 5 5 5 5 5 5 5 5 5 5 5 5 5 5 5 5 5 5 5 5 5 5 5 5 5 5 5 5 5 5 5 5 5 5 5 5 5 5 5 5 5 5 5 5 5 5 5 5 5 5 5 5 5 5 5 5 5 5 5 5 5 5 5 5 5 5 5 5 5 5 5 5 5 5 5 5 5 5 5 5 5 5 5 5 5 5 5 5 5 5 5 5 5 5 5 5 5 5 5 5 5 5 5 5 5 5 5 5 5 5 5 5 5 5 5 5 5 5 5 5 5 5 5 5 5 5 5 5 5 5 5 5 5 5 5 5 5 5 5 5 5 5 5 5 5 5 5 5 5 5 5 5 5 5 5 5 5 5 5 5 5 5 5 5 5 5 5 5 5 5 5 5 5 5 5 5 5 5 5 5 5 5 5 5 5 5 5 5 5 5 5 5 5 5 5 5 5 5 5 5 5 5 5 5 5 5 5 5 5 5 5 5 5 5 5 5 5 5 5 5 5 5 5 5 5 5 5 5 5 5 5 5 5 5 5 5 5 5 5 5 5 5 5 5 5 5 5 5 5 5 5 5 5 5 5 5 5 5 5 5 5 5 5 5 5 5 5 5 5 5 5 5 5 5 5 5 5 5 5 5 5 5 5 5 5 5 5 5 5 5 5 5 5 5 5 5 5 5 5 5 5 5 5 5 5 5 5 5 5 5 5 5 5 5 5 5 5 5 5 5 5 5 5 5 5 5 5 5 5 5 5 5 5 5 5 5 5 5 5 5 5 5 5 5 5 5 5 5 5 5 5 5 5 5 5 5 5 5 5 5 5 5 5 5 5 5 5 5 5 5 5 5 5 5 5 5 5 5 5 5 5 5 5 5 5 5 5 5 5 5 </DataArray>
</Cells>
<PointData  Scalars="von Mises Stress [Pa]"> 
<DataArray  type="Float64"  Name="von Mises Stress [Pa]"  format="ascii">1.4981586819362619e+10  1.4927832308607773e+10  1.4919766559974407e+10  1.4922150974564680e+10  1.4930379209253738e+10  1.4969363861850056e+10  1.4984741691451159e+10  1.4958641698290903e+10  1.4954101578104801e+10  1.4994793940983730e+10  1.5013292892764948e+10  1.4999899136443514e+10  1.4895453212003332e+10  1.4905728052128036e+10  1.4979424228560335e+10  1.4951348396629805e+10  1.4895097071019602e+10  1.4926457713525455e+10  1.4985445462592978e+10  1.4899006585458405e+10  1.4932028559526581e+10  1.4972119210806034e+10  1.4974257174491226e+10  1.5021337510010967e+10  1.4941698306307520e+10  1.4981248939252880e+10  1.4939352945541368e+10  1.5017546855850121e+10  1.5000144310891027e+10  1.4942022517478973e+10  1.4936276347825468e+10  1.4987366354370216e+10  1.4944756441903290e+10  1.4959861015825819e+10  1.4981100514813406e+10  1.4914351694315287e+10  1.4938097705708218e+10  1.4991380730455542e+10  1.4901836020730198e+10  1.4959040320140453e+10  1.4932295897564894e+10  1.4902356214760208e+10  1.4977846648787939e+10  1.5026192528953577e+10  1.4897197415838997e+10  1.4985732839189814e+10  1.4910062388167849e+10  1.4952975012956020e+10  1.4950413636115513e+10  1.4967809149076225e+10  1.4949941083080915e+10  1.4988349343623835e+10  1.4916388068105316e+10  1.4984729382031912e+10  1.4906665041477571e+10  1.5016383872109495e+10  1.4932772440879343e+10  1.4929937637927216e+10  1.4919492298507156e+10  1.5016511260665634e+10  1.4922835319389210e+10  1.4901705117035051e+10  1.5038484810084217e+10  1.4904066138753458e+10  1.4955891006482319e+10  1.4911688073593832e+10  1.5057920829841387e+10  1.4924717278983948e+10  1.4935837364893749e+10  1.4997805029663485e+10  1.4954601815070997e+10  1.4970197004049873e+10  1.4975239032776411e+10  1.4918486502987522e+10  1.4957229683312244e+10  1.4966812848670887e+10  1.4925745206726233e+10  1.4989551644933228e+10  1.4918814512329185e+10  1.4943629231274776e+10  1.5016476199493053e+10  1.4869098551896034e+10  1.4970455470765606e+10  1.5030240909084627e+10  1.4923667939937708e+10  1.5021246381653395e+10  1.4954241519426586e+10  1.4955659775871386e+10  1.5001340697445932e+10  1.4961683963159225e+10  1.4903005413179663e+10  1.4988532498968361e+10  1.4958106109125830e+10  1.5013618782796452e+10  1.4971615348421253e+10  1.4965321690925003e+10  1.4989030747210169e+10  1.4913751911198189e+10  1.4935097595667265e+10  1.5014771615741608e+10  1.4991499682256754e+10  1.4956319356835688e+10  1.4982636939275656e+10  1.4930123675909079e+10  1.4980080931676954e+10  1.4959444763245687e+10  1.4910474343603037e+10  1.4997087941952267e+10  1.4925953675381037e+10  1.4950239941115480e+10  1.4963131694959112e+10  1.4992792620588268e+10  1.4943398547687342e+10  1.5051038046567108e+10  1.5009547848875977e+10  1.4901789304018669e+10  1.4955420569394468e+10  1.5012220357231873e+10  1.5026485001820736e+10  1.4973396875536621e+10  1.4952372885661074e+10  1.4983593039441174e+10  1.4954398818918467e+10  1.4919365804470470e+10  1.5005890910451984e+10  1.4995703073792006e+10  1.4955527453394983e+10  1.4994907851481268e+10  1.4899916829031717e+10  1.4958182850688774e+10  1.4931421407129923e+10  1.5006585637153538e+10  1.5006100046421766e+10  1.4979575743647856e+10  1.4896307885787704e+10  1.4988260526530327e+10  1.4953726216514111e+10  1.4914114499787687e+10  1.4943492948572336e+10  1.4935604002385630e+10  1.5002403158696611e+10  1.4941636672486162e+10  1.4960468267127546e+10  1.4966996805106092e+10  1.4893448358598772e+10  1.5003145150242687e+10  1.5019369689918497e+10  1.4968623266815767e+10  1.4963586178199461e+10  1.4964271910349539e+10  1.4939071117853899e+10  1.4912286904885891e+10  1.4952388581351736e+10  1.5045054521919565e+10  1.5011549720905031e+10  1.4987035616074251e+10  1.4982360871312906e+10  1.4864723113556124e+10  1.5004620620780481e+10  1.4895295829545979e+10  1.4990225108925943e+10  1.4951618034777178e+10  1.4987462862920280e+10  1.4930981216549984e+10  1.4943392707510500e+10  1.5039586640926880e+10  1.4945190800337368e+10  1.4926479664365238e+10  1.5070238983380489e+10  1.4903330784232754e+10  1.5000240173594767e+10  1.4982497638739878e+10  1.4984531140048992e+10  1.4879528533444353e+10  1.4943609209624649e+10  1.4924426499845551e+10  1.5001823858905151e+10  1.4943949380722998e+10  1.4982889382013779e+10  1.4984940011078051e+10  1.4919058472603470e+10  1.4950535887761269e+10  1.4988997266145042e+10  1.4987264530760723e+10  1.4950742929922480e+10  1.5033367662304392e+10  1.4941840661403566e+10  1.5027475605717236e+10  1.4974232273966379e+10  1.4970185261913254e+10  1.4961059879522846e+10  1.4951516810942421e+10  1.4995188287565088e+10  1.4937274415510307e+10  1.4977620460122629e+10  1.4941680739532282e+10  1.4940015347518433e+10  1.4967357478169930e+10  1.5005983544050575e+10  1.4918286558703424e+10  1.4922072935195509e+10  1.5011651889384230e+10  1.4997265963406824e+10  1.4910316420435093e+10  1.5008949372024448e+10  1.4961863704793194e+10  1.5002469549096464e+10  1.4971473569479462e+10  1.5029758887829870e+10  1.4894394154670595e+10  1.5005627630588919e+10  1.4895752259890375e+10  1.4913838018060511e+10  1.4959111396706711e+10  1.4925619044581568e+10  1.4945474587557775e+10  1.4969904802806561e+10  1.4974371237777885e+10  1.4998271189419760e+10  1.4928044878316599e+10  1.4942977312656956e+10  1.5030767727479128e+10  1.4918868599855701e+10  1.5041161479739124e+10  1.4969184858209852e+10  1.4940413539654463e+10  1.5010876537815813e+10  1.4920630266672682e+10  1.4970188083632132e+10  1.4959249923318066e+10  1.4958772923881882e+10  1.4940904720250135e+10  1.4885176014018179e+10  1.4925051699370230e+10  1.5000538996749071e+10  1.4912176881636095e+10  1.4922331637762295e+10  1.4955643960701284e+10  1.4914892337256023e+10  1.4937470449741316e+10  1.4936508112677967e+10  1.5024124116387119e+10  1.4956854273212564e+10  1.4976251335317387e+10  1.4986869864033064e+10  1.4960925875593102e+10  1.4957272344981455e+10  1.4908259960993883e+10  1.4972508701457228e+10  1.4939196280787910e+10  1.5025353553072697e+10  9.7525930084260254e+10  9.8432122488213425e+10  9.8696478895809204e+10  9.7981302903222748e+10  9.7542293713196793e+10  9.8224886638523483e+10  9.8100301887153091e+10  9.8972730163623581e+10  9.7360383335084015e+10  9.8205179382212189e+10  9.9980503066537354e+10  9.8102634359458801e+10  9.8163406820715637e+10  9.8251417069715652e+10  9.8488664551426651e+10  9.7326641994155762e+10  9.9478714252868973e+10  9.8315481702299622e+10  9.7933544807514893e+10  9.8607282059175583e+10  9.9707017773021210e+10  9.7731316937603210e+10  9.7197569455574356e+10  9.9184022574849182e+10  9.7051550500181931e+10  9.9462895786098038e+10  9.8214528688030991e+10  9.7282117807926834e+10  9.8924283442047852e+10  9.8505706135169159e+10  9.7032616796969650e+10  9.9069870693229187e+10  9.7149339762981842e+10  9.8558943224598557e+10  9.7868055558592819e+10  9.7817627025308792e+10  9.7107102563366928e+10  9.9148912108833176e+10  9.8211304257966537e+10  9.9394523987718597e+10  9.7768864712200623e+10  9.8817921458785675e+10  9.8829723021118362e+10  9.7755596783433228e+10  9.7285494939364441e+10  9.7828019996000565e+10  9.9043026933633026e+10  9.7874881318169067e+10  9.9052525640265366e+10  9.8200479043660843e+10  9.7778594753713242e+10  9.9887093010001404e+10  9.8529412779860046e+10  9.8868230368308502e+10  9.8997712525166656e+10  9.8215047830366104e+10  9.8292024951223862e+10  9.8311627074967331e+10  9.7529190678261902e+10  9.8370342941917099e+10  9.7453309281180298e+10  9.8762152352300659e+10  9.8377708361976700e+10  9.7913821823494003e+10  9.8298507725626572e+10  9.7872600364066910e+10  9.7977934813618027e+10  9.9274670777125977e+10  9.7918107091017807e+10  9.8101884298223373e+10  9.8142282231807785e+10  9.8133716391286545e+10  9.7709746688442810e+10  9.9123286328345673e+10  9.8455394907462814e+10  9.8712622078894852e+10  9.9090024040295380e+10  1.0053693654310156e+11  9.8116532888047455e+10  9.7928618071582947e+10  9.8655719762481277e+10  9.7915600594134033e+10  9.8663047575126343e+10  9.9352964636417755e+10  9.9025580947479553e+10  9.7305338619825226e+10  9.8896986947035095e+10  9.7299200345709671e+10  9.9285015595521805e+10  9.7794395194278503e+10  9.7926085014875168e+10  9.7802470231662537e+10  9.9005224179092407e+10  9.8215857283013000e+10  9.8930970207444031e+10  9.7984551410157822e+10  9.9092490057994186e+10  9.8422758299646118e+10  9.8302136109273514e+10  9.7869438290732452e+10  9.8532857127770920e+10  2.8149797883745934e+10  2.8315416354064980e+10  2.8232456840497696e+10  2.8189343739175060e+10  2.8146862375849812e+10  2.8373225838784267e+10  2.8048863607484505e+10  2.8143346801374126e+10  2.8007658124775188e+10  2.8264605917984158e+10  2.8266508127449638e+10  2.8353938101394684e+10  3.4704473478408813e+10  3.8515085277451416e+10  2.1620704316822647e+10  2.2807324458563599e+10  4.0436682902327858e+10  2.1356088415199215e+10  2.2199820263954212e+10  2.2078887392801491e+10  2.2175627095071098e+10  2.2126241634241455e+10  2.2228551964111759e+10  2.2086977436990875e+10  2.2060214330424252e+10  2.2077345615556133e+10  2.1989313379663498e+10  2.1534586138665749e+10  4.0311367480458527e+10  4.0293502028158432e+10  3.8611818416939812e+10  4.0522425438535416e+10  3.9869330537374657e+10  3.8166173660937668e+10  4.0046052243019539e+10  3.8278846870906380e+10  3.7694234859760422e+10  2.0199589241336430e+10  1.9852770778311329e+10  1.9839680254262482e+10  1.9600286672910427e+10  1.9753076132329815e+10  1.9629230810099995e+10  1.9676146495738621e+10  1.9690072378621624e+10  1.9750772642694633e+10  1.9620178268357552e+10  1.9689603427142239e+10  1.9801079879751854e+10  1.9578071590446724e+10  4.6335041976239395e+10  4.6507946641276733e+10  4.7633892572405396e+10  4.7626012527321045e+10  4.8129377780535561e+10  4.7873200328732338e+10  4.6583652443975349e+10  4.7572221326709785e+10  4.7505338425799072e+10  4.7444577847304070e+10  4.8039101368186188e+10  4.7111637997639923e+10  2.0311770956711624e+10  1.9384072794710972e+10  2.0932430035689060e+10  2.1024020459133686e+10  1.9188902508083149e+10  1.9270897014965637e+10  2.6650216377742153e+10  1.8940261028770161e+10  1.8994095090384144e+10  1.8864052843074883e+10  1.8648823097460007e+10  5.4710522016806541e+10  2.8816497269685078e+10  2.9567897814766956e+10  1.8701950456305119e+10  1.8371922663092808e+10  1.8161107075363087e+10  2.9595001000686352e+10  1.8142580835460648e+10  5.4932404549444199e+10  1.8073414504324200e+10  1.8085512067512886e+10  2.8555559214571220e+10  1.7937116073496754e+10  1.7950110776922581e+10  1.7915010467608295e+10  1.7944653899850815e+10  1.8028209398034206e+10  1.8025275983765259e+10  1.7998223774266830e+10  5.6878635762695068e+10  1.8012959781655174e+10  1.8033766834428772e+10  5.7123611733671104e+10  2.4172561083609516e+10  2.4721426872084549e+10  1.7829047639717266e+10  5.8468492902587692e+10  5.4342083040681694e+10  2.7742095367324203e+10  2.8617358129778793e+10  2.8788660760808098e+10  2.7969571394845478e+10  2.3950339997892395e+10  2.4595737185940186e+10  2.8636229378971703e+10  2.4615350628992378e+10  2.4697425957137287e+10  2.4527061059516941e+10  2.5402250904606461e+10  2.4587152626252678e+10  2.4384898305325230e+10  2.8128539331455494e+10  5.7544595452627731e+10  2.4104887907209629e+10  2.4011061065697464e+10  1.7938351809706974e+10  3.5289327963663994e+10  3.4433520747160263e+10  5.8021393325276115e+10  1.8390884815732002e+10  1.8432297303492908e+10  2.3552964700204163e+10  3.8362115220395325e+10  2.8705774300347874e+10  2.8969900020108826e+10  5.9016257401712242e+10  5.8817290135246384e+10  5.8258313668876633e+10  5.8662646278905510e+10  5.8968481726197548e+10  1.7677749093090092e+10  5.8774169024957893e+10  5.8632293404276451e+10  1.7606738889923870e+10  1.7662520726893978e+10  1.7537425662728378e+10  1.8398423581049759e+10  3.2501280257818508e+10  3.5297603566256622e+10  3.5330221098365662e+10  3.5348385898804764e+10  3.2528294559512562e+10  3.5144255187384911e+10  3.5595440436274010e+10  2.4920367079150963e+10  2.3540494401226665e+10  2.3119853871226387e+10  3.5385288421797112e+10  1.7520589617040131e+10  3.1946949330650539e+10  3.5665213188973152e+10  3.6465586451042358e+10  2.7936968752258793e+10  3.1915198357337570e+10  1.7748056321551411e+10  2.2198861747222366e+10  3.5644657344525444e+10  1.8622495442900288e+10  3.5958838277708443e+10  5.4390741219645439e+10  5.4615817082917847e+10  5.4277016140735336e+10  2.7694226605251240e+10  1.7450524469816280e+10  5.1766795135774529e+10  3.6487978685138489e+10  2.2188292055741905e+10  4.0399251676045586e+10  3.5878148529558640e+10  2.8913482452125256e+10  3.5841254882891861e+10  3.5562040411567238e+10  1.7561802358623112e+10  2.8656811557457329e+10  2.3595635261058659e+10  1.7447184459594276e+10  1.7350999376594894e+10  6.1734612899544907e+10  6.1636474423790398e+10  1.7210876006489845e+10  1.7472462835431519e+10  2.3350346386767384e+10  2.9207973758434277e+10  4.0070805467576782e+10  1.7008451798023342e+10  2.2167125435433796e+10  2.3141631372803471e+10  6.1598755504842651e+10  2.1201360727035736e+10  6.3505373536332375e+10  6.3251717144858246e+10  2.1475654932373123e+10  1.7254729102716381e+10  1.7356272074666065e+10  2.2704136774768024e+10  2.2779865869105724e+10  1.7147073906219645e+10  3.4361736122114159e+10  1.7063858526611965e+10  1.7314229190897091e+10  1.7334439142448009e+10  1.7101564733940397e+10  6.5207266880212364e+10  1.7135514539621731e+10  2.7082940756305428e+10  2.2426011267183750e+10  1.7007445209622957e+10  1.7080209225898195e+10  1.6980878772716290e+10  1.7051170794596951e+10  1.7151649835577991e+10  1.7003612948550989e+10  2.7333089643929874e+10  1.7097525424788506e+10  2.1014766776370064e+10  2.4174705799501984e+10  2.2580475447950436e+10  2.3972479506579350e+10  4.2166629637494606e+10  3.7301777661626099e+10  3.7460825272017990e+10  3.4518843887238976e+10  1.7031412812090832e+10  1.7973102590632160e+10  1.7001045429332306e+10  1.7063277176756659e+10  1.7052840031733528e+10  2.3174132439649620e+10  2.3103128019156548e+10  2.3071788805310516e+10  2.0681208167998745e+10  2.1676091070543396e+10  2.0726804775072212e+10  6.5163435951297813e+10  2.3137639233191673e+10  6.7013103704722878e+10  1.6865473406315447e+10  6.1865384691042839e+10  6.5755185193636772e+10  6.6201337107129845e+10  6.5900186363265770e+10  6.6815233545212364e+10  6.6269074651399048e+10  4.2295835289348274e+10  6.5722752348650490e+10  3.5905646561208412e+10  3.5922279454163521e+10  4.0975728498327766e+10  2.3942798564337864e+10  2.0860687018355148e+10  6.6321788948702591e+10  2.0898066919066956e+10  1.6816742013199497e+10  1.6814762842826944e+10  6.4747793007125885e+10  2.1450846169662891e+10  2.7661873484420334e+10  1.6729971559679197e+10  2.9181914116434944e+10  2.1311262851005119e+10  4.5824435449121826e+10  4.5838783019248688e+10  2.0857219159086689e+10  4.4567128178412552e+10  3.5606138889947540e+10  1.6797934314431555e+10  1.6855541041926712e+10  2.0783349594252956e+10  2.1156550950917656e+10  2.0785126068526608e+10  2.6523245915114002e+10  1.6662021343855389e+10  4.4677119649543671e+10  3.6649969591096558e+10  1.9827090309783024e+10  1.9496080348506130e+10  2.0976750039286736e+10  1.9976375451202374e+10  2.1162549451917053e+10  2.5447132310996925e+10  2.3618455587723095e+10  2.4846299235607460e+10  1.8753555574479523e+10  1.6675905015896891e+10  2.1361305736056625e+10  6.8088118809605049e+10  2.0458472634250706e+10  4.4843405062102661e+10  2.8949564533752590e+10  3.6838235236577820e+10  1.6729784593712925e+10  2.0916072821552002e+10  2.0904921271654324e+10  1.6897694282140427e+10  2.0096802515749996e+10  1.9993836267883461e+10  2.3097000776927258e+10  2.5038801732626900e+10  3.4767294322756912e+10  1.6695929987189470e+10  4.4974019737197777e+10  2.0167094146529259e+10  4.4182740811526062e+10  2.5755301701724922e+10  4.0955651367085556e+10  4.5196617626782265e+10  3.3111209687285355e+10  4.8946998909642654e+10  5.0387424031630684e+10  2.5263405196188110e+10  1.6658918102480711e+10  6.7761214815860405e+10  2.8744789520414673e+10  1.6542519371840893e+10  2.0636603775578751e+10  1.6645874089066975e+10  2.7982395223331810e+10  1.6669224395659195e+10  1.6585100279546764e+10  2.8817075612041061e+10  2.5556054864999268e+10  4.4814472390562645e+10  6.9253461133307648e+10  1.9164145067076630e+10  1.6707624689112129e+10  2.0721905667649181e+10  4.8077983172551697e+10  1.9027346687808853e+10  5.0593249552822334e+10  1.6708076667075472e+10  2.4030055117364571e+10  2.0668516070948540e+10  1.6737572971200996e+10  2.0336306971896576e+10  3.1083080157408234e+10  2.4419060981520859e+10  4.5039944979597809e+10  1.9755892198972580e+10  2.7251879713786106e+10  1.7182420982509506e+10  4.3731147222914352e+10  2.0027746030640854e+10  3.0263648239315521e+10  2.8906857531672836e+10  2.2183568790555984e+10  2.2548471224095272e+10  1.9542766418753323e+10  2.8770645296691517e+10  3.1394980511682358e+10  1.9065131583596188e+10  3.2822314880359901e+10  4.2267150245166306e+10  2.2600873647314430e+10  2.9001589656467907e+10  5.0072403790595100e+10  3.5254236399110390e+10  2.9341926186426193e+10  3.0370187325919907e+10  1.9303491468539883e+10  2.9782563645978573e+10  2.7000125065269505e+10  1.8744032433900375e+10  2.3544226589374382e+10  7.1865378446867249e+10  6.9351153209464661e+10  7.0432350117786255e+10  1.9494197500187523e+10  7.1719498535115143e+10  3.3719290456275730e+10  1.9056537795141640e+10  6.8645840747168579e+10  2.7822445078874691e+10  1.8875478723075424e+10  1.6519494059083445e+10  1.8900374081293060e+10  2.5557211987008064e+10  1.6543625196397993e+10  2.3847681851014797e+10  7.1619783445198578e+10  4.1106206305770897e+10  2.4449634779554771e+10  3.0206948731411083e+10  4.3805126032697823e+10  1.6406066129614029e+10  4.2871593331218109e+10  5.2270411932626030e+10  7.1738583608459396e+10  2.9418083564079548e+10  1.6511103545095907e+10  1.7287797732861088e+10  1.6436125370942995e+10  1.6479992471097672e+10  3.2786415819207207e+10  1.6627365051283201e+10  1.6512276080197611e+10  2.4465991882985905e+10  2.5603323237977318e+10  2.2601084237270046e+10  1.9799899654424709e+10  3.3953365066251179e+10  7.1520465703558243e+10  1.6760799033711550e+10  7.0802850977696121e+10  2.9614178981531200e+10  1.7434878687114735e+10  1.6462285731697420e+10  5.2085690082750214e+10  3.4938822674764641e+10  3.2731252820506603e+10  5.0926520054835442e+10  1.9085237212865658e+10  2.9061411725361744e+10  3.4868827434521309e+10  1.8953767810565060e+10  1.6546688798346674e+10  1.7736054397897842e+10  1.6974123424302896e+10  7.1174679045789948e+10  2.7833369457846779e+10  7.2427890542375427e+10  1.7731970484272282e+10  3.3882663061843567e+10  1.8214271122576626e+10  1.6331406497954702e+10  1.6575495413585699e+10  1.6402049751710091e+10  2.0183840113369144e+10  2.0254416752133804e+10  4.3882140403650337e+10  4.4366753064776756e+10  3.4342116640256649e+10  2.5018351758808147e+10  1.6340307097571898e+10  1.6377889333039654e+10  1.6359816156558289e+10  1.6297247908108234e+10  7.0515534410811859e+10  2.5733639826244144e+10  3.3556383096959377e+10  1.6266486811347843e+10  1.6450009894730606e+10  1.6436877837331434e+10  1.6400459971797853e+10  3.4531256371277557e+10  2.0531066346502407e+10  3.7480294633401566e+10  1.6433086864835600e+10  1.6418285957706543e+10  3.1628679855273861e+10  2.5667567595388596e+10  2.4635960567583176e+10  2.9593045132840492e+10  7.2903141307056946e+10  7.2715400736361481e+10  3.8152384212703972e+10  5.1136616416891869e+10  1.9148745573524891e+10  4.9565242366785454e+10  5.8156297895210915e+10  2.8200006140868271e+10  7.2749226366055023e+10  3.3404227753304062e+10  1.9871716011501534e+10  1.8621628412689342e+10  3.3616362685002262e+10  1.9767399987285290e+10  4.6128350006341080e+10  1.8953609775000389e+10  1.8626293834258324e+10  2.4845867838682606e+10  3.2146321082740234e+10  4.5530070846359184e+10  1.9890120578912884e+10  3.7572613246892258e+10  2.1095211291477726e+10  1.8689480339447113e+10  2.4484131594451664e+10  1.6249019220457384e+10  2.2266659256202431e+10  1.6503650226825603e+10  3.2166317235350430e+10  4.7738636190138870e+10  3.3553551820750809e+10  1.9737153504301170e+10  1.9352485341334183e+10  1.6275096952061474e+10  1.9881085505067204e+10  2.4217848771084045e+10  2.3793889405066448e+10  1.9936190593666767e+10  2.5050527823314991e+10  1.6309962333991552e+10  1.8749730833022804e+10  4.8437924303095192e+10  1.6308182646502909e+10  1.6442757108680847e+10  7.4933179064192230e+10  1.9433695251776531e+10  7.4795862882725983e+10  1.7626664635535461e+10  7.2686349437037766e+10  2.5887048770069309e+10  1.9186773159938187e+10  7.2521090074024429e+10  2.3488217960748577e+10  2.1305428579267395e+10  1.6367439386530699e+10  2.4371195607267498e+10  3.8025275120524849e+10  1.6483464405774820e+10  3.3369271550534500e+10  1.9922756483890041e+10  1.8938276217972332e+10  1.6364548643574522e+10  7.4709146566479279e+10  5.5267596186670906e+10  2.4769580581692886e+10  1.8598856046581909e+10  3.0753713402496250e+10  2.4983080546014530e+10  2.1811494065599403e+10  2.7638870626064713e+10  2.5974036749912308e+10  1.6220083793795782e+10  2.3596980084620403e+10  2.1807293496155422e+10  2.5837379820313374e+10  1.8840805822150475e+10  2.5165977243568153e+10  2.1627808909825871e+10  2.3491503791770515e+10  2.1719127035811867e+10  5.6317787292428734e+10  2.6136829542411400e+10  2.3791688743888229e+10  2.1715308879374695e+10  2.7498664330906166e+10  2.4887935862385433e+10  2.5901391617502190e+10  1.8817941699773266e+10  3.1186565689835712e+10  1.8628297621903908e+10  5.0004080500467720e+10  2.1985729461075222e+10  1.6384593439215599e+10  2.3963487879407787e+10  7.5216024950381073e+10  5.3163194690532211e+10  7.4071255556898544e+10  3.9211736403465347e+10  1.8146291657663872e+10  2.4949824159040203e+10  1.9304580731358749e+10  1.9899991697732426e+10  1.8787119421113003e+10  2.9947158624369064e+10  3.6981357821220146e+10  1.6236192805913958e+10  1.6323815098577076e+10  7.4451356433084991e+10  1.6284283829974895e+10  2.4836191999059681e+10  3.9820463240475807e+10  3.0258751187522011e+10  2.5493369467977039e+10  2.8127320870480968e+10  3.3801286288076473e+10  1.9629057388895256e+10  2.0843893908269077e+10  1.7935791753066296e+10  5.5353629683070404e+10  4.8667196422741936e+10  5.2072466526128410e+10  4.7195031987249641e+10  7.4679815695994141e+10  4.8091945380898460e+10  1.8554897542688503e+10  2.3275574710011326e+10  2.1841099140197189e+10  1.6360697250405420e+10  1.8224332424866322e+10  2.4804419881254925e+10  2.5513390813356491e+10  2.2476014844228302e+10  1.6210084056009079e+10  5.5342270103675674e+10  5.0447541116968353e+10  2.2306363033152332e+10  1.6231766387716452e+10  5.5409546635325279e+10  4.1033229203077118e+10  3.3137808860653198e+10  3.3664306950986782e+10  4.0183760028985085e+10  7.4441292086842590e+10  1.6129625003830069e+10  1.9090501595783939e+10  1.8238883624792759e+10  1.9511851941322704e+10  7.6214547174068512e+10  1.6256490353955362e+10  1.6582229776979342e+10  3.1747482143414181e+10  4.2639719170915909e+10  1.7858807663955124e+10  2.1716237394683819e+10  1.6569409125704651e+10  1.7828519236978142e+10  1.8308705756473217e+10  4.1886723637145256e+10  3.2603678198626656e+10  5.3212643546798073e+10  3.9657711015927078e+10  3.6291515047346199e+10  1.6147189596262102e+10  3.2079999808605701e+10  3.0680562374070698e+10  3.8857447971715546e+10  4.0730773965894829e+10  3.1214757303740204e+10  2.7952912163304379e+10  1.9331742577905582e+10  1.8775826124561783e+10  1.6163630286444725e+10  1.9280459764296616e+10  1.7867549929889278e+10  1.6129801741405058e+10  4.0241147882652298e+10  3.1577386236644424e+10  3.7339670826036903e+10  1.6290678310915327e+10  1.8211252797343918e+10  3.2200563292950047e+10  3.8187605075853546e+10  2.9732715172983032e+10  1.6195196673893265e+10  1.6230850701579977e+10  1.6138174466165697e+10  2.7745735122116123e+10  2.8381770544155228e+10  2.3077647160701012e+10  1.6180736661437599e+10  3.1656734658565613e+10  2.7399026127988750e+10  3.3628681897545681e+10  3.3969434966023834e+10  2.2380923460106472e+10  3.6781060177999367e+10  5.3661308665744789e+10  3.1611981403720787e+10  4.2441458998003838e+10  1.6102065453399891e+10  2.5400749514586475e+10  2.0952418063749847e+10  7.6185805309534866e+10  3.9698441102813545e+10  1.8100002296903072e+10  2.0845017352667965e+10  4.0071327789338379e+10  1.6100897982963009e+10  2.4772917294626144e+10  1.8791959347085514e+10  1.7941320903801842e+10  1.8425194689710789e+10  1.6811414586273787e+10  3.1207744913977734e+10  1.6584204445233679e+10  1.8290277818825821e+10  1.6184367689300838e+10  3.2777104435514854e+10  2.6378475877720341e+10  1.6094968991541252e+10  2.1069985305258297e+10  2.0468601188734074e+10  2.1077384866076775e+10  4.7291101963930969e+10  7.6382757222110367e+10  7.5351634351621597e+10  2.1403844716918812e+10  7.5639738821994904e+10  4.8768575722904076e+10  2.2991999102063843e+10  4.1159906546501648e+10  2.1594749715765297e+10  3.0043606296084740e+10  2.4967631955755745e+10  2.0267613571446777e+10  1.6034385160651716e+10  2.6987715260642433e+10  1.8022800452074669e+10  7.8197745389188599e+10  2.1951606633232883e+10  6.7079193960137283e+10  7.5567549666789810e+10  2.5194127634669598e+10  1.6054986859475824e+10  5.7516137040319206e+10  1.7558746658721474e+10  5.1514462535074463e+10  2.0175007390484840e+10  4.5883328051800217e+10  3.2509934090415882e+10  1.8618270671829472e+10  4.4795224980966957e+10  5.5321733877811218e+10  3.2359674001701168e+10  4.0334825811279991e+10  2.0308424208744797e+10  1.9107070787887943e+10  1.7862415566690022e+10  1.5959519277341854e+10  1.6015624671657200e+10  5.7349185774956955e+10  5.2989062615589432e+10  2.0792596045458035e+10  1.6062609880680147e+10  4.5797402715665146e+10  1.6078575497687311e+10  5.2593149008783806e+10  5.8494126131987625e+10  5.3231946725228104e+10  4.7178010692267052e+10  5.6305351621400955e+10  1.6441408924884077e+10  5.9924341580763710e+10  5.2408970938110298e+10  4.7252093555463776e+10  1.6601321597136814e+10  3.8681498309855621e+10  2.4939338103520081e+10  4.1057201930534950e+10  4.6931835553913795e+10  1.6059790104828739e+10  1.6095146547804140e+10  3.1129278449666931e+10  3.2628392056148712e+10  2.4743861773267879e+10  5.8515572986447433e+10  7.6987619202221664e+10  1.8753487506158085e+10  1.8514512922818661e+10  5.3842984899495102e+10  5.9789951142639091e+10  4.1511337601928223e+10  2.5546293237429314e+10  2.2860317242760342e+10  3.1861005615473965e+10  3.1831968845818054e+10  2.1869556600385410e+10  1.8011555698663036e+10  1.7856376109366039e+10  1.5930797060233961e+10  1.5987067449068119e+10  1.5953958770853125e+10  4.3983769786233727e+10  3.6471808194776993e+10  3.3016370416679985e+10  2.9332019015683880e+10  2.6962263134809254e+10  1.6067479107596071e+10  1.8399363089976936e+10  6.4658036948960640e+10  4.2460993123416473e+10  2.4492913984275780e+10  2.7214246490108158e+10  6.4458651551439110e+10  2.4249224199200714e+10  2.1474755168493622e+10  2.1494579241956738e+10  2.0482395097100609e+10  1.8127523253466518e+10  2.3770933202097878e+10  2.4779755856241360e+10  2.7763964111616604e+10  3.2978389663667686e+10  1.9881534828422604e+10  7.6975246590981735e+10  2.9672939068693317e+10  1.6188927134123499e+10  1.5931060540078934e+10  5.5375294297328514e+10  2.7885146701319256e+10  6.0325364985939453e+10  5.1546491464576950e+10  2.4948392831631264e+10  2.0982768587030968e+10  1.6025745928753593e+10  1.6077601100536634e+10  2.7441392771568153e+10  2.6552188513647293e+10  1.7518919599779640e+10  4.9202960968336983e+10  2.5659450282902969e+10  1.7421311618220203e+10  1.7645942512371925e+10  4.1118473199043930e+10  1.5864096345823441e+10  2.1392525554679829e+10  7.9065465424617416e+10  2.5874410526800301e+10  1.5993491777828512e+10  1.5978918006447811e+10  3.9789897053573952e+10  2.0964456836983017e+10  2.9224217965559601e+10  2.2157183292021347e+10  2.1983947060552532e+10  4.2048149007469070e+10  4.5461233670249245e+10  3.6776079166013985e+10  4.3230536273658218e+10  3.8058890857018082e+10  3.3226365757427372e+10  1.6099790780008751e+10  1.7475724936129230e+10  7.0815457871527863e+10  7.9643204617121277e+10  2.6581392766586174e+10  2.0865851318066368e+10  3.7147646182067406e+10  2.5169880533456726e+10  3.2558010741317108e+10  1.9267332091856052e+10  2.2428104272830875e+10  1.7549035606580425e+10  1.8418784696726315e+10  2.9755569565989685e+10  1.5822973441332018e+10  2.6416282920202736e+10  2.5791632798675339e+10  1.9457506812218857e+10  7.6619263857846207e+10  4.2191761301586472e+10  3.0429008371870644e+10  1.7410791137166195e+10  2.3256858030841888e+10  2.4990716722400593e+10  2.0662970665353233e+10  2.1952117744095425e+10  3.0391293509694950e+10  3.0388563359826103e+10  6.8967603720340347e+10  1.5976845011744318e+10  4.3878586975643005e+10  1.7872307991462608e+10  2.2686418466508533e+10  5.6917007807362701e+10  2.0934481475540272e+10  3.4443636901463356e+10  1.8491712757642735e+10  2.3152623835441692e+10  2.3334612679615242e+10  2.5629383923456047e+10  2.4125674555797382e+10  2.6632045178652012e+10  2.6438832554133999e+10  7.8859792333312103e+10  1.7690380462414337e+10  1.5872383011881212e+10  3.2109033263136154e+10  4.2376818540299820e+10  3.0228959317369549e+10  2.1371367602993057e+10  1.5983389227511681e+10  3.2345352445806725e+10  3.3827860767989727e+10  2.1049863257518406e+10  2.2086367610104462e+10  7.6132723279957138e+10  2.0557851528882042e+10  1.9233677139279392e+10  1.6016403528254276e+10  1.5989643725412773e+10  1.7206561869934391e+10  7.8292740630937714e+10  3.6564502361168709e+10  2.3428689429718452e+10  4.5844905878605957e+10  2.0751297780779507e+10  1.7698034208998379e+10  3.0990458916273418e+10  1.6001300425073332e+10  1.8339395027882675e+10  2.7515136598147171e+10  2.5353027609010773e+10  1.7681458022106285e+10  1.8331878700633915e+10  1.7459146682271297e+10  1.8131841757008972e+10  1.9710040717773335e+10  3.1820385982894291e+10  3.8459982255891609e+10  1.7606034107970818e+10  1.6163723294602869e+10  4.9100681082900047e+10  2.2937913832365200e+10  2.7928514725864109e+10  1.7948133779535049e+10  7.8399026337714188e+10  1.7167408518182779e+10  4.2373288601008446e+10  2.4751532996239178e+10  4.5916205416337395e+10  1.9656969682749516e+10  3.0758114370751648e+10  8.0575046410683807e+10  1.5944471710154482e+10  1.7154881138127333e+10  7.8329600111700027e+10  1.5840343280553679e+10  1.7781642194612438e+10  2.5327055206051888e+10  2.0374362492739124e+10  2.4912520037837376e+10  1.7519488796500977e+10  1.7275071690171337e+10  1.5844343942591345e+10  4.4051055826885498e+10  1.9423586500687202e+10  5.9091080063221466e+10  5.6748051984097588e+10  5.9585809891243973e+10  1.5851686173393307e+10  1.7245720183776043e+10  1.5948769484910301e+10  1.8242874474220509e+10  1.5853412366376905e+10  1.8259582219537632e+10  1.5902608660468407e+10  6.1866493865218468e+10  4.1386809214952408e+10  1.5958052126629852e+10  2.4987108363754597e+10  1.9283497615635296e+10  2.0401820358035240e+10  2.1418732982514965e+10  1.5977277082170992e+10  1.7571419181343483e+10  7.9829233092664978e+10  3.0306126524757751e+10  2.2919878521360229e+10  1.5911742416286963e+10  1.6398292963051300e+10  4.9542037246173012e+10  4.5353384027803246e+10  3.1663084714202572e+10  1.5850522662380589e+10  1.5965112186815088e+10  3.1253844588947392e+10  7.9212122721652664e+10  1.8136903450874817e+10  3.4855230353897430e+10  4.0826799050684418e+10  7.4197296493057648e+10  1.9297237437357311e+10  1.7710186866215195e+10  1.5842849967818010e+10  1.9696598506261692e+10  8.0011483053690399e+10  7.8038567027259186e+10  4.0454005151067780e+10  1.9855962419233032e+10  6.0373559880646660e+10  3.3490688366273643e+10  2.1421679765539890e+10  2.5766862952099850e+10  2.3816336505323318e+10  1.5876290001942533e+10  2.1433268530260983e+10  2.3655773618128601e+10  2.3054149026233871e+10  2.1262661129177872e+10  2.4064057216121346e+10  1.5822943014693377e+10  4.0246414816094482e+10  8.0470047370224884e+10  2.1563322846418808e+10  1.9112698172254879e+10  2.3151033072419342e+10  5.4764202008507187e+10  2.7132291250569103e+10  1.5903803924134605e+10  4.7740854122531670e+10  5.3766599618351250e+10  2.2735491097427479e+10  2.9179298201816174e+10  2.0682456494486546e+10  1.5876412789126240e+10  1.9229394528725056e+10  6.3128605375141396e+10  3.0488561995392540e+10  2.6786583047161045e+10  1.8233679840977879e+10  2.5928664578468128e+10  2.0260880315254768e+10  3.7335456183505226e+10  1.7897938669004585e+10  1.9127053802655857e+10  1.7750620524527069e+10  1.8478086857117420e+10  8.0795989554227707e+10  1.5841909034140146e+10  2.8472272223420708e+10  7.8879871795634705e+10  8.1809718410476654e+10  8.0589191886492966e+10  2.1159016212311337e+10  1.7533397878208134e+10  6.0207341502799393e+10  3.5676272183923515e+10  4.0015965445442719e+10  3.1573259917288757e+10  4.5237838991825333e+10  5.8838600980208389e+10  1.5902757021509939e+10  4.6189228990550812e+10  1.5805027541709026e+10  3.6992954511385414e+10  4.4554036376877853e+10  7.9520208612605850e+10  5.6775793223044785e+10  5.6600070550554031e+10  2.7462154771396999e+10  5.2742970848291779e+10  1.5821854005266418e+10  1.7714083058487118e+10  6.2094752755235001e+10  4.3843263825563530e+10  4.0024254754555443e+10  5.6288360479539558e+10  7.9862616034509995e+10  4.1042500718701492e+10  2.9648839918911018e+10  5.5743874776217598e+10  3.0986721580754684e+10  1.9443118117728973e+10  8.0654821151830704e+10  1.7482384404814262e+10  1.5771195488107479e+10  4.5536686868317406e+10  2.0600380821618034e+10  2.5993257742500568e+10  7.9440917524572601e+10  5.5993612764550842e+10  1.8052114733178604e+10  1.7338679765287483e+10  2.1931658552861427e+10  6.9489525262070236e+10  2.2735044659450817e+10  5.6464881672740532e+10  8.0909233489918381e+10  1.8135113060907223e+10  3.3010115121996967e+10  1.8909045199352425e+10  3.8066550930728851e+10  2.9066699177758575e+10  2.4973450969191994e+10  1.8695744039794559e+10  2.5456579469946880e+10  1.9429878498169689e+10  2.2151200210828659e+10  2.5842792624304585e+10  2.1542681503279110e+10  1.5709561031959496e+10  2.0015815352489307e+10  1.7322567049745258e+10  1.7247315309376751e+10  1.5883572253429495e+10  1.5842784534025047e+10  1.5767544253518427e+10  1.8426506213029510e+10  3.5492325955439651e+10  1.8076210926990795e+10  1.5848653456898626e+10  5.5288760045420349e+10  2.8278051058766205e+10  2.0224459641195934e+10  1.5831375565121412e+10  1.9394086237452488e+10  2.1738117283781357e+10  2.2839725430181076e+10  2.6905271562383953e+10  1.8245154901263779e+10  1.5902257041388376e+10  7.4033609745625183e+10  2.1704427975658840e+10  2.1924799611268723e+10  1.5748618385774286e+10  1.7929345644184395e+10  6.2843292651192299e+10  5.5951212370788445e+10  5.2177281940226135e+10  2.2433246289667461e+10  1.8438780497842960e+10  2.0534960844662430e+10  6.2815449770741676e+10  1.7084803006522890e+10  3.8125399180828957e+10  5.8312941427570290e+10  2.9435424565684376e+10  2.6652988238437065e+10  1.8210579917555573e+10  2.6118383909134037e+10  2.8105909004804558e+10  3.9605643831208054e+10  4.1335604120560295e+10  1.7449736932581234e+10  1.8918637557439323e+10  2.2677272521284061e+10  5.4988037657861824e+10  2.1866435587876442e+10  1.7619737854648335e+10  1.5787940500133364e+10  1.5758711898138351e+10  1.8601763513299374e+10  2.0298324050201637e+10  3.5455772750418648e+10  4.1370579298350784e+10  4.0831186576915977e+10  3.9806687419461853e+10  1.5810062894698973e+10  4.6235640810553650e+10  2.0894919468592529e+10  2.3139655153387722e+10  2.1414539831220844e+10  2.2871790322380196e+10  2.4538662920321873e+10  2.6042682285857220e+10  7.9236152413929657e+10  6.6015031149076141e+10  2.3304359232478233e+10  2.1927990450071411e+10  3.4736077458964813e+10  2.3603620940071800e+10  1.8449483551315193e+10  2.2964929975140240e+10  2.3384966984620686e+10  2.5273302976687817e+10  1.5801482947840075e+10  1.5863278462863518e+10  1.9187082202344292e+10  4.8404794037098480e+10  3.2336315550750874e+10  1.8397000319033115e+10  2.6425428301239521e+10  2.7872803270646076e+10  2.2819256282731499e+10  1.9034339599787556e+10  8.1806495010830078e+10  2.0892052884331921e+10  6.3253766791267395e+10  2.6406168006420837e+10  2.9106531746439312e+10  3.2374339381575539e+10  4.3255728644149254e+10  1.6926441589687492e+10  1.6420517453734613e+10  5.2502146117537689e+10  3.9678953586415817e+10  3.7280865350439369e+10  2.3637387945489597e+10  2.2776705163171005e+10  2.4120148525100170e+10  1.9714804923680630e+10  2.7025589074360313e+10  8.2856453247402283e+10  1.5706353984710012e+10  2.0228144545033955e+10  6.2498024281865082e+10  1.5704211144196081e+10  1.5816698886328409e+10  2.3053850566149078e+10  1.7073122216710175e+10  1.5719247570546846e+10  5.1628845313478180e+10  2.1480330572241127e+10  6.0958577114213341e+10  1.7206778175254063e+10  1.6987961327148676e+10  1.5746814900568979e+10  1.6102636126077682e+10  2.6306871760737488e+10  1.5763736562668674e+10  1.6704965918585653e+10  1.7528002711691929e+10  3.1318362473954273e+10  1.5820498905815962e+10  1.8559472646871056e+10  1.9875591837700283e+10  3.0118507440668888e+10  3.8191506012398682e+10  1.5752333626797592e+10  2.2713067695167553e+10  3.7555754756028992e+10  2.5623065698593430e+10  1.9220675557569576e+10  5.2082479175393616e+10  2.8710649348784740e+10  8.1577871345773544e+10  2.5742340145848976e+10  1.9102146998652611e+10  2.0783400768681435e+10  3.1984291130329472e+10  6.8126349880646019e+10  3.7089771520749352e+10  1.7522872792711941e+10  1.7516808383522816e+10  5.4738873606839989e+10  4.2175730446724747e+10  2.1797968918258095e+10  1.7137924251112097e+10  1.5767851089525919e+10  2.6878589283937595e+10  6.3139079225877396e+10  3.0976789140826210e+10  2.7141258811137718e+10  2.4597287215502552e+10  3.8378929150771294e+10  6.9300048250062424e+10  1.7131378508162836e+10  1.9763470499385834e+10  1.5849958604332619e+10  2.6926059873506958e+10  1.5743512683523607e+10  3.1427431488906857e+10  2.4631480142794346e+10  2.1668184968455353e+10  1.9009783364319298e+10  2.2136959786392029e+10  2.0362012348851372e+10  1.5725174565123213e+10  1.6721801076960457e+10  1.7744192453570854e+10  2.1291325073503105e+10  2.2656012272695004e+10  2.0569504276765491e+10  1.9539175205414265e+10  2.2513037374424213e+10  1.5835608038327477e+10  2.0518427565960884e+10  1.5831772528439075e+10  2.6342379381142796e+10  2.5933187939013824e+10  2.3779550042465092e+10  4.0962608618336578e+10  1.7312496908488792e+10  2.2488348218043053e+10  2.1689555191480225e+10  1.9349590289732693e+10  2.0242998072229782e+10  2.1828054522562534e+10  1.7101297870849798e+10  1.7054693119936737e+10  8.3623610685253235e+10  3.0781038416302349e+10  3.3391531080023689e+10  1.9492229205915554e+10  2.5840748628835613e+10  1.7103640302776821e+10  1.7757888849348907e+10  1.5795447986244125e+10  2.5908098106699760e+10  6.5225040711809723e+10  7.6692144525897415e+10  1.8476757597165482e+10  5.0519773458483925e+10  3.4200344829015320e+10  4.0051655216623291e+10  8.2420253501001465e+10  1.7496068510545338e+10  1.7354141923591450e+10  1.6675058648428822e+10  2.2589600977789913e+10  1.9937727287413872e+10  1.6109907610695192e+10  1.6190187669800793e+10  3.1664516805979332e+10  3.7528943991289528e+10  1.5787993670240873e+10  1.9753897253214909e+10  2.1074688196271114e+10  8.1514552099736557e+10  5.9766065149823364e+10  5.8142922115056946e+10  2.1139671887206341e+10  2.5302178150381939e+10  2.6888560478294918e+10  2.7722871469489002e+10  4.3471964137338974e+10  6.4651792073223557e+10  2.2817059003588879e+10  2.8044948579446083e+10  5.1182313009591644e+10  3.9506054166947571e+10  1.8084394473554710e+10  3.2377181608421379e+10  2.4111254349329258e+10  1.8935506153195351e+10  1.5716334772390692e+10  3.6117093111801216e+10  2.3123670798274467e+10  1.8817268819398140e+10  2.1451259197522774e+10  5.4690621421768311e+10  4.5309349395141289e+10  5.0924206763568665e+10  6.4782210682236214e+10  1.6264831936064430e+10  3.0949938890727531e+10  1.6930886704144817e+10  1.7703992871269970e+10  2.5664225714400215e+10  2.0494737000368450e+10  3.5141537586261467e+10  8.2332151429533493e+10  2.9053471267758972e+10  3.2004902251185921e+10  5.2266596104379181e+10  1.9589096480091522e+10  2.1481038804492634e+10  2.0374134660932686e+10  2.0167614568914425e+10  2.0041274649074219e+10  4.8197808905987480e+10  3.4951965111007156e+10  3.1476239828078411e+10  1.6947800889244370e+10  8.2941348242321228e+10  2.0111751703847015e+10  2.2543465327737404e+10  4.2180036719066887e+10  1.5775757722514479e+10  5.1131884134702774e+10  1.9066013104700050e+10  1.9388529533901424e+10  5.1895693401150620e+10  4.5961359598601837e+10  3.9665546129448097e+10  4.8070858376004280e+10  3.7520889034492645e+10  2.8529303037606503e+10  4.6570827078899513e+10  4.5572958671648560e+10  2.5660272659431438e+10  2.5616359453060867e+10  5.0197871363724991e+10  4.2963148523893295e+10  5.1507003999110367e+10  3.9679441624156349e+10  4.8230830410060623e+10  1.5774352168791277e+10  2.6199020633468204e+10  1.5684327858580559e+10  6.4426787640603249e+10  4.6747340726764664e+10  3.7144427398664276e+10  3.4670294651027679e+10  1.9859505023198311e+10  2.0933930112829357e+10  4.4830873307397453e+10  1.6814974153101625e+10  2.0930496088796806e+10  2.6137583546600788e+10  2.8903454026812740e+10  3.1806349078729580e+10  2.7079860923972027e+10  2.5214574009540131e+10  3.0693252442789627e+10  8.2153641257385162e+10  2.0022936609094017e+10  1.8039393847627434e+10  1.5757145468558779e+10  6.5304281384048668e+10  8.2047306096431885e+10  3.6288897939740921e+10  2.1628593038413136e+10  1.6718985428393967e+10  1.7402882516994148e+10  1.5693821454843338e+10  1.9698592360545826e+10  3.9989321577193184e+10  1.5680749305797258e+10  1.8392290529633270e+10  1.7139894511087458e+10  1.7556717117951244e+10  1.6876630787940809e+10  1.9241117602546062e+10  2.1667866478761330e+10  3.2291106336522179e+10  3.5794461866903770e+10  3.6468654000414391e+10  2.5937271377410679e+10  3.1628301675358608e+10  2.3129923903023445e+10  1.9602056368793945e+10  2.0926758730574657e+10  4.3295061292820000e+10  5.4371474969749039e+10  8.3853422658252655e+10  1.5754906883775381e+10  1.7564951075495941e+10  3.6929568037521965e+10  2.0666913390659966e+10  3.8074436181378334e+10  4.7972269614202148e+10  2.5950087960622406e+10  5.7350498524086533e+10  2.3511126933198521e+10  6.7131426783617271e+10  1.5623078388115610e+10  2.9580385876651093e+10  3.3598702000141689e+10  2.7808685564700367e+10  4.8125088979866234e+10  2.4178790816534500e+10  1.5748615091614189e+10  2.6459027213446033e+10  2.2518442404570946e+10  1.8445941744136589e+10  1.7924550038573360e+10  2.8507802017039310e+10  1.6938011495906950e+10  4.7948546142935158e+10  3.2598688726746151e+10  2.8682890631334671e+10  1.9265664788389477e+10  2.0616374252737885e+10  3.4239571176587513e+10  2.9611765248813328e+10  4.1320179173025681e+10  4.0360252413200279e+10  4.8314752230769905e+10  2.1376483808569099e+10  4.4391420750507439e+10  2.1911748958881546e+10  1.5687114693153481e+10  1.9376745242464329e+10  1.8671674225891785e+10  5.9239656554262627e+10  3.0453462981841316e+10  2.8852099958975758e+10  1.7731398185874416e+10  5.0070836359284149e+10  3.9371556947681099e+10  3.3037186593951981e+10  2.8484515014544430e+10  3.5203193259003838e+10  2.3810768472298607e+10  2.2785384268709171e+10  2.3759888327608734e+10  1.6857463957258678e+10  2.6965763672405266e+10  2.5168364880908401e+10  2.9818602988554737e+10  1.8959540947043262e+10  2.7784469102321339e+10  1.8555535601170853e+10  4.2385829351928078e+10  1.5636956941212559e+10  2.2693913797118443e+10  4.6294266066357086e+10  5.4550986040392662e+10  1.7281726329884129e+10  2.6925127530802299e+10  1.9941542107658283e+10  1.5692325619146442e+10  1.5598833146859356e+10  2.4929288799518452e+10  1.5650367583339792e+10  2.0057595310738380e+10  3.6388551815019066e+10  1.8619935400774063e+10  5.6535213363900581e+10  3.4243359788250473e+10  1.5755957152136938e+10  2.3766334284593285e+10  2.1010008534229706e+10  1.5733107507594856e+10  3.0478733762959377e+10  2.7076534488678139e+10  2.3989017256351242e+10  3.5859334276921364e+10  6.0013291457759964e+10  2.3219837906525879e+10  2.1776767060930862e+10  4.0470897418892487e+10  2.7152742369547104e+10  2.6004598447777782e+10  2.7781187700171097e+10  3.1873497901837219e+10  3.2018545042287994e+10  3.5968435242205688e+10  3.4489902587582306e+10  6.6481910497493019e+10  2.1256991112878258e+10  3.5924895936083839e+10  3.5760940284870041e+10  1.7806986381206139e+10  1.6816190428573650e+10  1.5773180381353014e+10  1.5725199603216383e+10  1.8830695726295589e+10  1.6580654422308294e+10  6.1142575463971611e+10  2.0547560319120022e+10  2.6685847589904022e+10  2.9354148331050293e+10  3.1704661934477333e+10  2.5830089263378975e+10  1.9079844236755630e+10  2.0719313232979122e+10  1.7105166528399849e+10  1.8558131709163033e+10  1.5712739978806198e+10  1.8270541486364124e+10  5.3225214733693535e+10  1.5680729312398615e+10  2.7268473786913891e+10  2.2716040658493927e+10  1.5679129640994408e+10  6.3625721313144753e+10  2.7053531161586575e+10  6.6896196887502174e+10  4.1343242437262268e+10  1.7663400232574596e+10  6.5148033132906601e+10  2.7892990559614723e+10  2.3554188514321621e+10  6.7688307147262329e+10  3.9530763832976807e+10  1.9770878598957935e+10  1.8923973812856953e+10  1.5762405504087402e+10  1.5848759774087505e+10  1.6902943391951227e+10  3.8494689399752480e+10  1.7753451899576450e+10  2.2526539949501209e+10  2.3935701825089725e+10  1.5657273678919867e+10  4.4372751309544609e+10  3.1555757897034840e+10  5.1698998709343864e+10  1.8721486321029312e+10  1.9384762609821518e+10  1.5746838615035172e+10  1.5753197717778004e+10  1.5865276272259851e+10  1.7395713378801815e+10  8.3114217470651718e+10  1.5681263391600576e+10  1.8102813077192814e+10  1.7165931086064331e+10  1.9375258524144302e+10  2.1888818319140827e+10  2.7779903104813217e+10  1.7937560479759007e+10  1.7471722255453171e+10  2.6176959060740089e+10  2.2682045357821934e+10  2.8722440440662533e+10  2.0574544520746662e+10  3.1070178976980690e+10  2.9730219984277512e+10  2.3628138941476761e+10  2.2295468415880894e+10  2.1074149294774555e+10  1.7403630843760452e+10  3.6250777418662399e+10  2.9501481700603741e+10  2.1631220689212132e+10  1.9652939408111660e+10  2.0924757891455013e+10  1.8073940948410744e+10  1.9926271738602211e+10  4.1875057327621361e+10  4.1102279559122040e+10  2.7954958231931744e+10  2.2989427923615788e+10  2.3761384953423779e+10  1.9907897246917351e+10  2.0615287440465027e+10  8.3775263874266220e+10  8.4230577583553604e+10  1.6357107494791927e+10  8.0089489427891434e+10  1.9739705141692181e+10  3.2067930325109119e+10  8.4190897113524582e+10  3.8962821285720535e+10  2.4352925375395378e+10  1.5695933978501171e+10  6.7428559926375404e+10  8.4170220619146927e+10  2.1776044230208290e+10  2.8322935969435154e+10  2.3235049200514076e+10  3.0470866345120895e+10  8.3909158289166748e+10  4.8425892798952583e+10  2.3013066621218857e+10  1.8281664079944473e+10  1.9187587285785606e+10  4.6138885327930962e+10  3.1447539553607677e+10  3.7518471558397842e+10  3.6252319088546074e+10  2.0046541071798233e+10  3.5474651004572121e+10  5.1163320256509178e+10  2.6367838547719376e+10  2.3985593500283665e+10  2.2735343835816658e+10  1.5738703079299812e+10  1.9636221029092392e+10  1.7833075849482086e+10  3.3206877730636200e+10  3.0673235322661404e+10  2.1498293238456722e+10  1.6679359968620707e+10  3.0072479218942532e+10  1.9441852621698536e+10  1.8042083863703030e+10  2.6352429025802773e+10  2.7666506279207363e+10  2.1784484319283127e+10  1.8367867078515766e+10  4.6060025296071251e+10  6.3032159080273834e+10  8.2421183904321106e+10  1.8398780787474789e+10  1.6169433375062759e+10  1.6755890444901625e+10  1.8906194696020992e+10  3.7786294563153015e+10  1.5739147305564350e+10  3.2567747637123867e+10  5.3302087837982903e+10  4.0752037027113274e+10  4.7942244717896622e+10  2.0277930847827812e+10  1.9071141892733074e+10  2.0792749847702209e+10  1.5562959349076763e+10  4.2168716741530586e+10  2.1104101105449028e+10  2.3184345051277763e+10  6.1811510729962944e+10  8.2507700908849442e+10  2.3918317313828075e+10  1.8288631052283615e+10  1.7982354286568779e+10  6.6506907881910828e+10  1.7490667743679680e+10  2.5402166100023071e+10  4.5797444396150108e+10  1.5573955643410494e+10  1.5606221770210289e+10  5.0840533988259796e+10  1.7261520781763649e+10  2.7013719238567131e+10  6.4799796442862587e+10  8.6175067051069199e+10  5.9765444930942162e+10  1.9457891449992615e+10  5.8437207996991463e+10  3.4515518400683716e+10  2.0080141266753532e+10  2.8176594803746956e+10  2.9774316785864899e+10  1.5675539282695036e+10  3.6092465972039124e+10  2.6179673342528473e+10  3.1535891773764538e+10  1.6850330225286049e+10  1.5759176794128235e+10  1.6466887418509529e+10  2.0036101542716045e+10  1.9626676288533749e+10  3.7602661614594582e+10  3.9895044269677887e+10  3.3615104476301998e+10  6.9692654958971100e+10  3.7818331000560890e+10  1.5611300871867357e+10  2.7587656403539742e+10  1.8687977830516895e+10  6.2767791639120346e+10  8.3295464430356262e+10  1.9782667147241150e+10  4.1559871296977112e+10  1.5705085205698172e+10  1.6815552870563789e+10  1.6975398194943787e+10  2.0249161615969357e+10  2.1745396619411545e+10  6.1705155858119568e+10  6.8492310405110703e+10  6.5506419349574989e+10  1.9775576246377701e+10  1.8702237089888065e+10  1.5808062545432142e+10  2.7881053933060963e+10  2.9284476585740417e+10  2.3341306011841621e+10  1.6840765576394484e+10  1.5685064460041906e+10  3.6805310856833336e+10  3.2235320911443104e+10  3.1140518303601959e+10  2.1834347425494347e+10  1.5657492108839905e+10  1.7000806227317284e+10  1.6841515538356375e+10  5.3719368003210632e+10  8.2877851547691345e+10  6.3068717627699226e+10  2.7357034998071884e+10  2.1105596058591267e+10  2.0001829621555237e+10  1.8630680590822765e+10  3.3571295327511028e+10  4.5306654748330032e+10  2.6417489241071892e+10  6.8375056731682579e+10  2.3298497561017899e+10  3.1832363450928585e+10  2.9289434042659473e+10  2.0428547720436069e+10  3.3051174855905560e+10  4.4923112383926903e+10  8.3409078521234619e+10  1.5584207089730743e+10  4.6288138107740730e+10  1.6920496433034264e+10  2.0092829204942604e+10  1.6722721132653994e+10  1.6778475480747355e+10  2.3548480088103111e+10  3.2486381334630650e+10  2.9364170356105015e+10  1.7233782893335186e+10  1.5703058960320505e+10  1.5684017508171328e+10  6.6861004345771042e+10  1.6556910774221230e+10  2.7008661301279953e+10  2.4939507884420456e+10  2.7675870933290627e+10  2.5064486271221611e+10  1.6675766449372524e+10  1.7447375700369610e+10  1.9195835609088856e+10  1.8339558326656876e+10  2.6731591388654240e+10  4.8627876329659210e+10  5.5224151783238037e+10  8.4776754988044098e+10  8.3587888020170120e+10  4.6614949374986122e+10  4.9244118770013939e+10  3.9502574143859947e+10  3.9159912727251732e+10  4.6560561317910919e+10  4.8953184080870636e+10  3.5901455363034805e+10  1.7428452232963543e+10  1.7317902090560658e+10  1.8812329783849567e+10  2.0337817539658325e+10  1.5621601169408262e+10  3.8035142055577995e+10  3.6724151885083267e+10  1.7289813726340816e+10  1.7356088920656910e+10  3.2007276787799465e+10  3.3049507328194744e+10  2.2639915228787567e+10  1.7992568911288227e+10  1.5627477329188742e+10  2.3702061660361961e+10  2.6454166165184895e+10  2.5542148623182968e+10  2.8390635177822414e+10  2.8375294842315449e+10  2.8697800622568695e+10  5.0901862259645470e+10  4.3772291544815826e+10  3.0902342845889206e+10  3.6152569461260483e+10  2.3961107291820065e+10  1.8549056903576809e+10  3.0665955796030907e+10  3.2397517049957874e+10  1.8146531309034294e+10  1.7643684562955486e+10  8.3612903071127426e+10  2.2591752376381447e+10  2.2792602549696629e+10  2.1905562588338547e+10  1.6926304766971149e+10  1.5703054426357538e+10  1.7657020202421608e+10  2.0789935135118927e+10  2.6834127314589397e+10  1.6995558312904490e+10  3.4074007121644958e+10  6.3230488535059631e+10  2.6123889841358528e+10  7.2610069719591782e+10  1.6614177231365351e+10  1.7190074000261196e+10  3.4778756613212631e+10  3.5091830122561554e+10  3.1319306910640266e+10  2.6819886447905270e+10  2.3818138823217197e+10  1.6891817590563612e+10  2.2241222710653728e+10  3.7559227368371872e+10  3.7879451564215439e+10  4.2485432707063507e+10  4.2174756902669075e+10  8.2959041473291214e+10  1.8381700004161972e+10  1.7855795945780373e+10  5.8453725088023972e+10  1.7445070626428402e+10  3.8723106013234421e+10  8.4556583561426834e+10  2.4301208408484455e+10  1.9593645635352798e+10  5.3395454273271454e+10  1.7076087403825939e+10  1.6740457549463646e+10  2.1152978845820080e+10  2.0661251188080658e+10  1.6455098947229033e+10  1.6761293334958759e+10  8.3357996098947144e+10  1.5616476676693636e+10  3.4175900713218601e+10  3.0929302309721603e+10  6.0556588168197273e+10  2.3923998754969666e+10  2.0808284253365582e+10  3.4871327180539886e+10  3.3559921490947411e+10  1.7074807000534533e+10  5.7340545451691437e+10  2.5697380605693138e+10  6.5893717069748680e+10  2.9089447505395508e+10  1.8663043793371315e+10  1.5696159984089417e+10  2.3028000126620094e+10  2.7193871185641624e+10  1.6933808483908270e+10  4.3761732808668587e+10  5.1050564351652962e+10  2.9605217547303871e+10  2.9227745872978859e+10  3.2227994028987534e+10  4.5886431073286346e+10  1.8797298062944977e+10  1.8868207956774666e+10  2.0724552741816208e+10  4.7333342594622620e+10  4.0255888341451637e+10  4.6366039909021935e+10  3.4520319704708710e+10  3.0235796276877171e+10  1.6693968390892408e+10  1.7194986076512768e+10  3.5516702042542412e+10  3.0582276852728230e+10  2.3946965833024933e+10  1.8771958612481281e+10  1.7374121168436844e+10  1.6598757083914682e+10  2.2328034228644844e+10  2.0519889309699581e+10  8.3949101287432144e+10  1.8125020149480080e+10  3.1381562499370617e+10  1.5675745457758444e+10  1.5675487406029812e+10  1.6804144665710516e+10  1.8228550684273296e+10  1.7046106005897764e+10  6.5208541455292145e+10  6.2068129241372238e+10  1.6921522854311098e+10  3.4235233802069160e+10  2.8072108011320175e+10  1.5684661797279728e+10  1.6797677556148920e+10  1.7162753138031122e+10  4.2556788900320656e+10  4.6855891363891502e+10  1.7643809022843250e+10  2.9583296358057980e+10  4.0803020775171715e+10  1.5544269929008148e+10  8.6691016024317520e+10  1.5725096603519489e+10  1.5640817009683918e+10  1.7212678731386673e+10  1.6830264426158016e+10  1.5615765837673666e+10  1.5583155540629007e+10  2.5935336175672180e+10  2.5823771778145706e+10  2.3955288368879780e+10  2.3079712041867252e+10  1.6634888679847691e+10  1.7232484764542824e+10  1.6719571891470833e+10  8.6418302950669662e+10  2.4592477976871326e+10  5.2552002651399582e+10  3.1792035611988056e+10  6.5388499684199722e+10  1.5592621066619293e+10  1.7214622112742992e+10  1.5640889890932150e+10  1.8133417625061848e+10  1.8907066647673599e+10  2.1138616219097328e+10  2.0241715876814678e+10  6.7126426617986565e+10  1.6500214213153215e+10  2.2926806404770149e+10  4.2942596116126053e+10  2.4454529912674297e+10  2.5245716451470432e+10  2.6396169465811672e+10  1.7980978079868111e+10  1.5702913494530859e+10  2.3040397922210201e+10  3.2253193210508495e+10  1.9511295179651604e+10  3.9867843222793892e+10  1.5615814058754017e+10  2.4811152852042244e+10  3.8132422339843781e+10  2.4530850896011620e+10  1.5610882717868910e+10  4.4436066530979767e+10  1.5630685645692539e+10  1.7051216867854269e+10  1.6584302616779383e+10  2.0345061204115959e+10  1.7560771511393997e+10  1.5561426076378637e+10  3.3220275452536549e+10  3.6229700379170593e+10  2.1445551297388481e+10  1.5687582674291941e+10  1.5643332368943916e+10  1.7092436174110125e+10  1.7269720253057171e+10  1.9803588325542606e+10  2.1685564625414574e+10  2.8204036407566582e+10  3.2164634936849991e+10  2.4985112909600033e+10  1.5632559318067305e+10  5.1080041652959427e+10  5.1359608529395134e+10  1.8484089350733601e+10  2.2207150602547970e+10  2.0788757987667744e+10  3.8196256123773766e+10  2.9506878842857540e+10  3.2953648117546627e+10  3.5229793154006516e+10  2.2776589826462711e+10  1.5663480702773996e+10  2.4345562105536869e+10  3.4579860690346405e+10  5.5815851933210228e+10  4.7401208835804718e+10  4.5107126560514328e+10  2.5908021415170731e+10  4.0093576556110710e+10  3.4450267373558510e+10  2.9113598291611549e+10  2.9536753775757362e+10  1.8859982345009628e+10  2.3300890199852283e+10  1.5659775553704552e+10  3.4077163846776047e+10  1.5582253706713163e+10  1.8550247959652710e+10  2.2948415857949596e+10  3.3278120970942635e+10  2.8750389897518269e+10  2.0527591305689552e+10  6.4513068651025070e+10  1.8630543626776215e+10  1.9943840798351261e+10  1.8770238739457691e+10  2.5591817190842842e+10  3.1319046573037216e+10  3.0917559099277206e+10  2.9300287199862461e+10  1.8542466237435818e+10  8.2750737032776062e+10  4.1522587198563652e+10  1.8238125647576748e+10  3.0276935995145378e+10  1.7580483362861206e+10  1.9404586053809635e+10  1.5798707577556244e+10  5.2147874560510605e+10  8.5167047192103058e+10  1.9328567658692856e+10  1.8379835980067230e+10  1.9915720359685143e+10  2.7365464738270458e+10  2.2205804305163521e+10  1.7115879570143166e+10  1.6803487161018162e+10  2.0370657849329872e+10  1.8969287871777264e+10  4.9035223093343018e+10  8.4337465452587463e+10  2.3868970641663483e+10  2.6414485642830490e+10  2.4164999239545559e+10  2.4221208901846146e+10  1.6631072071261719e+10  1.8158032864401665e+10  1.8230177428191330e+10  3.3924273305513420e+10  2.1529983521958099e+10  3.2987993206542919e+10  1.9734486257241634e+10  1.8530752121722122e+10  1.7135872811826771e+10  1.7412620588734077e+10  8.3571174127863495e+10  1.5611498563664253e+10  3.3330005218872341e+10  2.0461328111995003e+10  4.1265215667605972e+10  1.5624561302040531e+10  2.5698412694797291e+10  1.8262203628353306e+10  2.0912123707498154e+10  8.5515049516488815e+10  1.5516530757410387e+10  3.5201919252941940e+10  5.4252851729234184e+10  1.8163768647405972e+10  3.3200412665708271e+10  8.4601262807686020e+10  5.7751882825163734e+10  2.4498390502341347e+10  2.3158138376068146e+10  2.3680907284369778e+10  1.7715241120365257e+10  1.7154101449354469e+10  2.1951792511048641e+10  7.8568789873020370e+10  2.0359536251208626e+10  1.9533094851755917e+10  1.8058755617636028e+10  4.5056184950460007e+10  8.4658942493527405e+10  8.3912645693686646e+10  1.5553458318986774e+10  1.5630192639267374e+10  1.6644346448878309e+10  1.5556475128709805e+10  1.6565702231750311e+10  1.5614101015423077e+10  2.7505892096972260e+10  3.0889286305953671e+10  3.3532884052164291e+10  1.6606646872635160e+10  1.8505121362104782e+10  3.1458439991110374e+10  2.6327636077270344e+10  2.0310083405846714e+10  2.4374688156215134e+10  7.0212907408887070e+10  1.5557725952675383e+10  1.7166905286305082e+10  1.5572891376259098e+10  1.5640237892249779e+10  3.2420017217119118e+10  1.8743058333978165e+10  1.6615896182438366e+10  2.4665436516218422e+10  2.2802153646419086e+10  2.0783159268397453e+10  2.1077666432471096e+10  3.7720947537909912e+10  1.9331117470886250e+10  1.5597545327788675e+10  1.7380095962962563e+10  2.2106089131961212e+10  2.0812266236840820e+10  2.4602066747595009e+10  1.8193878833408768e+10  6.9509718886739410e+10  6.3770599113945648e+10  7.2110423900682983e+10  2.0943140490297512e+10  4.1887085835460701e+10  1.8145134131999096e+10  1.7747440408386066e+10  2.4573548777912495e+10  4.2110719453707039e+10  1.8861950277103683e+10  1.8428558425850525e+10  1.8244624381831909e+10  1.5635484997950268e+10  1.5676675040221601e+10  1.9817809567502022e+10  1.5586205644418489e+10  3.6304139527518288e+10  1.9527227793397507e+10  8.4656682260187134e+10  3.2892747262212009e+10  2.5975290816206745e+10  4.9679384667400757e+10  1.9761424334368061e+10  2.6741923833661713e+10  2.5019987552477966e+10  2.6736498090397873e+10  1.6467654116699631e+10  6.5125227430816002e+10  2.0235917330572559e+10  2.0871506159460579e+10  2.0089496064911068e+10  2.7237977636871601e+10  2.4854985121726044e+10  1.9279148226761452e+10  6.2699198901919937e+10  2.4619624311245167e+10  1.6446572978430492e+10  1.7853811611834412e+10  1.5515731077142515e+10  2.2829617943127991e+10  3.6752632859345093e+10  2.0904341915951721e+10  1.8757004423037872e+10  1.7148960272413462e+10  5.3760706675924759e+10  1.7187693149211468e+10  8.4320207588604614e+10  6.6693823781503151e+10  1.9766337885941856e+10  3.1716111944766331e+10  1.7410213182531334e+10  6.7193921189204102e+10  2.2924790814678719e+10  5.1821649136623177e+10  1.6510136708683199e+10  1.5627752316197889e+10  3.0931204277172882e+10  2.1155202030339760e+10  8.5159239165479065e+10  1.6727896251511419e+10  2.0499703370559532e+10  1.5511497566505802e+10  7.0842944142595093e+10  7.0334911657277084e+10  2.5866395202825569e+10  3.4387641948224449e+10  3.3027753803751076e+10  5.0893759610981812e+10  1.7802223839965843e+10  3.7129620939885384e+10  1.7693815858588737e+10  1.9198514680893921e+10  3.0698600130876236e+10  1.9381330764084972e+10  3.9883004360619843e+10  1.9099980723896778e+10  1.5500981571657249e+10  1.5592913695957060e+10  3.1136253721995274e+10  3.3381046531886677e+10  2.2275260090061996e+10  1.7902183354070759e+10  2.8836149743125763e+10  8.5036034177962265e+10  3.1018715954705158e+10  3.6107120656303108e+10  2.3834122763011631e+10  2.2064830596396133e+10  3.6621910504523186e+10  7.2916504753809174e+10  1.9663358266767155e+10  2.4446604874792061e+10  2.2881761740953465e+10  2.2407946937182884e+10  3.0172299823543957e+10  1.7722185772676735e+10  1.6624761697933037e+10  1.9494114667981018e+10  1.8689538766013226e+10  1.7831826192922691e+10  2.3145800215794071e+10  4.2232740698022591e+10  1.9638101891342178e+10  7.4922934601351349e+10  8.6412379827183365e+10  1.6809959891115946e+10  2.1677234471356682e+10  5.8408007916287308e+10  2.8513642209966866e+10  2.9639276408153854e+10  3.2610908680797348e+10  2.9046518928552555e+10  3.3812192401349949e+10  2.4131587392744083e+10  2.5756859514368607e+10  1.8311770939655731e+10  1.7973017471645828e+10  1.9580174929393757e+10  2.0891736977538849e+10  2.1221486945677856e+10  4.3849377644100426e+10  2.6063864977628685e+10  1.5515963227382715e+10  2.1418971885266983e+10  2.0152478570354992e+10  1.6751880391226868e+10  4.1162701861288544e+10  1.8765297355042988e+10  2.3177853969495289e+10  1.5675409950936031e+10  1.7202095655680771e+10  6.1218983855606003e+10  1.6500052427779978e+10  2.7661729700459183e+10  1.5772026765725733e+10  2.2721493749089218e+10  2.6445525856852203e+10  2.4751198455193455e+10  2.7331092406351429e+10  1.7736899633297451e+10  2.4130070685078098e+10  2.2434785699541199e+10  1.7924303303386311e+10  2.6291087248556015e+10  5.8520477843456841e+10  2.2193498904438999e+10  1.6474435333156256e+10  1.5569347864391705e+10  1.6994077067667427e+10  1.9115511968984467e+10  4.5296500787380974e+10  1.7385501228664185e+10  1.8088370435977684e+10  1.8939407454013813e+10  2.0900950642512447e+10  2.1983478859551193e+10  2.4856473587046837e+10  2.7424971732135494e+10  2.5230409467031590e+10  2.4395872960864193e+10  2.1360937409082146e+10  3.4672011710450867e+10  1.6909414753800211e+10  1.6266806304187847e+10  1.6556730391701466e+10  1.6574774987318005e+10  2.3179594803268559e+10  2.5395651210889637e+10  6.1258874543499924e+10  2.1116856236486202e+10  3.1883365587319775e+10  2.8637893656667995e+10  2.0450722711348064e+10  4.2558161674626755e+10  4.9347234477190170e+10  1.9385867800170269e+10  1.5497795068601379e+10  6.5079963635960991e+10  3.0126034815543739e+10  3.1237124330547337e+10  6.2311493397128548e+10  2.9609663132937866e+10  4.2020383739791298e+10  5.7602690833004768e+10  2.0733610129955093e+10  2.1812466851810619e+10  8.6542137152202469e+10  7.0095736035793076e+10  1.7379201224639473e+10  1.7000526043451679e+10  1.9620839852005077e+10  1.5902611924157223e+10  8.4897672639163956e+10  1.8497934747784729e+10  3.6949989510932014e+10  7.4263734335900589e+10  2.1743720677142147e+10  3.6935398952110657e+10  3.2773768181166054e+10  2.9039473730214878e+10  2.3321076787606323e+10  2.4904572943403618e+10  5.6138587275969780e+10  5.9120784481611221e+10  5.0818579717018021e+10  1.9831709419918499e+10  2.2829256112498505e+10  1.9240744179844425e+10  1.8522879931565929e+10  2.3425746187182606e+10  5.6535180086099129e+10  5.0821779560386086e+10  8.6672526296699921e+10  2.0145205987816505e+10  1.8810084709180977e+10  7.0013897978217484e+10  5.2431668157517181e+10  1.5556075287512983e+10  4.2641997340254402e+10  4.1916967525635231e+10  3.0091430789850685e+10  2.8657604447592560e+10  2.6475729186914898e+10  1.5493054132558048e+10  4.0890812260328323e+10  3.6205818102712631e+10  3.7058417059308311e+10  2.0983462679434090e+10  2.7383118576795063e+10  1.9507766854890209e+10  8.6970567813313171e+10  2.5317904927603130e+10  1.6964446873160204e+10  1.9197362920641338e+10  3.5186596539141884e+10  4.0969529964962471e+10  1.8558041042717216e+10  2.4210292347688408e+10  2.6279217296750751e+10  2.4110175333240036e+10  2.3368538650104012e+10  1.9023256792736889e+10  1.9573201487644905e+10  1.7099287042461641e+10  4.2990369256934036e+10  3.2890747006334675e+10  2.4321244498744808e+10  3.4450406711312622e+10  8.6539373803512680e+10  3.0558289111670506e+10  2.9117243942914120e+10  2.7571308564163021e+10  5.4287136850127464e+10  6.4687981195034622e+10  4.3779941230583618e+10  3.7243659712861359e+10  3.7710264256551155e+10  2.7577634289352032e+10  8.4826416039667831e+10  6.0436411587499931e+10  2.0214611006758823e+10  6.9680007957735245e+10  2.2975670004529331e+10  2.4176964158077213e+10  2.2597511830331642e+10  1.7743085812981304e+10  5.0155685690737679e+10  5.3936751899895645e+10  4.3193934515890121e+10  1.6805406882576740e+10  1.5627843439290817e+10  1.8539547860111565e+10  1.6479152495065441e+10  1.5586150419522261e+10  2.4199824376712818e+10  2.7369975510551613e+10  2.6899087269418732e+10  1.7434887856876102e+10  6.8573786456734756e+10  7.2165124769178452e+10  1.8608575964931328e+10  3.3972009200037849e+10  5.3059138218791626e+10  2.5205856802036018e+10  3.9813521500331345e+10  8.5188664464412613e+10  2.4586060256426720e+10  4.1575933731144356e+10  8.7444210884845566e+10  1.6940851226013704e+10  1.6537619025833223e+10  1.5530646544650261e+10  5.1758683733243858e+10  6.3947316691238930e+10  1.5552978636476919e+10  2.2298066630814598e+10  4.3891582383421288e+10  4.3207817841850708e+10  5.0423335418189964e+10  1.5590646179395535e+10  1.6626674851012894e+10  8.8114331885428421e+10  3.5686434351260323e+10  6.5391403600950188e+10  2.6385190249711979e+10  3.0422580757771683e+10  5.2674494615239891e+10  4.3237511468045181e+10  1.8431088947872360e+10  2.0662942812827007e+10  1.6945426988690693e+10  1.8630107174338428e+10  3.4449387268997292e+10  5.7430269472322830e+10  7.1310672950114288e+10  1.6390882108742832e+10  1.6883992841261459e+10  1.7873688117395084e+10  1.6386555479593473e+10  2.0502877002021317e+10  2.5586857029245537e+10  1.6344090478000549e+10  1.5430121088584669e+10  7.1456833650068039e+10  8.6448679351284042e+10  2.9887750361818241e+10  3.1716699255095692e+10  4.0527710666050453e+10  2.3793496148999245e+10  1.5851835426217747e+10  8.6694461148341599e+10  1.5530699392384235e+10  1.7931972768060719e+10  1.9010139736422756e+10  3.8115596518844193e+10  2.8240262910659115e+10  2.6071150895301407e+10  2.1044030684420143e+10  2.1817701064950787e+10  6.8113262438385254e+10  7.0486392312740372e+10  3.2900553932879959e+10  1.6939329758144775e+10  2.1817878259770702e+10  2.0920708418065838e+10  2.0065934812837315e+10  2.2225811901773296e+10  2.4283081814327229e+10  3.0085276463588821e+10  8.9004495908917313e+10  8.7130643113897232e+10  1.6415035259091679e+10  1.6518401176390841e+10  2.6223076327753944e+10  5.7563120166547028e+10  2.1913531180348324e+10  6.8375532683288948e+10  2.0865676945399799e+10  1.9854347052941029e+10  1.9048232447987396e+10  1.8523769461463490e+10  1.6893805808092287e+10  7.3580656199962051e+10  1.9089245862000362e+10  1.9826679631839733e+10  2.7396669622208984e+10  1.7801077619993301e+10  2.2042588276861504e+10  4.4401522402733894e+10  3.5537626254903481e+10  2.1655517091655846e+10  2.2544348323979218e+10  3.6878351415126656e+10  3.7818351989974007e+10  4.4089092735799881e+10  2.2868991932055454e+10  1.9033791195054653e+10  2.5657899880871613e+10  2.2115631757049992e+10  2.8470450752456734e+10  5.2036797778318886e+10  1.6599813867560522e+10  1.6353521253754108e+10  1.5484035794405027e+10  2.7530743860833973e+10  2.1656507767767166e+10  1.5563725768927061e+10  2.2694364588625313e+10  2.0597683990179440e+10  1.5598960648618471e+10  1.8940390303726681e+10  1.6632162497495941e+10  4.8695636844572166e+10  1.7750309756821026e+10  1.7579041060168167e+10  1.5490254359286083e+10  1.7292953832566593e+10  3.0675837737766880e+10  1.5519469141294996e+10  2.5968669124333023e+10  1.5788666352853569e+10  1.5543558671949020e+10  2.2992730977784115e+10  1.9930866370146675e+10  1.8300875776127644e+10  1.8873125643120975e+10  6.7711600609917442e+10  1.5466309756443342e+10  7.1805988487446304e+10  2.6331222737221481e+10  3.5067645321682724e+10  3.3272691796935543e+10  3.0381117469657326e+10  3.5170005046865433e+10  1.7424469426066498e+10  3.9069783105304039e+10  1.6568117943926168e+10  2.3157130397578297e+10  1.7225227643160332e+10  2.9862865832150688e+10  3.4283085554140659e+10  1.8732534393769012e+10  1.7683313760969921e+10  2.0946576967303574e+10  1.7095550142086548e+10  4.3750950831833878e+10  1.7346391262293030e+10  1.9494575830971474e+10  1.7999047749431892e+10  3.8320697860274445e+10  4.3487899523582260e+10  2.5537944813524303e+10  4.4021065047888641e+10  1.8734301291579288e+10  1.5620822727353640e+10  1.6556142605986101e+10  7.1381002864873260e+10  7.4404340786778290e+10  7.2355555283060486e+10  1.7624602476016560e+10  1.6634916274825909e+10  1.6350605447958532e+10  1.9268887227832760e+10  2.0467865128325783e+10  4.3180026700212563e+10  3.7415143937438385e+10  3.6253440502516762e+10  1.6259299551230106e+10  2.3263258318987148e+10  4.1590084605302124e+10  2.9988971211896526e+10  2.6092668486708801e+10  4.6675896896431816e+10  1.9528186236918430e+10  1.7869538424728306e+10  1.9190485843046757e+10  1.6383699844208256e+10  2.0327177559807522e+10  1.9276699636586323e+10  1.8901708142195709e+10  3.4277466329738003e+10  3.6815618560542442e+10  2.5225194805582745e+10  5.4933449172319160e+10  3.7574369747560844e+10  2.7239248741719212e+10  1.5550813810861916e+10  1.6931425265849680e+10  1.8396663222338398e+10  1.7605542152825237e+10  2.0247037192584797e+10  1.5459643990178091e+10  2.8074494393424419e+10  2.2276220116056705e+10  1.8721686646839146e+10  2.2491580395822121e+10  5.4256916294845642e+10  2.7491634222407410e+10  1.9858252679543812e+10  5.9790152706927681e+10  4.9268715412429169e+10  5.1126914157185341e+10  3.8110714921170570e+10  1.6284942005764786e+10  1.7575670050365414e+10  1.6333691994777338e+10  1.6209253116243649e+10  1.9994990191806622e+10  1.8595962659634705e+10  6.1500561902250992e+10  1.5903509107752216e+10  2.6701478747551739e+10  2.5429417749160900e+10  4.3322856404580414e+10  2.4890325269700043e+10  8.2252153077572525e+10  2.9963681061829903e+10  3.3345517022803246e+10  1.8454091085049175e+10  4.2491440717252853e+10  3.8293664680370338e+10  5.1912263828791557e+10  8.9536906344557571e+10  2.0643289874374271e+10  3.5387350181430809e+10  3.9356808962741402e+10  4.1927574671451546e+10  3.1042961655879963e+10  1.5578723593912891e+10  2.4031388420900524e+10  1.6161793296018988e+10  1.6744145886181776e+10  4.5608470849068726e+10  3.7644290750641411e+10  8.7035866437408737e+10  1.6471028398175575e+10  1.5478347602555256e+10  3.3571558943616154e+10  3.0408672824279453e+10  2.9477503889015388e+10  3.7431463322096161e+10  6.0768008585669624e+10  2.3799506993717495e+10  2.9862366131063896e+10  2.9352476081737331e+10  1.6407455664776333e+10  1.7743718025196079e+10  4.9667468801592178e+10  1.5801288264080336e+10  6.7573613460480888e+10  3.1024238799211246e+10  2.7422750378605251e+10  1.7498269970700211e+10  3.2373849632937588e+10  1.7641760018988159e+10  7.3149033044716217e+10  8.6587305451174210e+10  1.6355764873393192e+10  4.1378188273984138e+10  1.5471571412333786e+10  2.6228650855820576e+10  8.9850095718215988e+10  3.9523837379994644e+10  2.0367472366105412e+10  3.1212411679704781e+10  1.5593449027845573e+10  3.4896493530991928e+10  3.4316074686140266e+10  6.0868966363073204e+10  4.5468122994529320e+10  5.0357122745017044e+10  4.9899973770924721e+10  5.9206666591412849e+10  2.4595567535633366e+10  1.8623175858201992e+10  1.5572153589399767e+10  2.9640128642934311e+10  2.0776403125126774e+10  2.7982417915218262e+10  2.0660461807637691e+10  2.0768650844124676e+10  8.7277354107158035e+10  6.7101768371083008e+10  1.6397988839781029e+10  1.5483331255258648e+10  1.7115095273793720e+10  5.6989909052731567e+10  4.9237910086012451e+10  5.4617209492492889e+10  2.9916293721750843e+10  4.9441813413915909e+10  4.5595086666168289e+10  3.4493763064132072e+10  2.0670823538937706e+10  4.8817023192499832e+10  2.2233838082023392e+10  3.6520319173935478e+10  3.8433779754339569e+10  2.1173609194465168e+10  2.7160081974972420e+10  2.5638018788884575e+10  2.3977146903206764e+10  1.8821682189568279e+10  2.6994314012163654e+10  1.5627797370136070e+10  4.2274618111994789e+10  1.6581298461758421e+10  2.5096827517380135e+10  2.3402598800939056e+10  7.9014974969948700e+10  1.6457943628278528e+10  1.6639777962048683e+10  1.6360289191796274e+10  1.6394025789235201e+10  1.5535127114405298e+10  1.7085091140203726e+10  1.8829592005217037e+10  1.6760854482401684e+10  3.8635409139822418e+10  3.5050255484132423e+10  1.5461068481296280e+10  1.6412194136027735e+10  1.8067787962498074e+10  2.8944235709801323e+10  5.8479267558837090e+10  1.6320692797582056e+10  1.9845898651866493e+10  1.6415594889445751e+10  1.6787551533867853e+10  1.5548678511386343e+10  2.1872730932372093e+10  3.6225551476313972e+10  5.0080666208567711e+10  1.8206491488202118e+10  3.1286762616194149e+10  3.0749124646571594e+10  4.9818284696030602e+10  1.8117042784119251e+10  3.0538582431598255e+10  2.0895063239625141e+10  2.2420348752745960e+10  2.4286897132337097e+10  1.5443925311064009e+10  4.3774427852910065e+10  1.8480681085022152e+10  1.6064494281583807e+10  4.6755743301342316e+10  4.9119521829887367e+10  5.2975421483636818e+10  2.6659747828926815e+10  2.4293990847615868e+10  1.5429057410215273e+10  1.5488444072292135e+10  1.6389297350659542e+10  1.5560922991986691e+10  1.9476941060800400e+10  2.1866842596798985e+10  2.2655523062245052e+10  1.9421169434443207e+10  3.8705387901898750e+10  4.3022922905612495e+10  4.1921924374097328e+10  8.9319595978211426e+10  1.5432194473791960e+10  2.7574429875161953e+10  2.7787240176461895e+10  1.7196687665871380e+10  2.6071357859323353e+10  1.5822135183177912e+10  2.5722277448031902e+10  1.8792230972554886e+10  2.6224610743308117e+10  1.6599441378289402e+10  2.6240222111261723e+10  1.5411716887042086e+10  3.1494045480152550e+10  2.8029824872843979e+10  2.9332629797402466e+10  2.6396824929795269e+10  2.0937610077845310e+10  3.6877660161086411e+10  2.0693922199003834e+10  2.4266157178704151e+10  5.2063228600334427e+10  2.1657019382981625e+10  3.9129196356344818e+10  3.6668612168525108e+10  1.6391264301511665e+10  1.7416808798383072e+10  1.6620302100885166e+10  2.2406943633654156e+10  8.2248935485684097e+10  5.6774618940803230e+10  6.4761625939039238e+10  8.8185371795766266e+10  1.5430670619521547e+10  3.3339318235289875e+10  3.1181351834458038e+10  5.2967254968186501e+10  1.6221653246790958e+10  2.9648809764526741e+10  4.0057898627717155e+10  8.8066767880981293e+10  2.1868275648680927e+10  1.9014542245970627e+10  1.6347078429178972e+10  3.0536776829743515e+10  1.6241413907305904e+10  2.0305167752711243e+10  2.4445799655538078e+10  2.2445901663121666e+10  6.1254781624429756e+10  3.2210512936769211e+10  2.6813255670539825e+10  2.4632045754812412e+10  1.9694385288578217e+10  1.6782536296581934e+10  1.5450969003173588e+10  2.9962485497973225e+10  1.5403329063253872e+10  6.7300053261559036e+10  6.8904828152666016e+10  6.0129761737036804e+10  2.2291557984435909e+10  2.3034319699029804e+10  3.0464229686272770e+10  8.9682575806338531e+10  2.1565267494071617e+10  1.6499119455682852e+10  2.4299706283991302e+10  2.1836260375086548e+10  1.6405184883428814e+10  1.5582772562945332e+10  7.7032496463450638e+10  5.2693507853442154e+10  6.1165164503924950e+10  9.0124947193999664e+10  4.8763025956218880e+10  1.5574858965167803e+10  1.9001896390834293e+10  1.5554639474996784e+10  1.6302808874602922e+10  1.6451619029750895e+10  1.5334394599228586e+10  1.6433346915923426e+10  1.5495032875685499e+10  4.2362052053106155e+10  4.1842737593994904e+10  5.1789766850604027e+10  2.5066202131827309e+10  1.6292434944218204e+10  1.7818720585503155e+10  7.1230833265489243e+10  1.5422661598235159e+10  2.0419291504466137e+10  1.9984118303444313e+10  3.0816518524178539e+10  6.7970048817842911e+10  1.5419061103998518e+10  1.7552108529134178e+10  6.3596647627533142e+10  4.9277803414659691e+10  2.0067530164673935e+10  2.0581256236567196e+10  2.3075591475330769e+10  2.1653171892317638e+10  2.0703411935283730e+10  1.6386450841127499e+10  1.6243947382840519e+10  3.4776773580899231e+10  3.4717839555578453e+10  1.9452305304988201e+10  2.0826401528811275e+10  2.4149401413648636e+10  1.9523309011251305e+10  8.9549473547911331e+10  4.5514263750581543e+10  5.0939230623644730e+10  5.3724694215217552e+10  1.8984018310487690e+10  2.0037251511238472e+10  1.9017048572008797e+10  1.6587255851339293e+10  4.5916504884576218e+10  2.4216303546684174e+10  2.0796324666533989e+10  4.6908255416344643e+10  5.3354758974285355e+10  5.5011440401014343e+10  5.6486645458659851e+10  4.7317065309594681e+10  2.1211823296986149e+10  2.4884993900807240e+10  3.8969178552311005e+10  3.7606390189797951e+10  6.9687601214044739e+10  6.8717833490943886e+10  2.2972284967885227e+10  6.0159065975092499e+10  2.2823237488774666e+10  5.9281411429351219e+10  1.9813642758417389e+10  2.9116130442113373e+10  1.7983077107771233e+10  1.5508052959756701e+10  4.9226327671659691e+10  5.7817807344336632e+10  3.8156163082974136e+10  6.8769490046360519e+10  1.6941664826944557e+10  3.0453288122342648e+10  2.0492461459723942e+10  1.6621305113271557e+10  8.9253574940306381e+10  5.5918656804223877e+10  4.3713735611526382e+10  2.3651757270429832e+10  5.1790494913749306e+10  1.5379529218650517e+10  1.6180945653947643e+10  4.6302002514905640e+10  2.3216026598054768e+10  2.2153872859486599e+10  2.1813537241609787e+10  1.5395526290299755e+10  3.0193912944870792e+10  2.5602457655950191e+10  2.7161382820112179e+10  6.5711538721417946e+10  2.4555333776616512e+10  8.7891195416002106e+10  2.3490726478875099e+10  2.5305891285040707e+10  3.6016197846616974e+10  2.0047831041158276e+10  2.1697342165451542e+10  6.8491414886764854e+10  9.0095407468070526e+10  2.2148474300054649e+10  8.8733689239269257e+10  2.2861263993194126e+10  8.9445527971750046e+10  1.7191594678766300e+10  5.0228907959929276e+10  7.7474434225859436e+10  6.2713420589916588e+10  2.2223403037425198e+10  2.1335626842745483e+10  2.2327712814472759e+10  4.4724814154447929e+10  3.1509993165457962e+10  8.9959421304492340e+10  9.0122947922627029e+10  5.0894721305955368e+10  3.1005171845672382e+10  5.0767619192685310e+10  2.4267421631961620e+10  7.1562856539449356e+10  1.5385866820921343e+10  2.4644452505938847e+10  3.6908814161327965e+10  2.7351742026920677e+10  2.4281090838921803e+10  3.6898126484495598e+10  3.0292717723765224e+10  1.6307729472338200e+10  3.0241338020401737e+10  3.0636639401358524e+10  1.9527923653687504e+10  3.1918174251405075e+10  5.7249430297773087e+10  6.0548820268748795e+10  3.7145429810854248e+10  1.6799777775638378e+10  2.2122125658947674e+10  2.3191769381314472e+10  1.5442208863289446e+10  1.5474701290444714e+10  1.6601462113421921e+10  1.6376011958581017e+10  1.5430923537215488e+10  1.9158393616678326e+10  1.9226978436109768e+10  1.7990712880620941e+10  1.8829367488419754e+10  2.0011239374702068e+10  1.5432478960034328e+10  1.8074886382421223e+10  2.5601204585202366e+10  5.9829821975935822e+10  4.2648070893655052e+10  4.4192100629640762e+10  4.9447269655538437e+10  1.6779592136725838e+10  2.1260714611858128e+10  2.8399972861765694e+10  4.9667575565019768e+10  2.3323920574416550e+10  2.6884112318283409e+10  1.5380258780128592e+10  1.5457890618742836e+10  7.4722540362312668e+10  1.6457842582161297e+10  5.0308776498476089e+10  1.9130823648906208e+10  1.6967437779993870e+10  4.2341525193984741e+10  2.4396087885082943e+10  2.3529561280889538e+10  2.5913649477042107e+10  1.6580303348401861e+10  3.2285857591073845e+10  2.6409708513376534e+10  2.4012388966854504e+10  1.8833841565206680e+10  2.0950866844877724e+10  2.1948220645811302e+10  2.1887371890995922e+10  5.0195357357206055e+10  4.1378704853663246e+10  3.6315958935876404e+10  3.4694069756304886e+10  3.6223976251994545e+10  2.1869689495105007e+10  4.4690969387924843e+10  1.5383421134427549e+10  3.5256979021191833e+10  8.4694038375440430e+10  2.6572645333118626e+10  2.4540251425780594e+10  2.3766716087337463e+10  2.8986486585904331e+10  2.5415121676237297e+10  2.0444266881081879e+10  2.1878741852845474e+10  5.1023094815043388e+10  1.5444959736339321e+10  5.0542839653922707e+10  1.7349792790959949e+10  1.8520512751284912e+10  1.5391673664390966e+10  2.6466013397880123e+10  4.0882302690434738e+10  1.6570836952525078e+10  1.6122241077672131e+10  1.6944057315888807e+10  4.3642830558566261e+10  3.0562690972865246e+10  2.3628154299647465e+10  7.1557688595045837e+10  1.8118336076559204e+10  2.6414432515584057e+10  1.6235827172646078e+10  7.1517632981795059e+10  7.1369244518433273e+10  1.8459478809380089e+10  2.8897281539466259e+10  1.8717974430283470e+10  1.9451333558166050e+10  2.0883183767894375e+10  2.2401358110504166e+10  2.3703590440503887e+10  1.8189713313645218e+10  1.7265018499577366e+10  1.6846035810583824e+10  1.6453390011913704e+10  1.6192451377021038e+10  2.5456214675350948e+10  2.5051217357901360e+10  2.5767451775960461e+10  1.7384285853461166e+10  2.6757407894505676e+10  2.4588882109754883e+10  2.4855557075550629e+10  1.5438196332688179e+10  3.1330788557239582e+10  2.9542019241757343e+10  2.8104891293412159e+10  2.0910860866047501e+10  1.6990960889862516e+10  1.8797867291478527e+10  2.2931877650233650e+10  7.7883310151636703e+10  3.0557148303712875e+10  4.4088660118284935e+10  5.0968978306894745e+10  4.7168511223604195e+10  2.8535906681209583e+10  1.6251972099886366e+10  3.1434482478765644e+10  2.6850043829980076e+10  4.3482275626158356e+10  2.0301201545782902e+10  4.9220414703733177e+10  1.5544121156073566e+10  1.6144172836239309e+10  2.6807077297251503e+10  4.5818909836607468e+10  3.6820969683910545e+10  1.6372508648452364e+10  1.9056090228780685e+10  1.8361486786209129e+10  1.7177592363740887e+10  1.9820974616916058e+10  1.5869776401012087e+10  1.5395344351811069e+10  5.0339629881671478e+10  5.3243133572898491e+10  1.7554690629912537e+10  6.8093367072636246e+10  2.0570534065983711e+10  1.9059201159405869e+10  2.2625239209458225e+10  1.7787223916478951e+10  2.6279962935861778e+10  3.9414737597521667e+10  2.1231195349737999e+10  1.5463834445689512e+10  2.5720010561384319e+10  5.0018736523236786e+10  5.1117718972535286e+10  5.8288915755557579e+10  2.2722560969926838e+10  2.3115851446950539e+10  3.5435400661424675e+10  7.4594292873613235e+10  3.8537659658213562e+10  2.9126212583465900e+10  2.3409628523921436e+10  1.6723106448900482e+10  1.6264642868434299e+10  1.5443872590942104e+10  1.5402763460819025e+10  5.6038096034623985e+10  2.0317157385383331e+10  6.0785263755412178e+10  2.7687463815863544e+10  1.5371530544514179e+10  4.1069383812975212e+10  2.1343285099960716e+10  3.1966893181286751e+10  1.6296064976117487e+10  1.6176982153574444e+10  7.3968172371408508e+10  1.7446026988327477e+10  2.7149210334057297e+10  6.1185749320238235e+10  4.6896983039162468e+10  4.0580647089403831e+10  3.0946739851648071e+10  2.7252358631147793e+10  1.8626634900838608e+10  2.5371716754843456e+10  2.6202569054921486e+10  2.8565242368083179e+10  1.8369934876513527e+10  3.3499722029416660e+10  3.8544985204514137e+10  4.0130213378281296e+10  1.5497287353462076e+10  1.6697301977563551e+10  2.1609297565726658e+10  1.7588880643195671e+10  1.7649143821907967e+10  1.7883811716118866e+10  1.6844601673888794e+10  4.5267443547199409e+10  2.1713081699456219e+10  4.4517625373950584e+10  9.0536704362999649e+10  6.9803741182971451e+10  2.9278615372172100e+10  1.5380765159066219e+10  4.6827369351475861e+10  5.9523398787660988e+10  1.7171316991573719e+10  1.6457902430493126e+10  1.6315082212469437e+10  7.1770445256005188e+10  3.0084512112454151e+10  1.6357783495675180e+10  2.6733499258170151e+10  7.4006688183700119e+10  2.8739937234154686e+10  3.3546416068972366e+10  1.7963010223479851e+10  1.6291656080765680e+10  2.6400866130437439e+10  1.9502452923599579e+10  2.0966945154255875e+10  5.0456396113335693e+10  2.0539438385138046e+10  2.0683306046202869e+10  1.9940449100124275e+10  1.5381334531993624e+10  1.5577232215364809e+10  4.9214336717336105e+10  3.7080049440611549e+10  3.2880997576944019e+10  6.1007614587700874e+10  1.7530302300235172e+10  3.3962524268115414e+10  1.6980016519270163e+10  4.9461471961463097e+10  4.4577775544314583e+10  2.3561610539623566e+10  2.5751914658937107e+10  1.7253861377891052e+10  1.8155929670602032e+10  4.4133248902853287e+10  3.9961722891691269e+10  4.6975773451996689e+10  1.8125285466522789e+10  1.6032987201525444e+10  2.9559412691232349e+10  2.2750254793253242e+10  5.1221166938236908e+10  4.3420368294776192e+10  3.0304122100903419e+10  1.9765297004965797e+10  1.5431195746675533e+10  1.6147309570488819e+10  1.8491623683550858e+10  4.4359566803187172e+10  1.9389807765293453e+10  2.0808370888899166e+10  1.9754457739494328e+10  1.9201631706947960e+10  1.8033118320207966e+10  1.8464668055576096e+10  1.6997442308056765e+10  3.8813299165558907e+10  7.5448794147158707e+10  6.0714326143472725e+10  1.5472751477127216e+10  1.5360166137648100e+10  7.0785014737014282e+10  1.5419383656863611e+10  4.6560774555075287e+10  1.9923112538976547e+10  2.5385192160187561e+10  2.2388014446668739e+10  1.6270124415820076e+10  2.2399835546875717e+10  2.2515102234536953e+10  1.5360980197582747e+10  5.6899057467685516e+10  3.2124057380247284e+10  2.2811165264777206e+10  2.0422985385509495e+10  2.2920671673383179e+10  5.3504433173707710e+10  2.3438817280126591e+10  2.4494795305267529e+10  2.3793417571946899e+10  2.0230554637701660e+10  9.0703835308136932e+10  2.7303471325486561e+10  5.5066018128199699e+10  9.0703783038372940e+10  1.6340899148399422e+10  1.7318322709114994e+10  2.3059398859914955e+10  2.1567442121553982e+10  9.1077265477658417e+10  1.5350406236222092e+10  3.8536390949471397e+10  1.5386534687565201e+10  1.5409794270655088e+10  1.7213281089273933e+10  3.0616126778239170e+10  1.6625541816534840e+10  1.6170701420821598e+10  2.1988669312551842e+10  1.9766842209350559e+10  2.3545378500332748e+10  2.1758715005148834e+10  2.1258142220518654e+10  1.7356239506904732e+10  1.6682795965511772e+10  2.6766000574504459e+10  5.7839693196125000e+10  6.2891922996216194e+10  1.9996087895004646e+10  1.6903759490154802e+10  3.5448263229093086e+10  3.7203067959937080e+10  3.9050771344555382e+10  3.3233641468266430e+10  1.6469718644608435e+10  7.3846723533759399e+10  1.7962437227413612e+10  2.2700052308397011e+10  1.8905347959578377e+10  2.1962887746212048e+10  1.5421529650165945e+10  5.4425163236235474e+10  2.1963303936442566e+10  2.1938493289053085e+10  2.1003768115357990e+10  1.5439157105364441e+10  2.6793131838720753e+10  2.3141842080297333e+10  2.5099606170558296e+10  5.9894656515288719e+10  8.6522009070409012e+10  2.3341234671877998e+10  3.0569834293469894e+10  6.3558524512600372e+10  3.4329097507310482e+10  2.4247913118347744e+10  2.4824394162774918e+10  2.7170826453543121e+10  3.1003107994971436e+10  1.7412068574480091e+10  1.8757141982956768e+10  1.5342639738813719e+10  4.4736840530318535e+10  1.5359571817664328e+10  2.7106346800988266e+10  1.7262175140149498e+10  4.7247727309619972e+10  1.5330490629999178e+10  2.9208840385823936e+10  3.7255303816887787e+10  1.5742606253009661e+10  1.5334896084287336e+10  2.0862748030864399e+10  2.1185765272265530e+10  2.2530657392812492e+10  1.7660159253492992e+10  4.3033506897512306e+10  2.1144305032242325e+10  1.8216046651314461e+10  2.1638322463034840e+10  2.3727657497918861e+10  2.5903687316143585e+10  2.6764766563599243e+10  1.5397834673012236e+10  2.5795645069008869e+10  2.6752054490781830e+10  4.4937161933512527e+10  3.0216406182667229e+10  2.3627655628418583e+10  1.8340917008085129e+10  2.7755106006284935e+10  1.5340909781900480e+10  2.1716724856924252e+10  2.7690224484332016e+10  2.5558432693935360e+10  2.8038487835054966e+10  3.8579067544213608e+10  3.4275841785352856e+10  1.5340544380358921e+10  3.6140883184476730e+10  5.4883777550653893e+10  1.6949800964602245e+10  1.8058876719176949e+10  1.8059415085538837e+10  7.9727926100124069e+10  1.6188624806743984e+10  1.5369339555899347e+10  2.1080732707965019e+10  4.4818210530179306e+10  4.3818710542223366e+10  3.2685824797491459e+10  4.7081054650362259e+10  2.0978993723467354e+10  2.2715816025333820e+10  2.2249072989998573e+10  6.3603167074239571e+10  2.2631540577575291e+10  1.9363188739927437e+10  1.8305399296588551e+10  1.6890418921704901e+10  2.4242492805283875e+10  2.7190403385977688e+10  1.5430176655177771e+10  2.6039000735104954e+10  2.4755687630359547e+10  1.5386271344629210e+10  3.5397979936156021e+10  3.2041031633432270e+10  3.5014237074169662e+10  3.4202526802660812e+10  7.3830109068209015e+10  1.7370280248671001e+10  2.7788998179104511e+10  2.6870805195457794e+10  1.7145514567921940e+10  1.8457221060611794e+10  1.9512538564965046e+10  2.4694922143055000e+10  2.5966783335726505e+10  2.0215323406967228e+10  1.6069619535940964e+10  1.6914142671814472e+10  1.7013541688291458e+10  7.5743352439395752e+10  1.5391419397789345e+10  1.7881893196756557e+10  4.8720637203216042e+10  4.5231933228224838e+10  1.5371442639751591e+10  2.3677398087394985e+10  1.6537908786960506e+10  1.5374461783105152e+10  2.2395864970736191e+10  2.2135689600258163e+10  1.8352594063632076e+10  3.8469107330449287e+10  3.9945474604510590e+10  3.8621029121519150e+10  1.9347759937697788e+10  3.4247471342334980e+10  2.3362343750051949e+10  1.5373345644484890e+10  1.6524157790550104e+10  3.7338861522124176e+10  1.5398692926126890e+10  2.8283852940008038e+10  2.2548192414225807e+10  4.4857201815485123e+10  8.0400142784534546e+10  1.7209423072448406e+10  1.8583636594152962e+10  8.9626248821110062e+10  2.5960938667997257e+10  2.4349647456480473e+10  1.6343844399153393e+10  7.7944128797541397e+10  5.5809940498903152e+10  1.9186248525436085e+10  1.6325579261038807e+10  5.9099930787533981e+10  2.2080960371875336e+10  1.7803263526504368e+10  2.3024650408884640e+10  2.3895474532366447e+10  1.5427202821463848e+10  1.6996306117792557e+10  1.5963273054837606e+10  6.6143444792434891e+10  1.9585057416676624e+10  3.4797500606904007e+10  1.6035241748123547e+10  1.9040549977671478e+10  2.7463540207057629e+10  2.8444184247038406e+10  2.1433013978883377e+10  2.0138645768098282e+10  1.6273219691504820e+10  2.0539628148667713e+10  3.9944078004136246e+10  2.1367652728735363e+10  5.1137738178568665e+10  1.5431718559085503e+10  2.0973820243247627e+10  7.5402719177876541e+10  2.3689385158445431e+10  2.3207994415108883e+10  2.2180897616059269e+10  2.1309904321229214e+10  1.7848330769290230e+10  2.5255612731365456e+10  3.0389012991424294e+10  2.8324542176211582e+10  2.9815038736695950e+10  2.2104843650272018e+10  8.8047981342666702e+10  7.2959004951365448e+10  1.8770694658010429e+10  3.8244128182057877e+10  2.0860271800217930e+10  7.4182075373860092e+10  2.3997638025164257e+10  2.3963993780950901e+10  2.1982547844480404e+10  2.3460614320051956e+10  1.5388806137221880e+10  3.8717277206535187e+10  2.1628122498213066e+10  1.5395949199020203e+10  3.5058146003674622e+10  2.8576351336876869e+10  2.7761056347889187e+10  2.0471379810854080e+10  1.9998368244690224e+10  4.5101775223448700e+10  4.5076001102759583e+10  4.2715210802436241e+10  2.9773293412759861e+10  3.8952643813894478e+10  1.5402055267602896e+10  3.3685725487769253e+10  7.7751984381148926e+10  2.7003649116418186e+10  3.3907142789125538e+10  1.9694773494594887e+10  1.5397819169100086e+10  1.6193045350756840e+10  8.0411697277185211e+10  7.3632675085440720e+10  2.5854930391902546e+10  7.6531854199236557e+10  3.3385599717533222e+10  9.1517962770669800e+10  1.6503597592021343e+10  1.6650609662569122e+10  2.3704502476119549e+10  1.8658918826462337e+10  1.8107923618849579e+10  1.7247522746553478e+10  4.2427276741781342e+10  3.8487938852524849e+10  1.5346083870759315e+10  1.7461554690176266e+10  1.8785373433593391e+10  9.1089719418175873e+10  7.0362546458852982e+10  3.2268984185875164e+10  3.5730245717869469e+10  6.6364067236339821e+10  3.8778957528308022e+10  2.3159373077885525e+10  3.7349132683458862e+10  4.3198930404325386e+10  1.5400382208523148e+10  1.7057280604621231e+10  1.6110009718531061e+10  1.5436878728900030e+10  1.9910800185457413e+10  7.5129303023823303e+10  7.0930457727278259e+10  1.6338521625177336e+10  1.6000451608651672e+10  4.4494497997004578e+10  1.6212588245834757e+10  1.6507107871521336e+10  2.1640465717156868e+10  2.0612282073458076e+10  5.9745253753468491e+10  6.2991815555330826e+10  5.6200680393155876e+10  5.2522158270179573e+10  2.4278614226991875e+10  2.4138227842346172e+10  2.5000524998981163e+10  3.9959534868280205e+10  6.0847897459796944e+10  6.3878036883902840e+10  4.0314085656611000e+10  7.9285189251129669e+10  7.5850202266454971e+10  1.6078186117199650e+10  3.5318925721039520e+10  7.8434230798259720e+10  2.5219478427128441e+10  2.7404536238187588e+10  2.3730915248737850e+10  1.8542459292468090e+10  7.3100564299394394e+10  4.2499888185411858e+10  2.4398502677894070e+10  1.6532240464542240e+10  2.2412363737377522e+10  1.7091401998523285e+10  3.1302219106433880e+10  1.7023865768444050e+10  9.0829180300318207e+10  1.5350957970964125e+10  4.1834276833260002e+10  1.5498017845181299e+10  7.1403703054672806e+10  6.7067851179838478e+10  1.5360701416564438e+10  1.6408694702004887e+10  3.6156770537989395e+10  4.0920286855038704e+10  2.4284609228557640e+10  1.8443964016964996e+10  1.8916086582405773e+10  4.4498887293884460e+10  3.3891277752956112e+10  1.7710883293400841e+10  7.4722839796022995e+10  3.6881873915045082e+10  1.5412858130579178e+10  2.0604827323498158e+10  3.0563963496270065e+10  2.3971448150336872e+10  4.5848662477066444e+10  6.1588109257947395e+10  2.7426563051093601e+10  1.5622938667924725e+10  2.5567215567653603e+10  2.3063016956892178e+10  2.3427657195404205e+10  3.0483810691174179e+10  1.5388243265395992e+10  2.8942457975522949e+10  2.9328106415551727e+10  2.6263222684110641e+10  3.1216088850239094e+10  3.1107066471047283e+10  7.0755285788465546e+10  2.7026340754613770e+10  1.6387622893502737e+10  1.6420623702794413e+10  1.9369018543261135e+10  3.1155907440077682e+10  3.0302361371318581e+10  4.5394625567831741e+10  3.1102330487987267e+10  3.4482039930764793e+10  9.0838825633579620e+10  2.4581464161283806e+10  4.5018753122751091e+10  2.5820292702496582e+10  2.5331979618522587e+10  2.1388679128141342e+10  2.3799285913373287e+10  9.1208863352685944e+10  1.5411222342219448e+10  2.5033407266107269e+10  4.0264103806115547e+10  2.8065952358135643e+10  2.4083380384142620e+10  7.4788445133349991e+10  7.6691211417005249e+10  2.2128884364732140e+10  2.7982127838954472e+10  3.2554696191481392e+10  1.6230176984834957e+10  1.6338388899635107e+10  2.1365231309860477e+10  5.6142137782660980e+10  3.3305171819247402e+10  4.1035906978026894e+10  1.5345045758788778e+10  1.8785010928361042e+10  2.0757039602167160e+10  1.8753664235119289e+10  2.0074719862872211e+10  1.9936852822986343e+10  1.5478242931178839e+10  5.6189092497375633e+10  2.1615058183480370e+10  2.1470543633371868e+10  2.0411637562739983e+10  1.7906645787471516e+10  2.1869222389331528e+10  5.3409023924453415e+10  2.8306459543613590e+10  1.6888512764548023e+10  2.2267931302063431e+10  1.5394121918291672e+10  1.9362970623535084e+10  9.0259965355206848e+10  3.0511330548833973e+10  1.9014227403891712e+10  1.8016170354923977e+10  1.7404237070791615e+10  3.4992854737278831e+10  4.9836502855014709e+10  3.0675726819795967e+10  1.6048158659107767e+10  3.4241082147480103e+10  2.1131355831995975e+10  2.3706086002498848e+10  7.4850134513558609e+10  2.7976659649037540e+10  9.0287137156936783e+10  3.1533411430381458e+10  2.1343933255929302e+10  5.6957880747532532e+10  3.5303607182192688e+10  1.5355613174940929e+10  2.9833987166068626e+10  2.0203442565406303e+10  2.3293540323596066e+10  1.5343858450573673e+10  2.6116516729356163e+10  2.6884758591310223e+10  4.0173083873350250e+10  4.4589498099549591e+10  4.4817081984060837e+10  2.1612003588074394e+10  1.6951264532129715e+10  1.6649128867110065e+10  1.8272051243277828e+10  4.7846215579558441e+10  9.1283582126377518e+10  7.7267593250982208e+10  1.6783317161601088e+10  4.9858323761317886e+10  1.6733118776623878e+10  1.7667991831763973e+10  1.7708151743571732e+10  5.5356553594343773e+10  3.3250062754465382e+10  3.0693559838662647e+10  2.9337169230476528e+10  1.7974459033984074e+10  1.9005300783944370e+10  4.0094628549504890e+10  3.0280890756224648e+10  1.7031932909698013e+10  1.5309437565435070e+10  1.6312384103125748e+10  1.5308593492043415e+10  3.2473301851055511e+10  2.0982011896928440e+10  2.1773218301478222e+10  5.0178584359090775e+10  1.6308071624142155e+10  1.7924150530590828e+10  1.5435984891599724e+10  1.8193608087208714e+10  5.4495620343917038e+10  6.4965296181893600e+10  5.8093867323028343e+10  2.1152810730311398e+10  1.8321180108278164e+10  1.9000909554673912e+10  1.7754928563219402e+10  9.1874657633571136e+10  8.9837617494309525e+10  1.7669188626462090e+10  1.8123816241054035e+10  1.9146638772918880e+10  2.0096226360060253e+10  1.6316528744919676e+10  1.8876061661407230e+10  4.1611189878341110e+10  2.1278966491072186e+10  3.0200597394540215e+10  3.3149917629803623e+10  3.3527258504755863e+10  9.0432820169597900e+10  1.7987933156969440e+10  1.7586719883563217e+10  4.7764491262496025e+10  3.4496391438617317e+10  1.7975849505371845e+10  5.3070426530775475e+10  6.3462081581005600e+10  1.5352528793570118e+10  1.6162291394987904e+10  6.7544372041979675e+10  4.7181009742209442e+10  1.7587993726434292e+10  2.7347699863798645e+10  2.2825447247227314e+10  9.1329414043180344e+10  2.2489037266357101e+10  3.9833249570586205e+10  4.4252867544720802e+10  4.3218387042018860e+10  1.5328627557101059e+10  4.7599523562995239e+10  1.6468249920478682e+10  4.5485168584074158e+10  4.7053647395301048e+10  4.1967233116108398e+10  1.8970283034878929e+10  3.3014134448816685e+10  1.5393558574488073e+10  2.0531784360830078e+10  1.7648096974786339e+10  1.8637234828584953e+10  2.9727548549094048e+10  2.0359612042186008e+10  1.6972888719410408e+10  4.1973991692080414e+10  1.9846842526158741e+10  1.8419385071399292e+10  2.9625234847985191e+10  3.5693979707178719e+10  2.0844750342575203e+10  2.0019596454983284e+10  1.9094076253020378e+10  1.7175358720710377e+10  1.5478373800325340e+10  2.0866778193116367e+10  1.8087653839099598e+10  2.1182697669141296e+10  3.2495921253147987e+10  9.0412716469060028e+10  2.8364027429164001e+10  2.3611792896613670e+10  2.0718262991079239e+10  2.9967569166661865e+10  2.1402696427190926e+10  1.6785552699165712e+10  3.8177306150952522e+10  6.5081707451107841e+10  6.2233615015117744e+10  5.5053901643033134e+10  4.7393863910957771e+10  2.4935806363865799e+10  8.6685350297979095e+10  1.8384118067373657e+10  3.2958995654295898e+10  9.0823989390091537e+10  2.0554583945326382e+10  4.0974330166196152e+10  4.4791252966750999e+10  2.3509132496343990e+10  4.2525120622332794e+10  2.2666429932205471e+10  3.4061938097916836e+10  8.9733791357454300e+10  7.3114362445705688e+10  1.7224585900810436e+10  1.5334495075783358e+10  3.2309205171700676e+10  2.6720796215715263e+10  2.5782817613605885e+10  2.4882206401040077e+10  3.9095512647878235e+10  2.6138024860995094e+10  1.6133036823981628e+10  7.7270279279082184e+10  3.2944043976247883e+10  1.5365490580223307e+10  1.7561087671451618e+10  1.7952081580834549e+10  4.2383405859168716e+10  1.7096936384072630e+10  3.3011039772991463e+10  6.3111444762459206e+10  6.2518082412825813e+10  1.7382670731705925e+10  9.0840809365575089e+10  1.8661756204814850e+10  2.7362877599003830e+10  2.5408977822106636e+10  1.7223967887565926e+10  3.3034640622251759e+10  2.2124382181530590e+10  2.5035012852442871e+10  6.1581467893140160e+10  2.4945728315502132e+10  2.6471749822470577e+10  2.9340179358215511e+10  1.7802901351392677e+10  1.7404749924461266e+10  2.9162216276056728e+10  2.7405456243261467e+10  4.3582960837404739e+10  2.3978517309802723e+10  1.6676972512261230e+10  3.8317605920559814e+10  1.7581415680979763e+10  1.8372501321323261e+10  1.8666216345456596e+10  2.0011776228311352e+10  1.6176111447427105e+10  1.5524225919013113e+10  1.9396571569496380e+10  1.7592437173283787e+10  6.1452755733601662e+10  1.7372127135046993e+10  2.9074735924270023e+10  6.7404149531513741e+10  2.7350066490083447e+10  5.6650524962487953e+10  1.6261964094634756e+10  5.5370166213311226e+10  1.9237566213030930e+10  2.2905814653708202e+10  2.9566834827726574e+10  1.6036959186273712e+10  1.6336815824502674e+10  2.3724146730139263e+10  1.9179345192027660e+10  1.8667751273552418e+10  1.5295825204608940e+10  2.0916108929990665e+10  2.1352045528347252e+10  3.9102671303055641e+10  5.7020525728283943e+10  6.0566847796521675e+10  1.5368850576675358e+10  1.7702065927065006e+10  1.6040330996511808e+10  1.5308016035251034e+10  2.0104491563604889e+10  2.2202681391637337e+10  4.0125617950384651e+10  6.9324051055306595e+10  2.1120893304658775e+10  3.1542005200339256e+10  1.5374708059789742e+10  1.5997387170354517e+10  4.2421248730965630e+10  3.7229012607515495e+10  2.3436578574862614e+10  2.9765917056690987e+10  1.9955977994793831e+10  3.4227157595246185e+10  1.7973570033303684e+10  3.3668455483856522e+10  3.4307432041884384e+10  1.5906129873984392e+10  1.8667812564586018e+10  2.0590872707533833e+10  2.0348430998417942e+10  4.9931103192581886e+10  1.9845729922426044e+10  2.4121516936051273e+10  1.9737005302659542e+10  2.1196118756503925e+10  4.8879960808308228e+10  1.5907742008466368e+10  3.6500781147860298e+10  1.5410817266906586e+10  5.9440865203213654e+10  3.8757419765375397e+10  1.5831637536395538e+10  1.5411833037321404e+10  1.6095038706024137e+10  3.8493179356616859e+10  1.7589917173728867e+10  6.5138434403058365e+10  2.1709249015254017e+10  1.5740636494998760e+10  1.6203605519985130e+10  2.1364574237764072e+10  1.9976462624554100e+10  6.6789790107285614e+10  2.4437822093261517e+10  1.7003737361090549e+10  1.8857459531447563e+10  4.3931949431138847e+10  5.1856208925827690e+10  2.7531040987933094e+10  1.6057572096943729e+10  3.5170005564375015e+10  2.1161583200776150e+10  2.2270693050184620e+10  1.7705928382613121e+10  2.3849273497708340e+10  2.4600280991347702e+10  2.4292839536633942e+10  1.8898402278304420e+10  2.0120030081328899e+10  4.0204578763066360e+10  1.5496097860284487e+10  3.0466101022331890e+10  3.5485479484065201e+10  1.7032988626747990e+10  1.6112403029394510e+10  8.1610780748585251e+10  2.6841670606584400e+10  2.4073447802690395e+10  3.0018572954538986e+10  5.9711193310082458e+10  3.4789088147044395e+10  1.5303791157023434e+10  1.6341989028837460e+10  1.6046762794683294e+10  1.9340094799456848e+10  3.4617665749014313e+10  2.8220439953117485e+10  3.6318189716217514e+10  3.6664192797527473e+10  3.2807485360171097e+10  1.8074184053213520e+10  1.8596496219459179e+10  1.9028726988171455e+10  2.5567641369174179e+10  1.6530605710364021e+10  4.5454752970143417e+10  3.2316885917264229e+10  5.7754838965182823e+10  3.3947499299320713e+10  3.2437890951166393e+10  1.8539962080156647e+10  1.9816420885284866e+10  1.8961992092702583e+10  1.9283543927062267e+10  3.2137908454138210e+10  2.0179076523715858e+10  1.8866227099501369e+10  3.0854026841483528e+10  2.9315153577957336e+10  9.0054205863256897e+10  7.2555384151103912e+10  2.3806799173314674e+10  1.7957555433970261e+10  1.8031837162367840e+10  2.1116116856820580e+10  2.0093931239575226e+10  1.8985334208118896e+10  4.6161164451552063e+10  5.4111568811032539e+10  4.3184849266035622e+10  4.6778727577005486e+10  1.9123396663114006e+10  4.1929804193971077e+10  1.8235214207957928e+10  2.5421706952425236e+10  1.8011217326759773e+10  2.1054041452862843e+10  2.1870393768644123e+10  2.2820585153420605e+10  4.8579074414223251e+10  5.6883999387784607e+10  3.9847213936646843e+10  4.9645453307440971e+10  6.4376931995917747e+10  2.3745805180962776e+10  3.9510141930174675e+10  1.6527338809196918e+10  6.1833305796530663e+10  4.2459742291533119e+10  3.7099243192868942e+10  2.7222392471488750e+10  3.8835852767514748e+10  5.4053698907930107e+10  2.2396318401839706e+10  3.5853226203644775e+10  3.2653716444700153e+10  5.9366023002179527e+10  3.9464863973087608e+10  1.7628212197197105e+10  3.2998654590173370e+10  4.0723832009178848e+10  2.7221190103180313e+10  2.1750655188840569e+10  7.1549534320389999e+10  2.6335756731316357e+10  1.6287147133022009e+10  1.6135474767503799e+10  2.1652869540507290e+10  2.1046049866162086e+10  2.3081495023687881e+10  7.2503522204751236e+10  1.6188994858283388e+10  2.9208048050596012e+10  1.6177878977111914e+10  1.5387226473642229e+10  1.7682820874653763e+10  1.7540152829539028e+10  2.0185246933419018e+10  7.6388379366909180e+10  7.5969301813588089e+10  1.9986383070304115e+10  1.7669794487369072e+10  2.3207862229405407e+10  2.4489492383190784e+10  5.5160486384891296e+10  2.6015665991425514e+10  2.2866111930110023e+10  2.3346479731006210e+10  2.1732763033402470e+10  2.1366527530912907e+10  9.0140508805305618e+10  3.1903131771130348e+10  2.3046381202013004e+10  3.6104804534008087e+10  1.6070914116472576e+10  7.6312987616404022e+10  7.5874327894381134e+10  6.7641889298363792e+10  2.9380579375599182e+10  1.5320259705067369e+10  6.5740438347533134e+10  1.7588687510960854e+10  1.7252153948391232e+10  1.8436736002535809e+10  1.8477737780701614e+10  3.7961442235397774e+10  3.9394455484050827e+10  1.9205905662665154e+10  1.9773281842241230e+10  1.8344570124106720e+10  1.7402715288160946e+10  1.8249726652341038e+10  1.8850626687813866e+10  2.0626479276830719e+10  2.8832766695987305e+10  3.8451741762691315e+10  2.0459536061506428e+10  2.2081181014819103e+10  2.3833005185485500e+10  1.9658582819527195e+10  2.2158114798660576e+10  3.9327818556397491e+10  2.1793403443462830e+10  2.1844805384081413e+10  2.2767828111476830e+10  1.5377345904655064e+10  2.5866384249695503e+10  3.8642612435244995e+10  1.5996808873051821e+10  3.0370708019371140e+10  1.5925985242602913e+10  8.9571864740154572e+10  1.5391047422083691e+10  3.0049826749998211e+10  6.6071483762493477e+10  5.8454721043362991e+10  1.5796679290829390e+10  5.0530361499909012e+10  2.3491742690097813e+10  2.0696219907833012e+10  2.3690356432894535e+10  6.4444701252711945e+10  1.7407051890503471e+10  2.1826004903122620e+10  2.0140073479523010e+10  3.1243573864218838e+10  9.0086897946908432e+10  3.8300354746973267e+10  3.2113221768370155e+10  9.1094535477153214e+10  1.5271842739589441e+10  4.8878425233860199e+10  6.7929742349263969e+10  2.0098622311044380e+10  1.9421886457515549e+10  3.7985648350774391e+10  1.9559025668722088e+10  2.4525682727713329e+10  3.1401072643279427e+10  1.8228884452084019e+10  4.5606708693101036e+10  7.5336617081106018e+10  5.7305951612242615e+10  6.4618084216291046e+10  1.9108152316822506e+10  2.1024872221857372e+10  1.8113010021834736e+10  5.5474470904406349e+10  2.3864971316940220e+10  2.9739060804102074e+10  3.5614926173511375e+10  6.9003431991763153e+10  2.2623752102322868e+10  2.3270962387121113e+10  3.3626294306990620e+10  8.6816507618366318e+10  9.0586331933798203e+10  7.5372427616422836e+10  2.1231389620739559e+10  5.4391461584193230e+10  3.4372435232444664e+10  1.9191515095297253e+10  2.0643869305995628e+10  2.0939129936989170e+10  1.9560368435842720e+10  2.0115887471015560e+10  1.9772576663044712e+10  1.7574927517969902e+10  1.5911050774621536e+10  1.8813821542597092e+10  1.8990343214616241e+10  1.9493116760266228e+10  2.6767263242689030e+10  5.4722014365758865e+10  1.7651904996325661e+10  1.8590203225060711e+10  1.8251100881443455e+10  6.3790831005577789e+10  2.0591634825552933e+10  4.7326449490517067e+10  4.4094287834815331e+10  2.1746239734892948e+10  1.8429847813451160e+10  1.5951503218646900e+10  1.5966305487720810e+10  1.5295547040756536e+10  2.3832147347410774e+10  1.9671921030684902e+10  1.5350469592329510e+10  1.6160446675458700e+10  2.1224058202112865e+10  7.8236106170528961e+10  6.0309678400245209e+10  2.8195883819363312e+10  2.0951134758869877e+10  1.7435961436062080e+10  1.7058509166144028e+10  3.1018167361766960e+10  2.8691292637264893e+10  2.8802755634141716e+10  4.1354663317979118e+10  4.6540304893435753e+10  4.6739811975338524e+10  3.2864727623705791e+10  4.5405379582587723e+10  1.9620801973232098e+10  1.6758103860680483e+10  3.0243460511542011e+10  4.9761934653179024e+10  1.7709424245258785e+10  1.5401402865464643e+10  1.8182502898724594e+10  1.7091044932452322e+10  1.7208492061405308e+10  2.1131770515412037e+10  6.2121912464938477e+10  6.5710978217203117e+10  1.5814707930391216e+10  1.7118745628675385e+10  1.6180695409190317e+10  2.8005087093500484e+10  1.8551257105972534e+10  1.9858307051672016e+10  4.9435432192865807e+10  9.1867171748265991e+10  1.8197467852283859e+10  1.8910091322564873e+10  1.8947950085693848e+10  2.4454360239232422e+10  3.5676675410519516e+10  3.9927194268075455e+10  1.7429135272511898e+10  1.5801945763590370e+10  6.0576440888254883e+10  2.4673619012428185e+10  5.5910160401736198e+10  1.7210347925199253e+10  1.5408401808047651e+10  1.9308078773927876e+10  2.5845101625987148e+10  3.3152132818782806e+10  1.6310398841050648e+10  4.3636061606583405e+10  1.8174139481488758e+10  1.9437626290857372e+10  3.6330467831647049e+10  2.5538138012506042e+10  2.7743356155356224e+10  4.1519541323443298e+10  2.1005273934060925e+10  1.5940247276471001e+10  4.0771130366051353e+10  4.2427758999268089e+10  1.7675904166292393e+10  1.6895988088027027e+10  2.5629753650432270e+10  2.5150646187003601e+10  1.5408197380884806e+10  3.1152288700932434e+10  3.8852581962060455e+10  4.0930059154716194e+10  2.5944369900095631e+10  2.6792409093412346e+10  2.3677959479476608e+10  9.0661663629587814e+10  1.6500384724708012e+10  1.7081832725472279e+10  4.6485661398404442e+10  2.2998603107490864e+10  2.2669589039633064e+10  2.1049555368089233e+10  1.9635656983976913e+10  1.8274106289544987e+10  1.8521036522029221e+10  1.7278699514576923e+10  4.3301676116677605e+10  1.5288955828198023e+10  2.8947081906680279e+10  1.5283743928433126e+10  6.2719840399548965e+10  6.5032395769488449e+10  6.0350557310461792e+10  2.9779324440610569e+10  1.6942688257642227e+10  1.5402984448641825e+10  2.2841657444135418e+10  2.6489149284191818e+10  2.2830665432303787e+10  1.5386276239190044e+10  7.7950680598220001e+10  1.6663624680549471e+10  1.9708533115712372e+10  7.7003182768333694e+10  7.3293788910294968e+10  3.8132568119127785e+10  4.3782473630397842e+10  2.7249888358464985e+10  1.6330178807421761e+10  1.6236586105631083e+10  7.3955595644641144e+10  4.0118309108525223e+10  2.2719590740166172e+10  1.9677673536429508e+10  5.6528216053113480e+10  7.3234821271221161e+10  3.8473465752489700e+10  1.9314830028568047e+10  2.8090663131920971e+10  3.4186278821631744e+10  4.8157711001442032e+10  4.5877473093080780e+10  4.3402207845866547e+10  7.4279615674945862e+10  3.2003702287364555e+10  3.1253315420568127e+10  2.9810175668686497e+10  1.8733526741470551e+10  2.5216608861899662e+10  1.5756454393047989e+10  1.9015753898954159e+10  2.4951539699299904e+10  3.6829242998014229e+10  2.3801142377311745e+10  1.8384478337145790e+10  2.2016685387454624e+10  2.2794375372801903e+10  1.8040227228601673e+10  2.1743811647086388e+10  1.7489438724759308e+10  4.8634260619092499e+10  2.2950184701216530e+10  2.4063567157719177e+10  2.1495539034754028e+10  3.9439463103005890e+10  2.2152194810746601e+10  2.1481359327125553e+10  2.0433225334609684e+10  1.8053503248116741e+10  1.6810017239364187e+10  1.5375867432255720e+10  2.2146125080980450e+10  1.9043767878267521e+10  2.6211564874769184e+10  1.5381139351159914e+10  5.5721036565398933e+10  3.1697910540025234e+10  2.3021680305535240e+10  1.7017271339841961e+10  1.7954106456378944e+10  2.5908773095557777e+10  4.8029174426907806e+10  5.7417639079215965e+10  6.0835415368362152e+10  1.9122191398368454e+10  2.7485532981655869e+10  2.5751732203981819e+10  2.1647515679851974e+10  1.5975574828693268e+10  4.6700775609836075e+10  1.8157917742732597e+10  4.6373238300131264e+10  4.8093578404347191e+10  2.3415889180244946e+10  7.5849750280411270e+10  2.0111575330679455e+10  6.0522910112370491e+10  5.4255462839582825e+10  5.1639506541414276e+10  4.0989673958883904e+10  2.5906376196466255e+10  2.5144763262577213e+10  4.9972543750981789e+10  3.7882295119034096e+10  3.6213682825756386e+10  3.4436670146234680e+10  1.8358212968671337e+10  1.7859329047990288e+10  2.9974905169071346e+10  1.5326358581659637e+10  6.8891605747155411e+10  1.8201189053185184e+10  3.4633661053666534e+10  2.1971915121536366e+10  1.5525465636616285e+10  3.5630414534666855e+10  2.7877127337449608e+10  2.7780187695828632e+10  2.0959176709450100e+10  9.0289524262990845e+10  5.2950154681223579e+10  2.2454592668959251e+10  2.2414943137945805e+10  1.8339676303289745e+10  4.7114241959081818e+10  4.7147302309584702e+10  1.9723835569272560e+10  1.7292576311791462e+10  1.8147330741420830e+10  1.7815315839082283e+10  1.6896953288913509e+10  6.2912586484664841e+10  7.7131505112402023e+10  2.6961654941783863e+10  2.7704299938256714e+10  2.9695209521619694e+10  2.4688923470246449e+10  1.9744628666012276e+10  3.5799423593942688e+10  1.8703983873341751e+10  1.7492155262709042e+10  3.2885966443330040e+10  1.6783056484909559e+10  6.0648684862868980e+10  5.0956461411417511e+10  3.0351317728560635e+10  1.5372555274082941e+10  5.4918718568995758e+10  2.7196740940847961e+10  2.4694115068222645e+10  2.1416106013041409e+10  1.6321949779846350e+10  1.6334572853809502e+10  1.5961048617318327e+10  6.0275767919646111e+10  2.7188240508148388e+10  3.9552072936231827e+10  2.9497387371570892e+10  2.5197420621683563e+10  2.6552058314532669e+10  1.8007836967229382e+10  1.7832239766912758e+10  4.2780808384476570e+10  4.1556963887656105e+10  3.8455466269625862e+10  4.1475945061315842e+10  1.5372458345641062e+10  1.7566349123437199e+10  1.8627545304543804e+10  1.8431513299715981e+10  1.7555707504797424e+10  8.9954681711431854e+10  9.0380284963336014e+10  1.7845669384434418e+10  5.6690462837736687e+10  5.1198359322944534e+10  4.2662371464630280e+10  1.5419846694014980e+10  9.0415278140877487e+10  1.6981059753311520e+10  1.5968764096826180e+10  1.5371180306024494e+10  1.5289963823682798e+10  6.2693552727150887e+10  1.5359584533391439e+10  3.0939223330189007e+10  4.3078236370996216e+10  1.7422903642978352e+10  1.6069038809530132e+10  3.3527558509673519e+10  6.8634319381962234e+10  2.2090523548091312e+10  2.0712477081089592e+10  1.6236922482826571e+10  3.0415727598208824e+10  1.5398820360313921e+10  1.7696614531052322e+10  1.5834338822688993e+10  1.5293024310745121e+10  1.6235861373711037e+10  5.3110104601071396e+10  1.5335252131455481e+10  9.1734716426467102e+10  1.5310992726694176e+10  2.7591124221579510e+10  2.7312272108023277e+10  2.0675021111667179e+10  1.7079716419109913e+10  1.6507476132989286e+10  1.9987381128450562e+10  1.6023448868374172e+10  1.5344091836090979e+10  1.5870880134878792e+10  2.1369675997634174e+10  2.6574479434526566e+10  1.6760776717000360e+10  1.6881860394453691e+10  3.4659363703741135e+10  1.9953671183142162e+10  1.9963594807973755e+10  1.8609142908147388e+10  5.0518003809042526e+10  8.1600286362712234e+10  3.1025555063632019e+10  4.8044695150194466e+10  5.5983905422267624e+10  2.1524405740187469e+10  5.1700692541637161e+10  1.5303909306801529e+10  2.9923834834607685e+10  2.4560390428703976e+10  9.3138618644418335e+10  1.5853211743210108e+10  1.8050181479134666e+10  1.8331998997401432e+10  3.6547931872076385e+10  2.6932268318135494e+10  2.4559994321587856e+10  1.5870352533996346e+10  1.6100743534308638e+10  1.7531734855545902e+10  5.3090216603420708e+10  9.2359117268789978e+10  1.8005635707640678e+10  1.7917927544637398e+10  3.3555878621699413e+10  3.3395573804637959e+10  1.7539194808491211e+10  1.7205091829144703e+10  1.8243871464233696e+10  1.8924097809255650e+10  1.5944608703858448e+10  2.1601274059120071e+10  2.0318094963000843e+10  2.0049351822034916e+10  3.7633704648814644e+10  2.2359006278803951e+10  2.1618734027276299e+10  6.0587834436399490e+10  2.5747060240277973e+10  2.4229851575580120e+10  2.4512070046124214e+10  6.4226962812524155e+10  1.5296261289549850e+10  2.8765816322258556e+10  1.5463577990013901e+10  1.9540382819720863e+10  1.6009249021575993e+10  2.2485093853294403e+10  2.0010032300927185e+10  1.9625167158062107e+10  1.8734417204709991e+10  2.1214807137604034e+10  2.2047462207570072e+10  1.5279379897872206e+10  1.6158509825625895e+10  2.7138653577605190e+10  1.5287478709924013e+10  1.6281091396870275e+10  2.4612041555732094e+10  3.3115507608218472e+10  5.3624258680970024e+10  5.1420321609054184e+10  5.3275456113391571e+10  3.3013834531328983e+10  4.1474456832446465e+10  1.8874379197610199e+10  3.3044696801337475e+10  1.7791771168858242e+10  1.6748572026845953e+10  1.7098564024994196e+10  1.8879596614007515e+10  1.7854381079378601e+10  1.7878453922064297e+10  1.7530155317419044e+10  1.9928000372211178e+10  3.2240869418035992e+10  2.0659402992316849e+10  4.4095952756431015e+10  4.4851384573484505e+10  2.6548249300872593e+10  5.1313847371471367e+10  1.7231028907189739e+10  2.3807448991522774e+10  2.8704915523189285e+10  6.0602438745293396e+10  4.3461287782573601e+10  4.2977893699550774e+10  5.2046114695644615e+10  6.3400230984985031e+10  7.7343638961863327e+10  2.7578858782597942e+10  2.6087341357493977e+10  2.5823333549006344e+10  2.4254028656278107e+10  3.1197886632271278e+10  2.2139004555789028e+10  2.1493617309983105e+10  2.2994439700146603e+10  1.5277830276809198e+10  2.7191884620404984e+10  2.9825968434925919e+10  2.9295609624796108e+10  6.5771788904408371e+10  2.8003650599873657e+10  2.8555594681416553e+10  1.8367398714019470e+10  1.9067016644599957e+10  4.2965132215262184e+10  2.9625291439354191e+10  4.1718920554063591e+10  1.9536421907055325e+10  3.1986453847405750e+10  1.6903670825553457e+10  3.3812402559831879e+10  1.7093341637443918e+10  7.3214497639393051e+10  6.8083554615528801e+10  7.5902805288855103e+10  3.9807548189152924e+10  9.2741430634564835e+10  1.8594616234312500e+10  2.0966903046238022e+10  1.6257239971554195e+10  1.6344089350105675e+10  1.6890477258286013e+10  3.0648936928940781e+10  2.4433513170161427e+10  3.3248718137360844e+10  2.5034006621132740e+10  2.4845510055481167e+10  1.6032256044501776e+10  7.4813182554382324e+10  1.8731508514422043e+10  1.6148359415269733e+10  1.6061169679632641e+10  1.8543177611491066e+10  2.0233376959413296e+10  1.5404767412440294e+10  4.9809844611599129e+10  1.6707298366633997e+10  1.7005374597013714e+10  1.9154235815962070e+10  3.3741052467880108e+10  5.4293591847303246e+10  3.8998746481132301e+10  1.6214039766732136e+10  1.5254621726951931e+10  2.1058063445133549e+10  1.9306256497173748e+10  3.6334300696231392e+10  3.9906386821114548e+10  3.5907974560318092e+10  6.7836303207593163e+10  6.5019148785482170e+10  3.0584719146559170e+10  2.0088886749930260e+10  1.5338346559557730e+10  4.0614589031632263e+10  1.5978110582729168e+10  1.6387010712275585e+10  1.6107223788540434e+10  1.8085783110581917e+10  1.9165940037915157e+10  4.3699688311338326e+10  1.5302181707786816e+10  1.9744322193840523e+10  1.9293082914812885e+10  5.4050421607021080e+10  3.0730951353868050e+10  2.0500425514696445e+10  3.7530590122330200e+10  1.9184642138869377e+10  1.9860776016701500e+10  5.1501878761489090e+10  4.7658528600255104e+10  2.9265405687702560e+10  6.5043173734934242e+10  2.1330237727455330e+10  2.4839373630168251e+10  2.4864257780132416e+10  2.6148168024339470e+10  1.5356004652052996e+10  5.8902151955212349e+10  2.8450152318783291e+10  7.5012586354017166e+10  1.5460486081233730e+10  6.1362893046285095e+10  1.5330724147907358e+10  1.7092866235529507e+10  1.5259629429841433e+10  2.1037625966528183e+10  3.2722782583884342e+10  1.7311984898364059e+10  1.7840203119525253e+10  1.5267420742856108e+10  1.6464153192836510e+10  2.0963506096858040e+10  6.7984562325701416e+10  7.9784939260209549e+10  7.3932103900605835e+10  7.4620314914406189e+10  6.7688862154044540e+10  3.1529666994916809e+10  1.7178991703393255e+10  1.5788045360213089e+10  1.7701419500271206e+10  2.4788857697572216e+10  1.6165801490932119e+10  5.7588660814954720e+10  1.6228369732831488e+10  1.6553635454422342e+10  2.8422996905557198e+10  2.7775002420278431e+10  4.9959888088061981e+10  2.6882262296865891e+10  3.0243821204507824e+10  1.6957506927980551e+10  3.0552535852859501e+10  3.2940170704028591e+10  2.7005914598068882e+10  4.1777661243993530e+10  7.7003546399572098e+10  3.4287587832660210e+10  2.5268251632178162e+10  5.8098928117768585e+10  6.8581062215663422e+10  3.5438254245765862e+10  3.9422800197187248e+10  4.0665472382940758e+10  7.4287577385135040e+10  6.7599575720115921e+10  6.3649974468234055e+10  4.2627711286810883e+10  1.7671089691454098e+10  1.8099451144237862e+10  1.9525732547020451e+10  4.3716713173189453e+10  5.9812184143403297e+10  5.6675650229858803e+10  1.9017546955992989e+10  2.1250643152416664e+10  5.6512121866657784e+10  7.4637029057549973e+10  7.8144307227059570e+10  2.6716622894343391e+10  1.6086232640804350e+10  1.7926306694390160e+10  1.8705838200329342e+10  1.5354543708842915e+10  2.7269240473595642e+10  1.7704784099469975e+10  3.4245459164710419e+10  3.2953417975379818e+10  3.3370311454889317e+10  8.0495149545967392e+10  3.2009552768256435e+10  2.9302479091723145e+10  4.2345377222095520e+10  3.7638482387726868e+10  4.3123783158628349e+10  1.8959653828915955e+10  3.1076148843095028e+10  5.8098341023823135e+10  1.5981741460826895e+10  2.0485624391165104e+10  3.1000332361198406e+10  1.5256691842356316e+10  2.4764813027559120e+10  1.6515213120991776e+10  1.9003541221409271e+10  1.6760126246156231e+10  1.6797644465415113e+10  1.7821838940026218e+10  3.6643063581224083e+10  9.1869676707330185e+10  3.7942400526408363e+10  2.8408019657168961e+10  2.4417246771659252e+10  8.2887679425522842e+10  1.6239720722653833e+10  1.6123112030016272e+10  2.2220047008987904e+10  1.7980907515442234e+10  2.3419497963918236e+10  1.5959214844322113e+10  1.7078656069904484e+10  3.4112681194144543e+10  3.6336448605117081e+10  2.1827098220091496e+10  1.5357194380253239e+10  2.8372209790926979e+10  2.6743104901052891e+10  1.6116980851246479e+10  4.8429849730238701e+10  3.2953255309263058e+10  3.7704975064459915e+10  6.4845707934191895e+10  5.6435582199601562e+10  2.0930342057000626e+10  4.9511200984937073e+10  4.9639967512474358e+10  5.3316723065781197e+10  2.5808951805196606e+10  8.9740326330183548e+10  2.2221408728540611e+10  2.0285219995587288e+10  2.7663518847670258e+10  2.7944906846188339e+10  2.5835660523005493e+10  2.0656608446586693e+10  2.2084767381708828e+10  2.7903284055897465e+10  1.5260901628643642e+10  1.6053718025421524e+10  1.8990825470850906e+10  2.7795830389333633e+10  2.6203475915694504e+10  1.5771182922095285e+10  4.6579872898831551e+10  4.3330949866314217e+10  4.6422842283087311e+10  2.5554894197962780e+10  2.4898528173963833e+10  4.4289021450718719e+10  4.0019370440504250e+10  1.6675168950455328e+10  1.9948288766035591e+10  2.3269150898644638e+10  2.2379627350837139e+10  2.6461341529946796e+10  1.8653909949151016e+10  3.3213918618571625e+10  2.1863226429601322e+10  9.2010125444162628e+10  1.5818480167295275e+10  1.6109812571412025e+10  2.9836568955980354e+10  2.0211405090146091e+10  4.4757372872711609e+10  7.7010498192150909e+10  5.6409516212030602e+10  2.9538515130404152e+10  2.9235223785405029e+10  1.8661251401710835e+10  1.7434363546511555e+10  1.6926473319316006e+10  1.6539549565320753e+10  1.7588674661576160e+10  1.8690817748201012e+10  1.6083784321848446e+10  7.0648723441638290e+10  6.6268197728028793e+10  2.0697458148737350e+10  1.5990607033322481e+10  4.9696289488346642e+10  1.6097571163771473e+10  6.5534177212227867e+10  2.0726981449653671e+10  6.9403450938413528e+10  4.8743812597429611e+10  2.9211726545970539e+10  6.5458685121343216e+10  1.9547018687835743e+10  1.9622889595651260e+10  2.2844262654997375e+10  5.7822446958877052e+10  2.9870643155223804e+10  1.7470021483628242e+10  5.2805469399140236e+10  1.5267713367982243e+10  1.5375768783954800e+10  1.8317161102467499e+10  1.7829444565283054e+10  6.1574095233008102e+10  2.4437567476314774e+10  5.4929623499060059e+10  4.1323512541479378e+10  4.8375707019026024e+10  5.2149031710611671e+10  4.3027488117696648e+10  2.1031439023781963e+10  1.7176245393088614e+10  3.5876907450822945e+10  3.5460427397662857e+10  3.9883239157090546e+10  1.5888075686094889e+10  1.6794894850745810e+10  3.6599235731078201e+10  3.4812596980110008e+10  4.9943211638256493e+10  7.9177587839824402e+10  1.5254294556092089e+10  6.4890218641392097e+10  2.8738044855492294e+10  2.4332019511113144e+10  5.5417124635211601e+10  9.0024827932299225e+10  2.4598084246043930e+10  2.2583143443737686e+10  2.3258291025900665e+10  5.2929727733936607e+10  6.7013074555943748e+10  2.1618354102971340e+10  2.4811673517831345e+10  2.4429072474740520e+10  2.0582284720530293e+10  1.9891098928434658e+10  5.6023632017209534e+10  5.1348275190690300e+10  3.1069890688276802e+10  2.0509035888024529e+10  1.6757282066504110e+10  2.4236573720455017e+10  2.2746002331403183e+10  2.1638678762103855e+10  2.3617699332095306e+10  3.4082838571708778e+10  1.9403303184772411e+10  1.5276860943982401e+10  6.0135933338311417e+10  2.5542359179753887e+10  2.4647813490114521e+10  2.3598782348257557e+10  1.5895942525707579e+10  8.0921623051808853e+10  7.9880126412834808e+10  2.3093794082751747e+10  3.3145096540193184e+10  1.5392138943326281e+10  3.2405290545714684e+10  1.8071368481962860e+10  2.7775167900169949e+10  2.9326665818445862e+10  2.7360585735559441e+10  2.8559199327916466e+10  6.0282391878624611e+10  3.0726983496822639e+10  3.4331491046546257e+10  1.5255361482733128e+10  1.9419676972263363e+10  1.9952662303680035e+10  2.1080407459292763e+10  1.5425132660983923e+10  1.5979012721323948e+10  5.1992808667306351e+10  1.9909606234591755e+10  1.9229930917154610e+10  1.8352151733786289e+10  1.8002904904552132e+10  1.8817838478702488e+10  1.6363950221617617e+10  1.6841661539935919e+10  1.7458763787409485e+10  2.1745825832678825e+10  5.1911665255210426e+10  1.7398409959938766e+10  2.5399599224323208e+10  2.5113042192205750e+10  2.9714796445578827e+10  1.6957037805260504e+10  1.7448038801744473e+10  1.5353209541738607e+10  2.5120338214215321e+10  1.8499791323435806e+10  1.7908696049535027e+10  1.8903638466244652e+10  2.2586035732103870e+10  3.1177925885991238e+10  1.7054453942469158e+10  3.7585241462213722e+10  2.0558967817992039e+10  1.6163283389198236e+10  1.5358551786078697e+10  3.1375204426651550e+10  5.4646813323403488e+10  2.5586172817008274e+10  4.1513482975146690e+10  2.1689146082158875e+10  2.5202213838823502e+10  2.0506742640916019e+10  7.9965194322824417e+10  2.0150148595683132e+10  3.1962821152277088e+10  3.1647186334583202e+10  1.9187785965632019e+10  1.5399240190906803e+10  2.9514834127268559e+10  1.5244677141258295e+10  2.8357576409211899e+10  7.6420159658543762e+10  1.6555965414276711e+10  8.9174286229899185e+10  9.1380043667571167e+10  2.2301680098300743e+10  2.7972727531615440e+10  1.5307239154118145e+10  1.7226293830662422e+10  1.5311391148052172e+10  1.9658501638758659e+10  2.7029475775116722e+10  4.7279815200272568e+10  4.8825382606930359e+10  8.2270033719580658e+10  1.8524034693665394e+10  4.0817839479178444e+10  1.6897058319233652e+10  1.5334033233218988e+10  1.6727361015409903e+10  1.7546416574527695e+10  2.8099689608837284e+10  1.9843934278377441e+10  3.8950730877518013e+10  2.1880874242075356e+10  1.5352710481325050e+10  1.6119458984129730e+10  1.8062305742090912e+10  7.9278265041569656e+10  1.8425972157377048e+10  3.4838659847563553e+10  4.7361069178014107e+10  1.6691978349432634e+10  1.7982460708849617e+10  1.5873820967499683e+10  5.0155592593593651e+10  4.8797587642456825e+10  2.8512714339371826e+10  8.0465412930741394e+10  1.7041205941224863e+10  1.5963042197878231e+10  1.5330029384537991e+10  1.5414846512329391e+10  2.9175100342900154e+10  4.1179259233227173e+10  2.8883975567944721e+10  2.8038087397128136e+10  1.5956953574278856e+10  2.1806048470598293e+10  2.1366797604602673e+10  2.0256348861523632e+10  1.8137616707859158e+10  1.7629719968551590e+10  3.1380826338139324e+10  2.9636992945591038e+10  3.2180033318692913e+10  2.9970024203721626e+10  3.1470268752003654e+10  3.2640180710705166e+10  7.8274669586185150e+10  1.9750481701083561e+10  1.8611212462161530e+10  2.7124924616672832e+10  1.7019575617681320e+10  1.7850245436383095e+10  1.6977862845230707e+10  1.8682207954950901e+10  1.5918640251096096e+10  1.6328739819051516e+10  2.7527239259786129e+10  2.0347501599190022e+10  2.8994074805951130e+10  2.1134216373192863e+10  2.1630844329623497e+10  6.1213944510773071e+10  1.6014641337000301e+10  2.9933278640976372e+10  3.0755941135158630e+10  3.4695467390675560e+10  2.7434244934734035e+10  1.9297097514706398e+10  7.0612362069877274e+10  1.7330172000556705e+10  3.6386747849534485e+10  4.6670134740529961e+10  2.8583210034983845e+10  3.5223584108078453e+10  2.0987956440128864e+10  5.0068177690432297e+10  1.7710625115897728e+10  1.5892675155305462e+10  8.1777615576814911e+10  3.6542881480784172e+10  3.9546099348994659e+10  1.8342136448504681e+10  1.8403425218018299e+10  2.5529577505863514e+10  1.7473139312547894e+10  2.7794263887837692e+10  2.5783927539150013e+10  2.0187191351514557e+10  1.5226054184410660e+10  2.1673346128449326e+10  6.6649090793764687e+10  2.6428484162516903e+10  2.6900380784949974e+10  6.2942835588635902e+10  2.6811852751039131e+10  3.3805932830244705e+10  8.3809024069297989e+10  1.6615882541661051e+10  7.8849326149864380e+10  7.4197541551497787e+10  1.6966647689096741e+10  2.4653967247292496e+10  3.0027914846239426e+10  1.8088549072712433e+10  1.5307661969886730e+10  1.6776525422418608e+10  2.9072978686041882e+10  2.5124927091253052e+10  5.5670735271666290e+10  1.5388777518951353e+10  3.5566246938042152e+10  1.7586526387547554e+10  2.0364405788716152e+10  2.4952636977755611e+10  4.2261722719575806e+10  1.7810762822152115e+10  1.7117468948724525e+10  1.8058445873063221e+10  9.2791704147560394e+10  1.5344497596943670e+10  1.8469286586605942e+10  2.2389208870427715e+10  1.7347483365687454e+10  1.8167974787803741e+10  2.2875945632048088e+10  2.4321706536701759e+10  2.3107367417747871e+10  2.0264016026005459e+10  2.1676044311425934e+10  2.0582046681543480e+10  2.1716216683052189e+10  3.7903129482339661e+10  2.3072072681696960e+10  2.5855188790186668e+10  1.9415533999912693e+10  2.0364343921812241e+10  2.3651237086349049e+10  2.6739564822387127e+10  2.7945993117552547e+10  9.3524263854511841e+10  2.3117233489396839e+10  2.4824958728111328e+10  1.6729078445752745e+10  1.5421913273919828e+10  2.0674455820579971e+10  5.1516962088782806e+10  1.5319831379446085e+10  5.8290289041162903e+10  5.9973393411395981e+10  2.0409606091138214e+10  1.9968155443404152e+10  3.2490951600598495e+10  1.5677876073646097e+10  2.7813626779068977e+10  2.7125643371443291e+10  5.8904361483551575e+10  5.7809288060664574e+10  5.3127270972617188e+10  2.1623058161865170e+10  2.6592824971234867e+10  1.5989883451155756e+10  3.4081663926291237e+10  5.3038089833113121e+10  2.6830688615839722e+10  3.2645647936319550e+10  4.8274585620215973e+10  1.6609910240397766e+10  1.6871399769838844e+10  3.5070219425677597e+10  1.5358382242143074e+10  1.9209887766884415e+10  2.8887044721881756e+10  2.1710454888691887e+10  3.1945074760367264e+10  3.1531645623540504e+10  2.2512829480872482e+10  2.1237993248179436e+10  3.2947185984775311e+10  1.7340603000947025e+10  1.7624819459132721e+10  3.4284272333529072e+10  1.5690096177791986e+10  3.7981814009212601e+10  2.7265978734736198e+10  5.2818082067523132e+10  1.8009571962701199e+10  1.9273909703806107e+10  5.3203771292467751e+10  1.6766965225733892e+10  1.8512374135458469e+10  2.8102140000145309e+10  1.8599775294084949e+10  1.6840293185278692e+10  2.1281798661243515e+10  1.9949220379993027e+10  2.3490389622778198e+10  2.2122060548079029e+10  6.8656999907137878e+10  1.8912170959076550e+10  1.9901121219371410e+10  3.6297175704977364e+10  7.4033478678129868e+10  2.7197278898334064e+10  2.5010725733199005e+10  1.8167102291105766e+10  1.7155144731286604e+10  2.3008914172784588e+10  9.3156726708280930e+10  5.9952497695702995e+10  6.7085988547482826e+10  2.1466744095671478e+10  2.6954058511594826e+10  3.1361024323387913e+10  1.5356951036930353e+10  1.5026911152833010e+10  1.5329989173504869e+10  7.1357381716647980e+10  7.0738831257591812e+10  1.9062933428291790e+10  2.2385414679660263e+10  2.0139795008925644e+10  2.1890901877861313e+10  1.9043973854408970e+10  2.3395794059522537e+10  1.8753915922093864e+10  1.7798604625704479e+10  1.7489771571292152e+10  1.7590958910613907e+10  1.9726948213284286e+10  1.9604618096203274e+10  1.8843156653222073e+10  3.6082973811807579e+10  1.7237384304907700e+10  1.9020131354237579e+10  2.2031167053052292e+10  2.2839454965673340e+10  2.2550764061377739e+10  2.1147861691278679e+10  1.5499180342184872e+10  3.6185011788169685e+10  3.4579548853980881e+10  2.2052039338282616e+10  5.1806449187929497e+10  4.5732202151664085e+10  3.0189568853758759e+10  3.3613353493205727e+10  1.8649165670198128e+10  2.4184340129363743e+10  2.7109873708040775e+10  2.4969209315156380e+10  1.7641019078748234e+10  6.1627516128879669e+10  2.1507053741996681e+10  1.6421395862473341e+10  1.5760277459716482e+10  9.1626713360872879e+10  1.5346163732565662e+10  2.6895697080084820e+10  3.2736680489137646e+10  1.6835708085483337e+10  2.1899895477373772e+10  3.5658434577390869e+10  1.8247126460512066e+10  3.5936232117108101e+10  2.5452494882953884e+10  3.8941580155736221e+10  1.7784623201662563e+10  2.8932446895607471e+10  3.6450886343289619e+10  2.3263432120302979e+10  9.2217123617948135e+10  1.7998118180421391e+10  1.7351388819439804e+10  1.6735910588533075e+10  4.6970750381252510e+10  2.8472206281217300e+10  2.0597529502371071e+10  1.6127716551006456e+10  2.2032168342461266e+10  2.9596420744494125e+10  2.9557836686544338e+10  1.6584427873428474e+10  5.3016476703961815e+10  2.3750106828175938e+10  9.0494057655906891e+10  1.5988797628905199e+10  3.9153979952691811e+10  4.0809692292544441e+10  1.7404267352866547e+10  1.6732386522909693e+10  1.6180953707743450e+10  1.5939818765724970e+10  6.4791551571843178e+10  2.0785490862389935e+10  6.1080045327954025e+10  2.6066567226301460e+10  1.6297875867304146e+10  1.5384772101932409e+10  3.3248067034203712e+10  1.6858493357945286e+10  1.7145745689490219e+10  1.6692725452316841e+10  1.9211477052162811e+10  6.1353969145448341e+10  2.5944251982146717e+10  3.4637000664190254e+10  1.6855965545569340e+10  2.0957009340360043e+10  1.5220845936495588e+10  2.2761727111160038e+10  2.3667826415739288e+10  2.3081580239026741e+10  2.7532392794706535e+10  1.8050201364627464e+10  6.7767442902075676e+10  1.8778942533593143e+10  3.6024409539205399e+10  2.7627865460172729e+10  2.9115024767793110e+10  1.5677203460616055e+10  2.5678936331572319e+10  2.4728458673954300e+10  2.2951397625434605e+10  2.4197893490670380e+10  3.2372118837865044e+10  6.2582020625723724e+10  2.1864824431482037e+10  6.8015083672912285e+10  1.6073624765275505e+10  9.1544414465988983e+10  2.0352656086301762e+10  2.3835593630937389e+10  3.2921977896805351e+10  3.6273332159756210e+10  3.9909777673384621e+10  7.9457550249610291e+10  7.5479593831298553e+10  2.2006460480673386e+10  2.0921418916021641e+10  8.4283715960095932e+10  2.5058315015896717e+10  1.9373572134958656e+10  3.1765584616952526e+10  1.9990280220240795e+10  7.5147770077235046e+10  1.5345850387220203e+10  2.4864269260628498e+10  1.5811912682894823e+10  2.7376054504034599e+10  2.8550702916097923e+10  1.7425487966949833e+10  1.8508242752143604e+10  1.5866132315432344e+10  1.8990754347804188e+10  2.0028393394985786e+10  5.8158906988597008e+10  2.2776755926242798e+10  1.7245710183636181e+10  7.8401505577075851e+10  1.9366484009608879e+10  1.6959759737651621e+10  2.9309536379172153e+10  1.6039487971233000e+10  1.5977229839559246e+10  1.5299765486255333e+10  2.6781458943444126e+10  1.8702914880097763e+10  8.0129917905239380e+10  1.7641683819707966e+10  1.7777400898084450e+10  1.8160432888477238e+10  1.8359196813229481e+10  1.7495745322038059e+10  2.7585699991471493e+10  1.9057458492296425e+10  3.7854194823235306e+10  3.8540612037300194e+10  2.8996452345757694e+10  6.6352867956992958e+10  1.5407290985092468e+10  7.6781967015909286e+10  7.0205883130924164e+10  2.3904824392426189e+10  4.1297303658334366e+10  2.9601262777233856e+10  3.4523283604639069e+10  1.5867536579713350e+10  4.6484002016723732e+10  1.6282425803933142e+10  1.6661157288767319e+10  1.5248038299503546e+10  3.1783141327239922e+10  6.8239772004578262e+10  5.5012689922215462e+10  3.5777312682803070e+10  1.6739007090543655e+10  1.6336321405585690e+10  1.6041738464255474e+10  2.0409601732663815e+10  1.8448261229863190e+10  4.3807973823385193e+10  3.6420567992267487e+10  1.6864352768789865e+10  1.7269447061688984e+10  2.4209580005308907e+10  2.3135355735660656e+10  3.7664973832724136e+10  4.0494105616246758e+10  4.1699956736321701e+10  3.5111045501459930e+10  3.3491690352822369e+10  1.9988010813782040e+10  2.3381226309972240e+10  1.8077589770395016e+10  2.0560521442795689e+10  1.7503613596663109e+10  2.9424641756084133e+10  1.6697932075062742e+10  1.6462029298951235e+10  1.4908849545037155e+10  9.2771270426775742e+10  2.0538107497886433e+10  2.4380186506544418e+10  2.0343091215111820e+10  3.0795119208065639e+10  1.8452921162736813e+10  1.5227098005593613e+10  1.5962396895882721e+10  2.3806779521950397e+10  2.0735566325426628e+10  1.8190680033913467e+10  2.3042692841261227e+10  1.7812336102122425e+10  2.2470112554937439e+10  3.4439564528807678e+10  3.8355216395608383e+10  1.6208072822497583e+10  1.6814260899929783e+10  1.5826285553310356e+10  2.3487003401145180e+10  2.3863124415748859e+10  1.7807697604363983e+10  5.6634401428697403e+10  1.6678951099915524e+10  2.1390355691203236e+10  3.4365767843177277e+10  3.4811630612941872e+10  3.4429729666241234e+10  2.5323960069096611e+10  2.5115561797819271e+10  2.2037072669996067e+10  1.9148900079990341e+10  1.9613119840498413e+10  8.4171833263036621e+10  1.6120268040186329e+10  2.2007610184400803e+10  3.7105921091346359e+10  3.1546934257268764e+10  1.6432186234914810e+10  2.6360090466818207e+10  2.7498323714734848e+10  2.1098320123395473e+10  1.5882018390880339e+10  7.0466491848652679e+10  5.9921749443683990e+10  6.1019258795760025e+10  2.2065911948912025e+10  2.6727831107685570e+10  2.0459693949797653e+10  2.0945525340040676e+10  2.0171443084971313e+10  4.6508228554274796e+10  2.3701020094088978e+10  3.2046579920018375e+10  8.0045721232109283e+10  4.6427864428316803e+10  1.6586282091670650e+10  5.7030230952035202e+10  2.2803362101441319e+10  4.0571513506826767e+10  5.8324948671791977e+10  1.7492352130346798e+10  1.7375977854608246e+10  1.8056906323619114e+10  3.2644767230868053e+10  2.7764820853312218e+10  2.7966583064970375e+10  2.5987735741523815e+10  2.0164514309821747e+10  1.9432493879592976e+10  1.9325631280875263e+10  1.7475351238793018e+10  1.6817002104911276e+10  4.8366111257970055e+10  3.9863633699247528e+10  5.3959876944415596e+10  4.3050608129457787e+10  1.9377544683517422e+10  2.3537212004793766e+10  1.6771577460546762e+10  1.8002186338118946e+10  3.0479689719201778e+10  3.3541130851794582e+10  1.5383840176575344e+10  1.5950600832134298e+10  2.4111086796755100e+10  2.2815413912047340e+10  2.8106839576072971e+10  1.6038279726651274e+10  1.6047619663730804e+10  3.2049218579764397e+10  2.3605525267533760e+10  1.5226990173516262e+10  2.8308999969653744e+10  2.4188436489638313e+10  3.7462679230904648e+10  4.1422814590101982e+10  4.2019356144008858e+10  1.8086587851623699e+10  3.4723351727328400e+10  1.6614474413071365e+10  1.6355680372352041e+10  1.6236984585549362e+10  4.9082302045426880e+10  3.3742606311248169e+10  3.7248123342298309e+10  3.5366885234540848e+10  8.1448455324331238e+10  9.0259450704805252e+10  1.7232946597846886e+10  2.0852847647721256e+10  2.0445996571943012e+10  3.6252905019182884e+10  1.5948987674192904e+10  1.8968868351561523e+10  1.8984189964702290e+10  2.3947747248747875e+10  2.3259784592834419e+10  2.4879694885219585e+10  1.7287385508611877e+10  5.3364421092876625e+10  1.6632017618154478e+10  3.5414023370717628e+10  3.2533656710511200e+10  2.3171549935624660e+10  2.5551629830156105e+10  3.7488940211067947e+10  3.9463055821097672e+10  4.2357797296093246e+10  4.8197754578543495e+10  5.8770038079370598e+10  1.5323110245425539e+10  1.5971039144467918e+10  1.6085793496048059e+10  4.4729224132437012e+10  2.4518873531935715e+10  2.4515429422022556e+10  2.3103551960810776e+10  2.2258972137495628e+10  1.8253660829677402e+10  1.8912116743149303e+10  1.9338907834192886e+10  1.8643686454687626e+10  3.6507146623293266e+10  3.6019454294238274e+10  3.1207734194543575e+10  3.3745833585694229e+10  9.0950337710349442e+10  3.0161036640594193e+10  3.4146062254040886e+10  1.7265897398941280e+10  8.0797884227537430e+10  3.7418245806860260e+10  2.4466742386879669e+10  3.0459764740712791e+10  9.1268629772289520e+10  3.0213436526732357e+10  3.7457344059433823e+10  2.2472275134194859e+10  3.3687691985740852e+10  2.0054641789676552e+10  1.6416455811647167e+10  1.6795035774802261e+10  5.7279213174668823e+10  1.8240857893076557e+10  5.1917744061575989e+10  2.2461615494282001e+10  2.2957774125250702e+10  2.3531493780639278e+10  3.5010704812902748e+10  3.8261428658563553e+10  4.9501232933940979e+10  2.2402652437069096e+10  2.1608633786448265e+10  2.0946232016248230e+10  1.9287164118966320e+10  3.1522346220676247e+10  1.9006717107618668e+10  1.5352335582229404e+10  5.2547154462562950e+10  5.5038133493119370e+10  4.8345896708374809e+10  1.9210954035399311e+10  1.6994120131874384e+10  5.4431482977176689e+10  4.3136956198059029e+10  4.8905043716440773e+10  4.5594193269008469e+10  4.7710444804369484e+10  1.8031401535487476e+10  1.7770369598093582e+10  5.3351937137552124e+10  5.3993720215879082e+10  2.8846446018482529e+10  2.5237435826937172e+10  1.5356927762014921e+10  3.3489905138951836e+10  2.2020309623069580e+10  2.0360307810889366e+10  2.0694724228148571e+10  1.9680416710439693e+10  7.1942399494085571e+10  1.9102679621836010e+10  3.7215407753492210e+10  8.1910732616907166e+10  1.6161013298512602e+10  2.9594202612614826e+10  1.8774097893166973e+10  1.7933773452974125e+10  1.8515932356980457e+10  4.8379284316289818e+10  9.7959202492831039e+10  3.3045109468485405e+10  2.9535223077313602e+10  3.1803153464070526e+10  4.0116085087747566e+10  2.8561862014877113e+10  5.8450239856271240e+10  4.2154179107345543e+10  2.9826819937953465e+10  2.4624641783861088e+10  1.6353339983710598e+10  4.0322412858127213e+10  1.6174499362775692e+10  1.5845883684088507e+10  3.0354855025786873e+10  3.3737685928315163e+10  1.5948151992924767e+10  2.6168150302952610e+10  2.5211513994100323e+10  2.0008172825793186e+10  1.8612464542214527e+10  2.6623355080274372e+10  3.7608637750158783e+10  4.3090031951987793e+10  1.9339144151789562e+10  2.7264519761202934e+10  2.3112093770635960e+10  4.7133871898616028e+10  2.3734670045254047e+10  1.8592162756414768e+10  2.2072072942164833e+10  2.8748977963793713e+10  9.6702250649410324e+10  4.2668346447555916e+10  1.6094097489841587e+10  7.4753632311419678e+10  7.8239373808662354e+10  2.3480920742841434e+10  1.5452582537088699e+10  2.3157623591978615e+10  2.4939868745076973e+10  2.6163360840673477e+10  1.6851812205722815e+10  1.7717167568058704e+10  1.7635508012276051e+10  1.5770759860876034e+10  5.6250475160224731e+10  1.7127915969128086e+10  1.6029688154330740e+10  3.2706935293423988e+10  2.5547433179242496e+10  2.3478021420026085e+10  1.7144463798745216e+10  1.9821693471637943e+10  3.7300788762625938e+10  4.2113559185803284e+10  1.5283927790466024e+10  1.5995598616778559e+10  1.6050568067296238e+10  2.9436276167238338e+10  5.5567992723771439e+10  5.3584506872607681e+10  3.1221262900093540e+10  4.7324699833203606e+10  2.1164334377968086e+10  8.0409004530079315e+10  7.5282509564417206e+10  2.0800842868473892e+10  3.0879503475187908e+10  3.4878558874754051e+10  1.8405473205587257e+10  3.5378262075906021e+10  1.6713146352734182e+10  1.7204046680047523e+10  2.2019962045952354e+10  2.8999128719979603e+10  6.6758515939314354e+10  4.5629767075318451e+10  4.2624489296390976e+10  7.6414454571983917e+10  8.0231928696121246e+10  3.6001013729732445e+10  3.9669013640819595e+10  1.7206585085946732e+10  1.7726945025804184e+10  4.5119529061650513e+10  1.7052423423684607e+10  1.8482370869619957e+10  1.9166373669073769e+10  3.8384886279786575e+10  5.7038933801458679e+10  4.4146646462808029e+10  1.9757062743491726e+10  2.8817452045059586e+10  2.7475488768407516e+10  1.9159783261040787e+10  1.8511507319346252e+10  1.9531814589775913e+10  1.6011879280323011e+10  2.8937059058637833e+10  6.8397695883451424e+10  6.3145093248873444e+10  1.8577493606420300e+10  5.9210292442504372e+10  6.5570126882736298e+10  7.0092408667025040e+10  1.6746689870139427e+10  2.1153319942244621e+10  3.4846194839720764e+10  3.4452056745492493e+10  3.2136061293941132e+10  1.7506794470125732e+10  1.7398177166433582e+10  3.9220399326131042e+10  8.1216685533231430e+10  1.5217083850114819e+10  6.8391247334418907e+10  1.7119025343713675e+10  4.6100796340439827e+10  7.1925598391028305e+10  5.2124542034972412e+10  2.8212035353880123e+10  2.8005322471778946e+10  2.6757489994220348e+10  1.6215900519251293e+10  2.0489473974929977e+10  2.2292915054478256e+10  2.7813145017983295e+10  2.9442002003638275e+10  8.2414790644178589e+10  1.8492663216508472e+10  2.4350402007574020e+10  1.9497330595728165e+10  3.4640360195098801e+10  3.7702244003360527e+10  3.8681309858007156e+10  3.2120777263063946e+10  3.2552590230148022e+10  5.6138035855291115e+10  2.6515322797912598e+10  9.1869587563913483e+10  2.8132011520305637e+10  2.5181469539520126e+10  2.5245835529511791e+10  2.1978603217785385e+10  1.9124802927447723e+10  1.8741653599105927e+10  1.8172736911584393e+10  1.8925579962942768e+10  2.1934239335221283e+10  1.7333607242668709e+10  1.8925085873099922e+10  1.6758936695486160e+10  1.7323841971489990e+10  1.7221373704505421e+10  5.7976700622949684e+10  2.0774202599377113e+10  2.2873856991676514e+10  2.6933179706470543e+10  2.0608755309290325e+10  3.0441580632130955e+10  1.8471590095573792e+10  6.7117875658782158e+10  6.1830642824473793e+10  1.6505445371680965e+10  2.8316993908040401e+10  2.8520356197467800e+10  1.5698231165191263e+10  3.6328739678133057e+10  5.4462451361466843e+10  3.7964241796412552e+10  4.3103107254880898e+10  3.9846168505440788e+10  4.8904946338505135e+10  1.9862004262910557e+10  3.1877110511157932e+10  2.1416136018473743e+10  2.0588873446225243e+10  5.1364150086647308e+10  6.3223327219342438e+10  3.2605831299377438e+10  3.2866518040912746e+10  4.3759879675827065e+10  1.5592452444779264e+10  1.6539356166263933e+10  2.5255966866925236e+10  1.5274423906702274e+10  4.8518916921026024e+10  4.9262819628852226e+10  1.5207929679842279e+10  5.7486630592435844e+10  1.8238647385522331e+10  5.3806044949303276e+10  3.2309758345981834e+10  1.9965495013890797e+10  1.9359094404220989e+10  3.6229476786962257e+10  2.1909520118832722e+10  2.2555711314473408e+10  2.3411614272411011e+10  4.8276499387910339e+10  4.1646983693625473e+10  2.0430741983369450e+10  3.7223111871171318e+10  2.5201811003485596e+10  8.0195318559315994e+10  9.0189610663856659e+10  9.1819880542866898e+10  1.9682519575708553e+10  5.8658997419165611e+10  9.6397695795230728e+10  9.0180693987482773e+10  4.6621300824421341e+10  3.3460373138312801e+10  1.5838622602530025e+10  3.7649565961844124e+10  2.1172528676229797e+10  2.0048600579478874e+10  1.9578085508474335e+10  4.1286585322829689e+10  3.8559947074730942e+10  3.8608663947568932e+10  1.7937940482299358e+10  1.5230993896370665e+10  3.1916114620332691e+10  2.4718257127211521e+10  1.9284118758029156e+10  2.0268422011829742e+10  3.3007563306640804e+10  3.5094701750444046e+10  1.9643497202137794e+10  9.6550899437405167e+10  1.5493400811228165e+10  2.8110874468067287e+10  2.9470657421434223e+10  1.6809901777174843e+10  1.5321485700985514e+10  2.7070261070296124e+10  1.8663512322953918e+10  1.9713980743555882e+10  2.0604363038240162e+10  1.7932790605720284e+10  1.4932192697209326e+10  3.4757552136157784e+10  2.1192012678559254e+10  4.6147793717557251e+10  4.1505279182518433e+10  4.3183697282184380e+10  3.5558176732129051e+10  1.5890842652707705e+10  1.6235803829004433e+10  5.9735368403005661e+10  5.7867950873580772e+10  3.2649202412446938e+10  1.5282957148217653e+10  1.6636450746096527e+10  2.0024773645439491e+10  2.0139325223983368e+10  6.5577603604363731e+10  4.5154579584121193e+10  3.2859712971583111e+10  1.7612182899449718e+10  1.8097922210588890e+10  1.7794407184520931e+10  3.1579209679578979e+10  2.0482526896961136e+10  3.2213123394017063e+10  2.1456196223733391e+10  1.9237109487045341e+10  2.2200816650515339e+10  1.6736252088189592e+10  1.5633733244678503e+10  1.5332306339095694e+10  2.5946864265869751e+10  2.4183016614927040e+10  2.2706927643535309e+10  2.4701693929558590e+10  2.3850630077622017e+10  3.0554354913088009e+10  5.6223101974725685e+10  2.1482788869059032e+10  1.6829753335786337e+10  1.8279898544961147e+10  1.7851718543152138e+10  1.7118249744316647e+10  1.9648164382433144e+10  2.0028004533376701e+10  1.9853558913905151e+10  4.6014050663479652e+10  1.6734972601339806e+10  2.0075617529634350e+10  3.6953163280958061e+10  7.0004664583004837e+10  6.5837608807241234e+10  5.9627268567574493e+10  1.7397171000144016e+10  2.2547551407019360e+10  3.8089281779167084e+10  5.7503247096938660e+10  7.8810915095825531e+10  1.5343028662865337e+10  3.6435859740331306e+10  1.9072479580161583e+10  1.7269452645338657e+10  4.8237686705594940e+10  1.6312291501663591e+10  1.6003493957324324e+10  1.7369943768679585e+10  3.0661262532345146e+10  1.6862657539991058e+10  1.6876834760898226e+10  2.7186262036392323e+10  1.7205144132184654e+10  4.2127314499891884e+10  4.6205710628258392e+10  2.5397855009035950e+10  1.5637956861091011e+10  2.9988319107518909e+10  5.1720864319699051e+10  4.4991509716507362e+10  5.3411232528371132e+10  5.6932493481452904e+10  4.0718161806608398e+10  2.3845877930466808e+10  3.1384942574966236e+10  6.2841920000642273e+10  4.9427087149819405e+10  2.2027403490241199e+10  9.2423503330997269e+10  3.6612955052170036e+10  3.5318247880294853e+10  3.3077205823952633e+10  1.5812738809450756e+10  1.9584684008659771e+10  1.6379781816632917e+10  9.7986779706491547e+10  4.2141382055805054e+10  4.2286053838040199e+10  3.0581888699781479e+10  2.9166477811410633e+10  2.8960424399644493e+10  4.7002067494498077e+10  5.1645355143097542e+10  6.5130419192763153e+10  2.8238884559682087e+10  3.0582109201477589e+10  1.5636682280659250e+10  1.6530989687833424e+10  1.9070697112263474e+10  1.9644057776861866e+10  1.8781889108440075e+10  2.8212795435575024e+10  3.2249551342024296e+10  4.9215350300511345e+10  2.2208831494325397e+10  2.0337232392459011e+10  2.5003438682817814e+10  1.6540315254757143e+10  4.7482005578703186e+10  2.3471831686052727e+10  6.4189311454086807e+10  7.0588029324504822e+10  1.8363046051964676e+10  2.2173581752737236e+10  2.0662089591897179e+10  2.2279706625275318e+10  2.0877099153411385e+10  2.5917893619551884e+10  2.8927420191525890e+10  1.9827486463076557e+10  1.9349144420102654e+10  2.0758933521379749e+10  2.6285820341451420e+10  1.5003099128489172e+10  4.4488558812007706e+10  2.0844276955932007e+10  2.2391797398042023e+10  2.6617588388051258e+10  3.4095774841461597e+10  2.5722565646243195e+10  1.9983169753445107e+10  1.4948331477621454e+10  2.7260487412119274e+10  5.3570289093939964e+10  3.9506323247990822e+10  4.1715895562447121e+10  4.4799313179846046e+10  2.2773626518912762e+10  2.3226347421152603e+10  2.6600170826273579e+10  2.2631311862547729e+10  9.0386351669802612e+10  8.0707147510292984e+10  1.7012026293371725e+10  1.7796504037108608e+10  1.7575121192179768e+10  1.6383387944006474e+10  2.3587185917050827e+10  2.6434045088462887e+10  5.8907050495723648e+10  1.8386583234900356e+10  3.8190229083869949e+10  3.3585534741457695e+10  3.3767634510113441e+10  2.2061625614755756e+10  4.4077236663001755e+10  1.9405392587754417e+10  2.2753425270919662e+10  1.8714923965631886e+10  1.8026648379293373e+10  1.9057069017320477e+10  1.5784486789238443e+10  2.2011562083883919e+10  1.7640327595346355e+10  1.9530472081289993e+10  2.0209599126661831e+10  1.6157150024584032e+10  1.5372017736688137e+10  1.9971535814436096e+10  2.6193776799201626e+10  2.9762996104639683e+10  3.5857334504560921e+10  4.4472879736080582e+10  1.6290618570686968e+10  1.7010948961208010e+10  4.0012466920464569e+10  9.6631160645578018e+10  2.4447359127626190e+10  2.3716392724080990e+10  2.1164480224841644e+10  1.6907962196248987e+10  7.0368148825393295e+10  2.2301721526682415e+10  2.1261375159285267e+10  5.4713922135701767e+10  1.9975191133011547e+10  1.9344470200152225e+10  2.8229557260088753e+10  1.6255601108592041e+10  2.5568309267362404e+10  1.6120038247795761e+10  2.1107044443615356e+10  1.9772921369068222e+10  1.6648345543431360e+10  1.7232743820919846e+10  1.8930431033896553e+10  1.9958549796238823e+10  1.7463174766333557e+10  2.7887228309273476e+10  5.9464516909220161e+10  4.3507047382787163e+10  1.5959974670940357e+10  1.5327440189556629e+10  2.8211144912925785e+10  1.5846705345050529e+10  2.3323869195513523e+10  2.4966879388682388e+10  1.6776127072736311e+10  8.1258132428606247e+10  1.5318968916753468e+10  2.1158160714692276e+10  3.1377411544191700e+10  3.8939128447538498e+10  2.8026615709508778e+10  1.7109767864827414e+10  2.6512236640341755e+10  2.8938566606917633e+10  3.7681082699865189e+10  1.5551357727942438e+10  1.8717680418633549e+10  1.5931504343887400e+10  2.2263962781165024e+10  2.1664423045131577e+10  6.8787864424517700e+10  2.4510090342327721e+10  3.4476672716692467e+10  2.4722287376051823e+10  2.5731177099683292e+10  2.9249033531185154e+10  3.0969308445434593e+10  3.6838435863769852e+10  2.8606226178071217e+10  3.7672995260464409e+10  1.9621790684592934e+10  2.6866283085823982e+10  2.4821791218135735e+10  1.9081190621733257e+10  1.8478721321179401e+10  2.3907104977212593e+10  5.4327216082811089e+10  5.8689568562296036e+10  1.7683587120950554e+10  3.7028075700815926e+10  3.4965014051169830e+10  1.6445527521951323e+10  6.8911722786880936e+10  1.8510049714409222e+10  2.0088955687722282e+10  1.5390049487301981e+10  8.2466119798048660e+10  2.1132609163953823e+10  1.4948895554125511e+10  7.1165565800225372e+10  2.6735228955446411e+10  2.7995096282382755e+10  3.9046334665594070e+10  2.9660602781659164e+10  1.5342127201319120e+10  2.3029270948310173e+10  1.8232931709478455e+10  1.7978534195060658e+10  1.6118677268653801e+10  1.5827315830520016e+10  1.6548048174333439e+10  3.0474075011398506e+10  5.3614752896307671e+10  1.4989822605430532e+10  2.6674179515668865e+10  1.7766934989115742e+10  2.2595585816048901e+10  2.4327319481113392e+10  2.3548979044497669e+10  4.7633249423629074e+10  1.6175625192989304e+10  3.8969662983381691e+10  6.3615387613050606e+10  3.1613046630708382e+10  7.5667197162305145e+10  1.6084876176846233e+10  1.5314086249943001e+10  1.5317703527841864e+10  1.5869194263083605e+10  2.4299774272877552e+10  1.7800284430952122e+10  2.2449457601173653e+10  2.4069510925872070e+10  2.4185533232924831e+10  8.5690161733789886e+10  1.6190310979135397e+10  1.5922962646677696e+10  1.5849515573353664e+10  1.6868587604342617e+10  8.1354908308951035e+10  7.8996424679869186e+10  9.0294164885185059e+10  2.6198803434600567e+10  6.1871463407275070e+10  2.6108190978574581e+10  1.7172973605076736e+10  7.3191020844574020e+10  1.7747607404652191e+10  1.8948032337660751e+10  1.9663747140218262e+10  1.9425142733094059e+10  1.8497806775946289e+10  3.7776872310944664e+10  8.0634655164443069e+10  2.5718090389793114e+10  3.8480082307615097e+10  9.1351703321438934e+10  1.5015904236636612e+10  1.5205558144035248e+10  2.0699158021714069e+10  5.3188699787837349e+10  3.9133423167617500e+10  3.6816494268893013e+10  3.1673046023174408e+10  2.2219732428260983e+10  1.7469604263919731e+10  1.9627620718730789e+10  2.6963690064913490e+10  1.6314506981948841e+10  1.9525695996371975e+10  2.9579223018965206e+10  3.2966018952690899e+10  1.7811949012125713e+10  2.9894480911876076e+10  2.0836949135631531e+10  1.8213441124658302e+10  1.9734509616319939e+10  8.0171132772708008e+10  1.8747298594847160e+10  1.9694199457043114e+10  6.7629963385414833e+10  1.5323705117716375e+10  1.6729926996231693e+10  5.6218270075099220e+10  9.7773177507305084e+10  9.1600374810959915e+10  1.8936047214275394e+10  3.3524629473581547e+10  3.0316933251381496e+10  5.2615034123183212e+10  1.8877180120691391e+10  2.7366000713565128e+10  1.5045248647877296e+10  1.7653045480130493e+10  1.7625788474928471e+10  1.8317524464276814e+10  1.7940200829520039e+10  1.6228246134819502e+10  4.1531669822702690e+10  3.7550648209718674e+10  1.9005032596188843e+10  2.5620626762515671e+10  1.7398081525150318e+10  2.4017021468791370e+10  1.5715469796359426e+10  3.2160204148214390e+10  2.0374865695780018e+10  2.0883652867898941e+10  1.9801962804149914e+10  2.1442861793814205e+10  2.3070397422332043e+10  1.5035292782143045e+10  1.5326083753773266e+10  1.5275437212127251e+10  1.5293471587083448e+10  1.5003418610391661e+10  1.5344846493430616e+10  1.6075342568277962e+10  1.5406294567520491e+10  2.8279076379912918e+10  2.7209816538052860e+10  5.2089998820038193e+10  1.4920586833844618e+10  4.5743752653218384e+10  9.7649825571573059e+10  9.0144530920505005e+10  8.1962550860495697e+10  9.3084354716120834e+10  5.8399913992567604e+10  6.0698974838900894e+10  2.0659032399181034e+10  1.7256860170297066e+10  2.2447754309312897e+10  7.1311186007185913e+10  6.5149145265587044e+10  2.1489902236747681e+10  1.5840616211749969e+10  3.0621026442905106e+10  2.7539907776388882e+10  2.8536915208579079e+10  2.9011749199863724e+10  2.5672988771365566e+10  5.8188387728601974e+10  3.7428877054067299e+10  8.8025031513936050e+10  1.6170253449498579e+10  4.2712606594031372e+10  2.1132368972278122e+10  8.5606969373230698e+10  3.6396131727105789e+10  3.9041706532179527e+10  3.7580241557513283e+10  2.2642933578929653e+10  4.7255545797733879e+10  3.5984278126594986e+10  2.6054876143771484e+10  2.7114505428666145e+10  2.5400390856352421e+10  2.3082967955722744e+10  1.6447510398314569e+10  2.3019757960245815e+10  2.3373946169338474e+10  2.8208143550134789e+10  1.5050777395374332e+10  1.5315340820994606e+10  1.5277598587986748e+10  1.6139731130094704e+10  2.0065189391213058e+10  1.9047038118919395e+10  1.9529261262529671e+10  1.8580632039944489e+10  1.6343680585509825e+10  3.6246949786774559e+10  2.5396814219132320e+10  3.0180815192402191e+10  3.5121167593462036e+10  3.4355529420063995e+10  3.8313604717040489e+10  2.6067806511425907e+10  2.8820300256268562e+10  4.2217510635881935e+10  1.9764194566342194e+10  2.4040295866825756e+10  1.9528022995135651e+10  2.1796474968891674e+10  1.5993662725620600e+10  2.4797542653165722e+10  3.0603743431121212e+10  8.1475982127434082e+10  1.6640949077279757e+10  3.0272375799009560e+10  3.7062825198456161e+10  6.6209514510279869e+10  5.9754436427390923e+10  2.2759780788795658e+10  2.1873481678981441e+10  2.1031938534984993e+10  5.9707646925898750e+10  3.1459736764633301e+10  3.4614292183310936e+10  3.2976241685535759e+10  2.7137123293788975e+10  3.0747050008614338e+10  1.9622550514991547e+10  2.0249437641048950e+10  1.6198147843933550e+10  1.7403351613608082e+10  8.3931309114737289e+10  3.7816666085948486e+10  1.6888653879819433e+10  1.6027111542563334e+10  2.5854226771403595e+10  1.7524006133203133e+10  1.6141606979922567e+10  1.6755674605859671e+10  3.5570038615299324e+10  1.7316407199028225e+10  1.7549568694474815e+10  1.7101133990778584e+10  4.7678906987089706e+10  3.9398143665914055e+10  1.7381091439367859e+10  2.7480798779756081e+10  2.5544727274009022e+10  2.3895464195316517e+10  1.7631967352876129e+10  2.3127075923946430e+10  2.4554618091835331e+10  2.5053713993812401e+10  4.3497706323370407e+10  2.0453953370914581e+10  6.6573255882573219e+10  5.1792898538673645e+10  5.7954979481727158e+10  5.0929439590373596e+10  5.5263370965721725e+10  2.4974088388846424e+10  2.2251185702023968e+10  2.2484574607818008e+10  2.3365020421918530e+10  2.8323722016748165e+10  9.8008646417532730e+10  9.1444459522578094e+10  2.6206566458474716e+10  2.5041248798251942e+10  2.7247188245207996e+10  1.8304408743919155e+10  1.9418471822770004e+10  3.5491975252618492e+10  1.5979998433053444e+10  3.2297447835153912e+10  5.0136042005075302e+10  2.6388832407377018e+10  1.7383952185376396e+10  3.5512299232373177e+10  1.5305393912987997e+10  4.0031819280165176e+10  4.2386636084755661e+10  3.9723339529163521e+10  4.0568678861930946e+10  1.7101458726665249e+10  1.5716094168557877e+10  1.5322148297421040e+10  1.5337949718689930e+10  1.6020645165052664e+10  1.7296697887060635e+10  1.7704029138005062e+10  9.8055542064655869e+10  1.5854145497273361e+10  3.7724488299063431e+10  3.9574923636534096e+10  2.1786242112987343e+10  1.8561099406608170e+10  3.0525817274188869e+10  1.6251060659039631e+10  2.5418635691528187e+10  6.3173165524213631e+10  2.2965121316431969e+10  1.9471021220956604e+10  1.9083124237839447e+10  6.2952605437469330e+10  2.3106203778373539e+10  2.4745338040706837e+10  2.0899400750636795e+10  1.9693529297609844e+10  1.7136793121040411e+10  1.8376337800150261e+10  4.5717740855117943e+10  3.0240496356584358e+10  3.3473766742328930e+10  7.4225146299531357e+10  9.7388138220648285e+10  2.5886058265038719e+10  2.1355121053746872e+10  1.8759056170644272e+10  2.2623215048035782e+10  1.9342621520209152e+10  1.9948916816761917e+10  2.0544592488854404e+10  1.9425342727167984e+10  2.4117978708522968e+10  1.8977926621930370e+10  2.2139441117876553e+10  6.1274504255362259e+10  1.5829831830121410e+10  9.0875478939073685e+10  8.1865961656274872e+10  2.1927142815207325e+10  3.7101231223913521e+10  1.6846244383713112e+10  3.5946758752965714e+10  3.4724050117209045e+10  2.5126413544358986e+10  3.8848830909662148e+10  1.6912018326286776e+10  1.6331309137555563e+10  2.2171424752290638e+10  1.4983574894253700e+10  1.5735455194073496e+10  1.5244095252973747e+10  1.5973074037168526e+10  1.5403032189882128e+10  1.5291761031538727e+10  1.8013351538908649e+10  4.6448601172518730e+10  1.7093403881517311e+10  2.0368208989570999e+10  2.0334798391863914e+10  4.3701614613660385e+10  1.4991508930512465e+10  1.5327819009918648e+10  3.5943938606280884e+10  2.2674277694689499e+10  2.0473043722278236e+10  1.6782008418794191e+10  1.7040051092077147e+10  1.7408178898476830e+10  2.2407508766830383e+10  2.3448482368880840e+10  1.6965065890416498e+10  9.0794371034497787e+10  2.3408437842561493e+10  2.2425532845396072e+10  1.8605783756851505e+10  1.6354494065221506e+10  1.5331394412836578e+10  1.6981635063506538e+10  2.9481469160052265e+10  2.6839497358952469e+10  2.8821832556726673e+10  3.5593051832052216e+10  3.4473077222048645e+10  6.6056917875812187e+10  4.4431727160963776e+10  2.5807989131587364e+10  4.7951727129201584e+10  2.2840635640821598e+10  1.5343307060032278e+10  1.9102214016071766e+10  2.2527345128039234e+10  1.5003511473326693e+10  1.5608867415304613e+10  4.5689726768812363e+10  7.7974643195572098e+10  9.1453842676577850e+10  9.2924139940444168e+10  4.8419876024499733e+10  4.6834566305775673e+10  4.9126616452847496e+10  2.2847041900986275e+10  2.2054041445596886e+10  2.0496418589790981e+10  1.9154609994019321e+10  1.9534948083985615e+10  1.5992712650730335e+10  1.5219958666036564e+10  4.3327926442957512e+10  4.9518661721557236e+10  2.1418229773244652e+10  6.3629344723375221e+10  1.6470263754954252e+10  2.9803493661136543e+10  1.9229119401265686e+10  1.9820107856499840e+10  2.0420169869464729e+10  1.5336925646533125e+10  2.6697076482529919e+10  1.5831417211899246e+10  7.9730945571301224e+10  2.3616519739929314e+10  2.2310568847923286e+10  5.7565551101581757e+10  1.6067743727919542e+10  3.5082797052469063e+10  1.5195443071640928e+10  6.6254891631598930e+10  1.6416623827583818e+10  3.1952147669539970e+10  1.8965314933029354e+10  3.5630467000473572e+10  2.8682086188908043e+10  2.1553166215895145e+10  1.5753254747459389e+10  2.0466616146420162e+10  1.9705079086915672e+10  1.8439338913901039e+10  1.9564273291571789e+10  4.7784603776371910e+10  4.5397975384166046e+10  1.6227972892540018e+10  2.5262655053355129e+10  1.9564141277715069e+10  7.5022865892428406e+10  2.0485136386429466e+10  3.1299326001726276e+10  1.6537447599278763e+10  1.4974045870435503e+10  2.2393422859276031e+10  3.7427291142646828e+10  1.7574089900487194e+10  1.8668972749825333e+10  1.6234895956954653e+10  2.6346767698521221e+10  1.6846947565519997e+10  2.3644634572848248e+10  3.5052539241768501e+10  1.5842313222289143e+10  3.0252367104272137e+10  1.6798722668034302e+10  3.0581889380221745e+10  2.2666565768434933e+10  2.3027580878345604e+10  2.4098813602581512e+10  2.2191353758057976e+10  2.0054744841671284e+10  2.0723282546400459e+10  1.5289606059505939e+10  4.9483004183453720e+10  1.6662578509560116e+10  7.7769224144139709e+10  3.9443833410481697e+10  3.8644490885398811e+10  4.0551689118082893e+10  1.7471075944122864e+10  2.5633201713188229e+10  1.6806191843001909e+10  1.8904744046550350e+10  3.2888903470184139e+10  4.2264311493452629e+10  1.9844432665628956e+10  8.3848087574619156e+10  1.7707936051015285e+10  2.1432422452180157e+10  2.1482776922720501e+10  7.3371757513458725e+10  1.9901807317372715e+10  7.8690306017046097e+10  9.1541392805675034e+10  9.1693821329598160e+10  3.3145666940756493e+10  8.0711317192180298e+10  9.1940739014081238e+10  9.0722580342370728e+10  2.0602956620486057e+10  3.1407594483326157e+10  1.7506357460941078e+10  2.1581802175655289e+10  2.3800789935351574e+10  5.4529245379871651e+10  2.7845336820347137e+10  3.5055417183651993e+10  1.8372775605266705e+10  1.4977954807189880e+10  2.9150774472871746e+10  2.7964387888872295e+10  2.5530060975991940e+10  2.1011012241473743e+10  4.1862267153187256e+10  3.7631359956214027e+10  4.0015825582399719e+10  2.6693209867908421e+10  2.8392268915594444e+10  4.0396838281635155e+10  1.6307812416075726e+10  2.6246411853856720e+10  3.6369824252056915e+10  1.6020251945261417e+10  2.2043017736041477e+10  1.6626147935930347e+10  1.5742736602718822e+10  1.5723817261556999e+10  3.1129542283893028e+10  2.1208056685286316e+10  1.6570055304047972e+10  1.6360916590695309e+10  4.0031496535809776e+10  5.3770086103380745e+10  3.4064197689678478e+10  1.6380366103052456e+10  1.7644851762302891e+10  4.0266091124224739e+10  1.8343147879172348e+10  3.3429043617302921e+10  2.2369566014516232e+10  1.7912854628146694e+10  3.0935904593148235e+10  2.9533894730762444e+10  1.6293377133117754e+10  2.8197287754862808e+10  2.2090546378402416e+10  4.9367944366494926e+10  2.4560818901288834e+10  3.2827897588340286e+10  1.9539931407877563e+10  1.6638373821031063e+10  2.3120128531421310e+10  2.4071826749753414e+10  2.5826011126470787e+10  2.2560185001268787e+10  2.5998736697610390e+10  2.2747887064252048e+10  1.7038596096117958e+10  3.6213395028340042e+10  1.9646596435741135e+10  3.3863638688921726e+10  1.9598598472011009e+10  4.7256577473526588e+10  1.8100360491301174e+10  2.0732741858810623e+10  1.5316131989438065e+10  2.9760277049350662e+10  1.6744156443929926e+10  1.6976230270888399e+10  1.6090291817095573e+10  2.0984345303549419e+10  2.3748198879650574e+10  1.8464423879364288e+10  3.7355277481709839e+10  1.9501844520322941e+10  2.0674792025483307e+10  2.2996373939070473e+10  3.1940789922135201e+10  8.3976171224701385e+10  2.0903155621182972e+10  1.7043852547782623e+10  1.7333706933669369e+10  3.5056625978982368e+10  3.7092384535872902e+10  1.5923804058538424e+10  3.6383417507978951e+10  5.2032188487134972e+10  1.5903278174936373e+10  3.8061120412593140e+10  3.1929230590251854e+10  1.7364738454502087e+10  1.9279547736904854e+10  2.4451242886454884e+10  2.4183700045279312e+10  2.6227555212119236e+10  2.5530761971780140e+10  4.2778964899810135e+10  4.0350707617677483e+10  8.2811215217868240e+10  1.5028964725412405e+10  1.5323395917877316e+10  1.5901865961096169e+10  2.9573843004647579e+10  2.8131762721280025e+10  2.0939505330534424e+10  4.7992477838544937e+10  5.1095486619963089e+10  2.5181290276594296e+10  6.3156376733840752e+10  4.1056125773966652e+10  1.5243006680029030e+10  3.6535090877155052e+10  3.9018539863095299e+10  3.9176149572078423e+10  3.0764497508563469e+10  5.2864581846168388e+10  3.2770007395176426e+10  3.2915895545376564e+10  5.5245723969567940e+10  3.7322438281590546e+10  6.6579444871613518e+10  1.6406035556191820e+10  1.8755450797770405e+10  2.1515385774975224e+10  1.5848131921947950e+10  9.3375241145603851e+10  2.1386165908578621e+10  4.6856275731662407e+10  1.8436571004867393e+10  1.8340026411511108e+10  2.6250476426923740e+10  2.5124432559727318e+10  2.5950527648484684e+10  2.7502376055974770e+10  3.1335744284478394e+10  3.5132901704592575e+10  8.0100684834471909e+10  1.5278460880650080e+10  3.1179227186335102e+10  3.4618919974584793e+10  4.2210701698531792e+10  2.7541628308304157e+10  2.2384144152180504e+10  4.6050762464475487e+10  4.3829996817518982e+10  5.4197595346359306e+10  1.5662109317480787e+10  1.6092822344880970e+10  1.5831834092190920e+10  6.3379256878045738e+10  6.4728169952551338e+10  4.5695582791342056e+10  2.1309253295168953e+10  2.1898700994180187e+10  1.5277293556409525e+10  1.6097599704462837e+10  6.0091581651711243e+10  3.1421347267534393e+10  9.1390959174982315e+10  2.3705416140002502e+10  1.7847900506762909e+10  1.7579005273085186e+10  1.7952979504156792e+10  1.6884418747459175e+10  1.8856658249135677e+10  1.7943058566242989e+10  1.8276359039351364e+10  2.8585903986390995e+10  4.2263655681000366e+10  1.6299623521474527e+10  3.8667406133086685e+10  1.8159480932578712e+10  1.7680728770627140e+10  5.6320446496765129e+10  5.0972087287792084e+10  4.0797348276718452e+10  2.1585918860345043e+10  6.6409647700336266e+10  5.8056245898140953e+10  1.7635234294961250e+10  1.7158062519866690e+10  3.4761201050886414e+10  1.7650287724368607e+10  1.7355029422798233e+10  1.7183345876378742e+10  1.6570521737168259e+10  9.7953777702277725e+10  3.2056241890836735e+10  1.5268332741453154e+10  1.5809529052683571e+10  1.6572555179209852e+10  1.7055763097694899e+10  2.4442497631425491e+10  2.1748580631561394e+10  6.9379440550161713e+10  2.3294369710574280e+10  2.2814124099248028e+10  3.0175303851510792e+10  7.2883628611717087e+10  4.2990096669039833e+10  1.6501429314154158e+10  3.6316438100857193e+10  3.7768202456972969e+10  3.9934782709981697e+10  2.6229652277514893e+10  2.7099925719429611e+10  4.0013412357555862e+10  6.0016593633346970e+10  4.1442087403626770e+10  1.7026821050967936e+10  3.3946682140922447e+10  3.9148019279128860e+10  4.1805862970235687e+10  5.6812988683651756e+10  1.8286309134471954e+10  7.6586807276626282e+10  7.9787484548307495e+10  5.8240569111439697e+10  2.3469526590452461e+10  1.6009106591058867e+10  1.5963259753904869e+10  1.5287618151418470e+10  2.0962465314701130e+10  4.8884014990406303e+10  4.0058577981191879e+10  6.0838421634877388e+10  1.5306791306704964e+10  1.5595504900322172e+10  6.2201641204178894e+10  2.0125377462628841e+10  3.2421158141302193e+10  2.2820470229377502e+10  4.2547168795577599e+10  2.6145383854205711e+10  4.9246263196722786e+10  4.6118772056054420e+10  1.4929376270802317e+10  3.5427786462201309e+10  1.8848044510890614e+10  1.8015970282163811e+10  3.4831971635027824e+10  2.9411884213439270e+10  1.8438316745118801e+10  1.8795651807311428e+10  3.3780903380973267e+10  1.6928203170147062e+10  1.5652735092867043e+10  1.6102166063997833e+10  1.9273881069878410e+10  6.4721155256857391e+10  2.2257611258930618e+10  1.6448744051504883e+10  4.8956599463151360e+10  3.1329811126617733e+10  1.9103451672281139e+10  3.2934380372816410e+10  1.6137627965334650e+10  1.5206106994660772e+10  1.5685755916362053e+10  1.7369883090508686e+10  6.6538256727160858e+10  6.0063717846718536e+10  2.2376983645998577e+10  1.6475485567193195e+10  4.4593551666591209e+10  6.8616531631305153e+10  1.7345983131260288e+10  1.9133270946708134e+10  1.8881348090219814e+10  1.9476314879678551e+10  2.9318566977759865e+10  1.6667291537930077e+10  6.0102041214870377e+10  1.8345467836988754e+10  1.7633613132158360e+10  2.6298375141771072e+10  2.5123029790750504e+10  2.6866388458696781e+10  1.8304666790546516e+10  2.5577903031667183e+10  4.3004208074875870e+10  4.7100241264288628e+10  8.0260772311585190e+10  4.3384834778077324e+10  3.0679325626857044e+10  1.5297737940099894e+10  7.2152888853232834e+10  3.7528099203173615e+10  4.0357922640686203e+10  3.8848866289536087e+10  2.6848195271315281e+10  4.2788791344480148e+10  2.0504513074310146e+10  9.5813899502067627e+10  9.1996280656058258e+10  1.7315745119055042e+10  1.7714514834074211e+10  2.3795735457362980e+10  3.3133376975705223e+10  1.7239832370432583e+10  4.1283563012029442e+10  2.3005990563450764e+10  1.6396770388977867e+10  1.5217904062799206e+10  1.5965676953537546e+10  3.8229745616121101e+10  3.0898259911391998e+10  3.0916997083900818e+10  3.2793264121636261e+10  1.8806979062171173e+10  3.9234848766075577e+10  1.6362844351813553e+10  1.6791012818301817e+10  2.3479297990148071e+10  8.0771334005338455e+10  7.7514310089681381e+10  9.2255714301229736e+10  1.8543614902078339e+10  5.6823631654300537e+10  6.7425211155935699e+10  5.4335548423177391e+10  1.4980282946490583e+10  1.5322151693487446e+10  1.5734912952748272e+10  5.4485441582460167e+10  5.0922653478024162e+10  2.5038562124267761e+10  1.7937588389330334e+10  2.5661904556112579e+10  5.3056169790666245e+10  3.0630357385869404e+10  6.0540479226731560e+10  6.1048107415341759e+10  4.9117877525416687e+10  1.5014011107936060e+10  1.5310322575433392e+10  1.6976057214724339e+10  2.2013060085237095e+10  5.5779553152199127e+10  7.1490214030407043e+10  3.9978311212300423e+10  3.1229813994579819e+10  1.6445727571316343e+10  2.6950286649570889e+10  1.7484410031016029e+10  1.6706813288310780e+10  1.6637984942657677e+10  2.0950990643684875e+10  1.4975184810267750e+10  1.7676648943036583e+10  2.8291523981003273e+10  2.4090658444277061e+10  1.6453376461070166e+10  3.4176485675572319e+10  2.7382813560784126e+10  4.4441473287833900e+10  4.1450396172419678e+10  9.2002417572175201e+10  1.5879617274944077e+10  1.4940529258755707e+10  1.5290002630185654e+10  4.5377511721012230e+10  2.5613982203393024e+10  2.7153180625229603e+10  1.6230206940454542e+10  1.7788777526427601e+10  2.7595540551374165e+10  1.6077097842230391e+10  1.8500114200930794e+10  1.7740128852021523e+10  1.8495820254099983e+10  1.7688825969647305e+10  1.8600652806071156e+10  3.4883718705753876e+10  4.4152294701371063e+10  1.7347855836587700e+10  2.9056634387050953e+10  3.1897806587333401e+10  1.6149492412734476e+10  2.0847052816367954e+10  9.1223275064788971e+10  9.1694506440719315e+10  6.2420174234700493e+10  3.8367409220486053e+10  3.0916329877369255e+10  2.0222835232323380e+10  2.1481895096092964e+10  1.5810156159997641e+10  2.3675376223284458e+10  1.5318708991428286e+10  1.5298050627360476e+10  2.3730792844103634e+10  3.0463900733402252e+10  1.9474172566264210e+10  2.0304546165203281e+10  3.4442069781604820e+10  3.5679786145633759e+10  3.7655558761800705e+10  3.0523028938333790e+10  2.6088726920860077e+10  6.5798181304943382e+10  7.0319056728959717e+10  6.1468420023041740e+10  3.8735644006984756e+10  1.6522314791378468e+10  3.8615223865877800e+10  3.6407309805776978e+10  1.6344319420331816e+10  3.3668712731220573e+10  3.5978165893844040e+10  1.4944211086951942e+10  7.0541489997209381e+10  6.2138182496776482e+10  3.3871831789773708e+10  2.8135060797096352e+10  2.6205489920813293e+10  1.9511179100850975e+10  6.2186433565853508e+10  1.8049477032388947e+10  1.8049918297562874e+10  1.6304616074118105e+10  4.6646907286883049e+10  3.7185120487814590e+10  1.9301084744943974e+10  2.7174005947691761e+10  4.5778777555679878e+10  1.8758920245837173e+10  2.8006931012111286e+10  2.2965113827527351e+10  1.5956643750767063e+10  1.5214272996067055e+10  3.2929303019537346e+10  2.9956580612878181e+10  1.5312267027491415e+10  2.0073436570796925e+10  1.6414369194234535e+10  1.7232329814388145e+10  1.6667839918936060e+10  2.9092095262920265e+10  1.6607039529723587e+10  3.7225293708646019e+10  1.8155354643840508e+10  3.1700429101165474e+10  4.5176687508926361e+10  3.3829716044875324e+10  1.9488150162819828e+10  1.4985301452580692e+10  8.3282319917178574e+10  2.8577667336563992e+10  3.1247664258753891e+10  1.8046502095385883e+10  1.7948847729707642e+10  3.2362779989141293e+10  3.1081398811681671e+10  2.6891110331304703e+10  3.7393218637929451e+10  1.8110492953432236e+10  1.7480407036337261e+10  1.7439478688951809e+10  1.8002052771849419e+10  1.6545148292530514e+10  2.3405035687246994e+10  1.8585257746036728e+10  2.6765298540825832e+10  1.5058995948998001e+10  1.5255903866600290e+10  2.8138202926330830e+10  9.0809117013712891e+10  2.1570709031540257e+10  2.0517086841087704e+10  2.0375912842740097e+10  3.4850492302102341e+10  3.7554298865399292e+10  1.9076230647196423e+10  2.8185108221103912e+10  5.5749750693254730e+10  1.9115490248652485e+10  8.8919700309421799e+10  2.3826920296145699e+10  1.5901481395036880e+10  1.5234884709766289e+10  5.7853426902669464e+10  1.9761143394918789e+10  2.3293746475897968e+10  2.7477724820988411e+10  5.3915307949381294e+10  1.9313474003030933e+10  1.8490892567470432e+10  1.6385176185199924e+10  1.6367694439112652e+10  1.6883283211214849e+10  1.6013702955582224e+10  2.2359060482451237e+10  3.3558743258634560e+10  1.7910976900316238e+10  3.0881215461697277e+10  3.5164474959811485e+10  4.0567577498961159e+10  1.5017276263247414e+10  2.2731576230857731e+10  2.7063399102055962e+10  1.5904867636600325e+10  2.5665045764854942e+10  2.4539944219178703e+10  2.4583941553684517e+10  7.1182456217359436e+10  6.1441302060777977e+10  6.6874398149048531e+10  1.9219111049969078e+10  1.7225495936770103e+10  1.7149831706799479e+10  9.7316292664728378e+10  1.9176223023116646e+10  1.8361456529349701e+10  1.9544654461661819e+10  2.0665867470377026e+10  2.0024406839948246e+10  1.8342190591011993e+10  1.5039574928823166e+10  1.5318722721011791e+10  1.6046545568816530e+10  1.6379660546408516e+10  1.7034373894126284e+10  2.7403474010629684e+10  3.4375454015417152e+10  5.2023665691263802e+10  4.8688645036846619e+10  5.0079328668974197e+10  2.0080983428233627e+10  1.5868167975595583e+10  3.6399411294819046e+10  1.6687553752940567e+10  2.6288562856472771e+10  2.1886404258683479e+10  2.2564078780613274e+10  2.1675146960202736e+10  1.7067293028711859e+10  1.5976866297083714e+10  3.1756518126621235e+10  1.5059175669362381e+10  1.5302065982822426e+10  1.5742608465948465e+10  1.6841568012728449e+10  1.6087667564025900e+10  1.7295686314989799e+10  9.3140904131864395e+10  6.1080948367431847e+10  1.8570348689771969e+10  1.5701526878031399e+10  1.6152589578454374e+10  4.6165108618860977e+10  4.5046504927162994e+10  2.8631800385949478e+10  2.8152336413656548e+10  7.3562408559803848e+10  2.1924151509246578e+10  2.6218103946259071e+10  5.2345441836189056e+10  4.5819105440031219e+10  5.0124183191872528e+10  4.6818022490304283e+10  5.0329254023630058e+10  1.9423728929470989e+10  4.7071713595538765e+10  4.9745957831206825e+10  1.8410899786457512e+10  1.9607646047075485e+10  3.2557511532426964e+10  2.4157608697323334e+10  5.3706223604503799e+10  1.9450858079950382e+10  1.7621069101444935e+10  2.6476327334147900e+10  1.6886326831778784e+10  6.6740520755117714e+10  1.5181432596249054e+10  2.5631816317881386e+10  2.5250648328547581e+10  2.6900538092513912e+10  3.8443611370515800e+10  2.4253881579923130e+10  2.1725007700443497e+10  2.7043257617784298e+10  2.6942538840345669e+10  2.3737410293391052e+10  1.4962733970793184e+10  2.2615322984774998e+10  1.9339676255073444e+10  1.8694905276620426e+10  1.5271291145543200e+10  1.6059543050309072e+10  1.5637916548213257e+10  1.7779785590222660e+10  1.8568986391153015e+10  2.5814939738770535e+10  4.1330149830017334e+10  2.0276272635285076e+10  5.1330689941968948e+10  3.5971963039306984e+10  1.8220839433993843e+10  7.6593409346126831e+10  3.9968067856295471e+10  4.3122122010193344e+10  4.5152569844945076e+10  2.6411025512823364e+10  6.9916216243596527e+10  7.2246401746466217e+10  5.2766341186878181e+10  2.7268874989001617e+10  1.7757244207947815e+10  2.7403462671103859e+10  7.1704820880464493e+10  1.5884897583920982e+10  2.3006927627782581e+10  2.0078068882641121e+10  2.0564083194102459e+10  1.6207402456201817e+10  4.7868546559688217e+10  1.5666688353265247e+10  1.6614357677098431e+10  1.4924507654293827e+10  3.9952135125784393e+10  3.8086396327170738e+10  3.6838564460366142e+10  1.7265505712684139e+10  1.7124640364010511e+10  5.1609200459061890e+10  1.5648067568602762e+10  4.1181154677559784e+10  3.1326354368719154e+10  3.3907921310183025e+10  1.9461397585100933e+10  1.7275377521379898e+10  3.2744336009849293e+10  2.8007824895876965e+10  3.2729151408286083e+10  3.3364827984258892e+10  2.0695634642357590e+10  2.5968133477181782e+10  2.1430425545230343e+10  2.0307404630020775e+10  1.5297481860105923e+10  3.3262192760808784e+10  2.2734964576827118e+10  3.5121277222670006e+10  2.9258937421811977e+10  2.1793508147719517e+10  2.1108719784310223e+10  2.5218526004431065e+10  2.3578842461843933e+10  2.8798842964966091e+10  3.0973217756159847e+10  3.2720434283483204e+10  1.5664421902198431e+10  1.5017063109829639e+10  1.5266292200537020e+10  6.2068453248951866e+10  5.5784726155623314e+10  1.6635728252704798e+10  1.6329622111080133e+10  2.0934255944779156e+10  1.7565916983411194e+10  3.0384223598903606e+10  5.3903527283306496e+10  6.0695676112377220e+10  1.4973560665382872e+10  1.8318267067374039e+10  4.1963345667254150e+10  3.2273393043214619e+10  3.1609732811097698e+10  1.7753796037001278e+10  3.2668541969449726e+10  9.2255818232033142e+10  2.9999917350216660e+10  7.1984179506716110e+10  2.2091260601146210e+10  3.0244656587203903e+10  1.9269573947696095e+10  1.7505956326515743e+10  1.7102451128060949e+10  3.2362752627656036e+10  2.6271094866927505e+10  1.6768412984847994e+10  2.4496551569774380e+10  2.5616804172386204e+10  2.6490135889441788e+10  9.6655291223517715e+10  1.6804890282128778e+10  1.6609134781656601e+10  1.6653797612042057e+10  1.7104410662793762e+10  4.3358533065045380e+10  2.3525906791461575e+10  6.3534749417182861e+10  1.7842876328286789e+10  1.5573266075374258e+10  1.6736137486363331e+10  3.2157693094448284e+10  2.1233904382666504e+10  2.3210639417611900e+10  5.2041454867323219e+10  6.9087389895421509e+10  1.7667783300625546e+10  2.3249960453331390e+10  2.4774366692153042e+10  1.4933239524837286e+10  2.0317341045502941e+10  5.6565062401493462e+10  4.4306812199695145e+10  8.1925577455595444e+10  1.6764924187252455e+10  3.2445154680491947e+10  2.9543183372456993e+10  3.0887306505813793e+10  1.6758172904323551e+10  1.9254656161002338e+10  2.3543178287020931e+10  2.7796784311725220e+10  1.5283837233075529e+10  3.8864059994092606e+10  3.6451111145884850e+10  3.9808688163777222e+10  4.5226537618020905e+10  4.3893105055587082e+10  4.2035619250231285e+10  4.4487693541890297e+10  3.9874026999331001e+10  2.7561436192360798e+10  1.5254118544805929e+10  1.6804270676143826e+10  1.7234414692244541e+10  1.7504522341940296e+10  2.0968078750044895e+10  2.0756891110290318e+10  2.2664162208586227e+10  2.0356903966412720e+10  1.6997401538560200e+10  1.6674019598762688e+10  5.2339571423115486e+10  2.9962335726963104e+10  1.6818477682211060e+10  1.6734330272295313e+10  4.5420344363902496e+10  4.7729027136790848e+10  5.0467367057429611e+10  3.6908098963993202e+10  6.1127975227787605e+10  4.5234652185638817e+10  5.1144347501672539e+10  5.4546392829582222e+10  5.4634152403652687e+10  4.7991094980198563e+10  6.2533795535512436e+10  4.1961709613721901e+10  2.4080925032233829e+10  1.9104586651891125e+10  2.2632482146978825e+10  2.2695396372300106e+10  2.1383390296657642e+10  2.1440351637130085e+10  1.6883136696548788e+10  3.2242684455104725e+10  4.2267302446109962e+10  3.4241660570573673e+10  3.4707999720598480e+10  4.2273709492123383e+10  3.1388361708459480e+10  2.9527838442947250e+10  2.7553748739379200e+10  2.3363543154190430e+10  2.3206570781154346e+10  2.4693575584770050e+10  2.4915150690565739e+10  1.8450288378113197e+10  6.5406664500441719e+10  2.0764442397376255e+10  2.8166941562892063e+10  2.2392147818653748e+10  1.4991285499903097e+10  1.5867055208762461e+10  1.6591790712275116e+10  2.1313576327231144e+10  2.3845089593757763e+10  1.7626181261132370e+10  1.7449041153189056e+10  2.1395383242802029e+10  2.0084219818808086e+10  1.5311532467321100e+10  1.5761291087564915e+10  1.5755937678037939e+10  1.8232596653142769e+10  1.8845911708614582e+10  1.9363654222536861e+10  2.8615828762182106e+10  2.0229434709360828e+10  2.1011371532024815e+10  1.9218291670949799e+10  1.5799597470510593e+10  3.6620034992970612e+10  1.7394486512119545e+10  1.6782760357235712e+10  1.7058664026378460e+10  4.0884771630586548e+10  2.1594987883536076e+10  1.7144671250483789e+10  4.9088773079367798e+10  4.5537281949198097e+10  4.4391161599093239e+10  5.1783020736779381e+10  4.7629361908991905e+10  1.9757700169642662e+10  2.6954590667786701e+10  2.8562597052566406e+10  2.3747561383369831e+10  2.4163511900423901e+10  7.0101850261068115e+10  1.7992165842730785e+10  1.7260498888333675e+10  1.8023322212870125e+10  1.7559090033405994e+10  5.4104495023071434e+10  1.7935767516124134e+10  1.7281043665356510e+10  1.8713861242924973e+10  1.8093528013807678e+10  1.7523181373903492e+10  3.8338829586109825e+10  1.7834044052664589e+10  4.8505430752545593e+10  4.2732549240076431e+10  4.1238629365170883e+10  3.8554884917986046e+10  1.6605048291807013e+10  1.6338452659487392e+10  1.5932230626614122e+10  5.4480343146692612e+10  1.7585161182139599e+10  1.5839206696624939e+10  9.1414840483828964e+10  2.4243804456780922e+10  1.8460477577894920e+10  1.9863057745852573e+10  2.0534882846648479e+10  4.6204705994844925e+10  3.3563195242095291e+10  2.2543270408755955e+10  3.6412476159194656e+10  4.2346720818313782e+10  2.4019075571054066e+10  9.3610660151424454e+10  7.9805617686853577e+10  1.5690604655636644e+10  6.7252924872636330e+10  2.5958489834849907e+10  2.8083917071511219e+10  1.8130113702985760e+10  3.1760130080374763e+10  2.8735925961719597e+10  2.7543349472330448e+10  2.5813817520515045e+10  2.5809906760120163e+10  2.7829569887152473e+10  1.6795521176277866e+10  1.5876076140019587e+10  1.7760770962680511e+10  3.1139217004975296e+10  1.9954769158336601e+10  2.1600959243909500e+10  2.2554986553690716e+10  2.2638232675396027e+10  9.3587129109625824e+10  1.8039516800766861e+10  2.7207355963243793e+10  2.0629107829349594e+10  2.4538188194446667e+10  2.4035630469733059e+10  2.3369943547975750e+10  1.6981947828733349e+10  2.0319377879090576e+10  2.3833974291103512e+10  2.2943999811726990e+10  6.2990785479935402e+10  1.5017709827382122e+10  3.1634979618456985e+10  2.9264872688209583e+10  4.5951960448315872e+10  4.3104962713546852e+10  1.8603751988987499e+10  1.9022129731674751e+10  2.1875739200568630e+10  2.2187232496961643e+10  2.1420436273764297e+10  1.8454791886071335e+10  1.8154697854790276e+10  2.3410677277507641e+10  2.9175962997012032e+10  1.7916645696683880e+10  2.4144874127740875e+10  2.7489906969929821e+10  2.8010783746263962e+10  3.4096385993604156e+10  3.5078493201488541e+10  3.2875450759703815e+10  3.1144356852209892e+10  2.9512382330551933e+10  3.4737463010122360e+10  1.9262877339032169e+10  1.7291579360511555e+10  6.5883592424047058e+10  1.6476218736331169e+10  1.7352083589021610e+10  1.7016713353574568e+10  1.6445151500235874e+10  1.7619799469307194e+10  1.5488188515093597e+10  2.1823843083940266e+10  4.3750571288944611e+10  2.3949336432738811e+10  2.3398347317475849e+10  2.2922912844150066e+10  2.3167704444141586e+10  7.6411717711929443e+10  2.9102728848130764e+10  2.9205399955138931e+10  3.0355882224121082e+10  1.7771569981969280e+10  2.2443061519901184e+10  1.7873133163349522e+10  5.0749275395195328e+10  5.3737802828630707e+10  3.0330287541848690e+10  1.7269985495119926e+10  1.6693955026118273e+10  1.6988019702635036e+10  1.6202624777212017e+10  2.2119693820860260e+10  5.2437406666566582e+10  1.7239699417426636e+10  2.0835109623536366e+10  2.0124883099674519e+10  1.6613975741086155e+10  1.6237736962390141e+10  2.5795963308548370e+10  1.6795803155408304e+10  8.2562887757230469e+10  2.6017009971471783e+10  4.7250169218003540e+10  4.8080758471935722e+10  5.0620732921326096e+10  2.7868526070651459e+10  1.6870545337818041e+10  1.7290711624531231e+10  1.7689428029337555e+10  3.2064187337525841e+10  2.1316515235666889e+10  2.3589200265087940e+10  1.9768395134850353e+10  3.1349957115548607e+10  1.8219937327265015e+10  1.9258420538936050e+10  2.3596134150445877e+10  2.3757673231042404e+10  2.2436504140113262e+10  2.6135237774735733e+10  1.8675938338852779e+10  2.3967483723608795e+10  1.9012232232500153e+10  8.1822700303559723e+10  1.7476341881406349e+10  2.0268249317948273e+10  4.0300354577905540e+10  4.4721449153673729e+10  2.0000566723926937e+10  2.1673556177282688e+10  2.0465982995206409e+10  1.8791774814696079e+10  4.8960106594869400e+10  2.9223875293101505e+10  2.9076770297736012e+10  1.5858029446669666e+10  1.5290370236926338e+10  3.5211707088751892e+10  2.2277608346793255e+10  2.2901795626617069e+10  8.7355601625537552e+10  6.9629588926421616e+10  1.7478034330638737e+10  2.4141683479801125e+10  6.8288144915311211e+10  1.9179890362334362e+10  6.3796662529303520e+10  5.7497278415522301e+10  2.1173600713831875e+10  2.1022158522817898e+10  1.5929404851796740e+10  1.4991966977202587e+10  1.5281091591698320e+10  1.5659455929666256e+10  2.0188311353812500e+10  3.2873941588920937e+10  1.6637459479832373e+10  1.6784648839239098e+10  1.5031105194587196e+10  1.5285525424342804e+10  1.5763870097037008e+10  1.6081349674663668e+10  2.5467555727766819e+10  2.3849624645590698e+10  2.4973826232430584e+10  1.8552084694840542e+10  2.0329838953270851e+10  5.8117305825272820e+10  1.8836597882223827e+10  1.8391845885508553e+10  3.1579539239342400e+10  4.7472138247309914e+10  4.9765081874532227e+10  5.3647097236564445e+10  1.9393441378342060e+10  1.9391578591795864e+10  3.6156346343528900e+10  3.3771874909452335e+10  3.3685586506019135e+10  2.3014164025279606e+10  1.8682340038352966e+10  2.2243630450235020e+10  1.5839844799904848e+10  1.5275103231829409e+10  1.5304952726686007e+10  1.5258279253396097e+10  1.6002220249655851e+10  3.7799851383272209e+10  4.3648841252461922e+10  2.5760378395407017e+10  5.8576717946513618e+10  8.3578623662559753e+10  2.5091699007233509e+10  2.6100390213202457e+10  3.3287707938234505e+10  1.9595101756819557e+10  3.8369217896923599e+10  2.3469099372521141e+10  2.7593873351298653e+10  2.8988560370980022e+10  2.6679479105223778e+10  3.4727332101322350e+10  2.9119084468951210e+10  1.5429009855026485e+10  2.9346606353012032e+10  3.0337481857713181e+10  3.1927273324596535e+10  2.4214522061477821e+10  2.4612836826945553e+10  1.9053429703692593e+10  3.2664488364171997e+10  1.5705791376425150e+10  1.6066241739362686e+10  1.6688739155119881e+10  2.7560403854017761e+10  2.5167902817502907e+10  5.6035101736995079e+10  2.6735005942633144e+10  1.9244839118141411e+10  7.5909976296981735e+10  5.2541020236746597e+10  1.5859127961998604e+10  2.4616690425111355e+10  6.6847976881339760e+10  5.5468467534460526e+10  2.5509820924311749e+10  1.9353419868825714e+10  2.1974597468109013e+10  2.7738396797213470e+10  8.5359425294623352e+10  9.4034800845793045e+10  2.4633628478630718e+10  7.6874685092584457e+10  7.0413127832710938e+10  3.7776929640795456e+10  7.3423435951962479e+10  3.0609942426403652e+10  1.9848817155417904e+10  4.7916432067431931e+10  2.0405405136075989e+10  2.7789303474028469e+10  3.0560110374426525e+10  2.0973170421604237e+10  2.4941321530017750e+10  5.4198994002957657e+10  1.9395173080621918e+10  7.3135091438598145e+10  1.5033474236192701e+10  3.1890414861642670e+10  3.3104025725476307e+10  2.9051622406077747e+10  7.1515068561463074e+10  1.6588746857954943e+10  3.4623479260405426e+10  5.4946809340159027e+10  4.9261928869755096e+10  4.2554180966188980e+10  1.5515365965923174e+10  1.8315228404297615e+10  5.9559929998703125e+10  3.3063632050621761e+10  5.6550028394030182e+10  3.3362809448564690e+10  3.1141861265466442e+10  3.1183324736346916e+10  8.2884370436616730e+10  8.0786190986487244e+10  3.0683718946799267e+10  9.8107993253235611e+10  5.1264980749277451e+10  1.5822441041157961e+10  2.7848904742012722e+10  4.0670881602191292e+10  1.8451889542351963e+10  1.7788372237187965e+10  2.4416830336036160e+10  2.9970311385113392e+10  3.2361973186727703e+10  1.8068589633956741e+10  4.5710588556076538e+10  4.8115874155702950e+10  5.0243232833861267e+10  1.9843648988722359e+10  4.1710689334600281e+10  1.5287237774818419e+10  1.5810903274402096e+10  4.4342172967488510e+10  2.8083802450903038e+10  1.7277182308470055e+10  2.5207910170820896e+10  1.7910324590875381e+10  1.7117277801170647e+10  2.1656562983323322e+10  1.9351944550015812e+10  1.8755890925442547e+10  5.6521827353415154e+10  1.6095509297993958e+10  4.2425919458427483e+10  2.1359789890797077e+10  1.6500336195578659e+10  1.8197721949315998e+10  4.1117170525871025e+10  3.9187720804863838e+10  1.5272431639017803e+10  1.7097359167943893e+10  1.5625449306820364e+10  9.2653845306490540e+10  3.6898809803224251e+10  1.7588487622320274e+10  2.0050667778069828e+10  3.3452708100373596e+10  4.0638209816331413e+10  2.3862945342108631e+10  5.3497209404726433e+10  4.8398546772280945e+10  4.7098026444075218e+10  2.0130931727219131e+10  8.3739633020354462e+10  1.5285561703947557e+10  1.5680000671377724e+10  1.5036480682672220e+10  7.1933839839544662e+10  1.8006588900766651e+10  7.8151497216858551e+10  8.0174310890039398e+10  2.5896208429158333e+10  1.7364913818580681e+10  1.6890856314209236e+10  2.7926124686112930e+10  5.7987017632702423e+10  7.5699224355987595e+10  2.1176411991295532e+10  2.6828040664349098e+10  4.2470923878510292e+10  4.5349999775550247e+10  2.9719534590999653e+10  1.8669488634501869e+10  1.7420543163301525e+10  1.9173458902884914e+10  1.8949229858884686e+10  6.6138934730556946e+10  4.6324449531232674e+10  2.2224637221650131e+10  1.6069088776444036e+10  1.6726026976980526e+10  2.5760176787385223e+10  1.5790631851130758e+10  1.5899760617211346e+10  5.7020386628813782e+10  2.0111802170951946e+10  3.0400175775993210e+10  1.9807753312815979e+10  7.5129611308138382e+10  1.9683922159243778e+10  1.9293653403653046e+10  2.0151442260983284e+10  2.0152820691512421e+10  6.9319078164521393e+10  3.2012768391754307e+10  1.7881016933392982e+10  1.6330637985899208e+10  2.7602072570013901e+10  2.8646256218510220e+10  2.5524814111847580e+10  1.6858077796828783e+10  1.7454473201996861e+10  1.6482135876436983e+10  2.1994503583647427e+10  3.8902710158798988e+10  2.8383684991954166e+10  9.9356715886417679e+10  9.2788023762316772e+10  1.5269009413553741e+10  1.5942539887452028e+10  1.6245099584262815e+10  1.6570067886653957e+10  1.5806304885744152e+10  1.8072159142298306e+10  1.8816964101024670e+10  1.5237902933722776e+10  6.5566907949354843e+10  4.0740471045335220e+10  4.9873887769179314e+10  5.2809676614626289e+10  5.0290158120140495e+10  9.2547284921606842e+10  9.1435262687734772e+10  1.5010666798009058e+10  3.5196605320448235e+10  2.1036997837672817e+10  2.1400360158054451e+10  2.5770961977133205e+10  8.2062717533651993e+10  1.8373657593308270e+10  2.9944207952073345e+10  1.5921025498213127e+10  1.5675705382931316e+10  1.5236516463787277e+10  2.6243043934427250e+10  2.8440708152290562e+10  2.7922495489282120e+10  2.5990923160454018e+10  1.9106776968854458e+10  1.8934441477297810e+10  2.0576193770697628e+10  7.2742865735482513e+10  2.7923487543825851e+10  5.1768613538920601e+10  5.5207530745752739e+10  1.5264567365186087e+10  1.7526387324472202e+10  1.6815540390685282e+10  1.5235636567733402e+10  2.6615652904301437e+10  2.1911086960340027e+10  1.7647240273351208e+10  4.2897149870891296e+10  1.5284922458988638e+10  1.9482580989817829e+10  2.1780735797978859e+10  2.5514588064487278e+10  8.2427352514817871e+10  7.9587367865024017e+10  7.1616360218706848e+10  1.7913550234700420e+10  2.5269197856239182e+10  2.5740260856890606e+10  2.4882635644584133e+10  2.4743911406286808e+10  2.3404023469158535e+10  2.6800237266458748e+10  2.8361807486210030e+10  2.8423671232910446e+10  5.3919689356811371e+10  1.5237248964558657e+10  1.5735023852692801e+10  2.3659780144361511e+10  1.5714953884790396e+10  8.5746905958393829e+10  3.7155990699875916e+10  2.0583268171589485e+10  2.0467703592168922e+10  2.1466135604242104e+10  6.8603837839322388e+10  2.5409497792377792e+10  2.4200493896452263e+10  2.3814641113959866e+10  2.8329735243320183e+10  2.0547087344961018e+10  1.5696389411212585e+10  1.5271691695666960e+10  1.6974397441833794e+10  1.7067283695592802e+10  4.2354024592935493e+10  2.1027691347275223e+10  5.4274446714536674e+10  5.1541978968304680e+10  2.1643023474924717e+10  3.8082507004605217e+10  2.2723370432857662e+10  1.6572065817910749e+10  1.6245575008889582e+10  1.5294656331711397e+10  1.4964296120747669e+10  3.8470584952128784e+10  2.1045498736384789e+10  2.8370328519135120e+10  4.3768490106418610e+10  2.1300740475695621e+10  1.7272133618920792e+10  3.8498442563397034e+10  2.5503406056185829e+10  1.8589294690301060e+10  9.6561196661856262e+10  1.6960463617669214e+10  2.4088594214114708e+10  4.3734480242058174e+10  1.6787564055020151e+10  1.5025061776402880e+10  3.6888379707875313e+10  4.2136917093135284e+10  1.5301563124121452e+10  6.8857855553557693e+10  8.5332295958309921e+10  2.9290087573787846e+10  1.6976230884960148e+10  1.7462604775038998e+10  1.5001934794043312e+10  1.7450240438785309e+10  2.2429057799483662e+10  3.6070547696348785e+10  2.2011701928840771e+10  1.5932648542068348e+10  2.6958334611567055e+10  2.5155668319603580e+10  2.4307142369445896e+10  1.6926766659227629e+10  1.6354157089544853e+10  1.4923099805121834e+10  2.0553297593722450e+10  3.2177284539621975e+10  1.5277752773916885e+10  1.7762352248892647e+10  3.1640680450421379e+10  2.2155033261783459e+10  4.1161734262590240e+10  3.1749823019646660e+10  2.2825055453586014e+10  3.4499757868185135e+10  1.5895811031621592e+10  6.3578659938760246e+10  1.8001431792056282e+10  2.3950502432432110e+10  1.5250565407578747e+10  3.2232471241296776e+10  1.5934597048868114e+10  1.6813445536209351e+10  1.4991454825322496e+10  1.6996879674120817e+10  3.6833287411671204e+10  6.4835816114079926e+10  2.2399513307048218e+10  1.9093128751078716e+10  1.5714604110990452e+10  2.8191218191181110e+10  1.7164069866190187e+10  1.5604869366442917e+10  2.5290327873001549e+10  2.4521806021188919e+10  1.5593006870709913e+10  1.8010481311635078e+10  2.4987214904058662e+10  2.5495536768148483e+10  2.0246196943836525e+10  3.4966021083424057e+10  2.7183524458544312e+10  2.5552477318546627e+10  4.4364301283356194e+10  4.0761211489030296e+10  2.6232378189577991e+10  2.0352110304642216e+10  1.6246356689351791e+10  1.6848226592215597e+10  3.4068378223439877e+10  1.6658285024247637e+10  1.7077316090929090e+10  1.5750760148724619e+10  1.8072608836899620e+10  1.6170844400181597e+10  1.8000891746398670e+10  1.9611984732628185e+10  2.0156088260080372e+10  2.5708252178563137e+10  2.4268403884197834e+10  5.8418928168225449e+10  1.5264265535637579e+10  2.4751990985941681e+10  9.3887437052806763e+10  8.2243683179771439e+10  2.2474157120577156e+10  1.5858221637222670e+10  1.8279539654999020e+10  3.3914971956051670e+10  1.5752180536202137e+10  1.5266746677298178e+10  2.1788952152037544e+10  1.8444269633072254e+10  2.5954827699745876e+10  4.1508245637027100e+10  1.5827699023569513e+10  2.0786143961063049e+10  2.2909059459426197e+10  3.8549986469985863e+10  2.2904977430841057e+10  7.2358099073415863e+10  1.7166210213130949e+10  3.1100280451857536e+10  2.8161299326726181e+10  2.0709908475525154e+10  1.9395758089649277e+10  1.8926342515564072e+10  1.8394538947152687e+10  2.9505428002818394e+10  1.7735654669227993e+10  1.7346091666740070e+10  2.4439266781757664e+10  2.5471883513102108e+10  4.1078846398757347e+10  2.0325774611283554e+10  2.1300109908162994e+10  6.1109606277382301e+10  1.8754659482298676e+10  4.5802999836838875e+10  3.7510364457856689e+10  1.9411026388377247e+10  4.2896851477033150e+10  2.2453692397638035e+10  2.3482166398669682e+10  1.6665307008226257e+10  8.2742057753189499e+10  8.3016218989981522e+10  2.0785231411426418e+10  2.3183458222569702e+10  1.7391419648082916e+10  1.6828468160650000e+10  1.6624131742121593e+10  1.7534168509889896e+10  1.7256309282251240e+10  2.0896138629758305e+10  6.4315509183298355e+10  1.8868156319557194e+10  3.9878457401072029e+10  7.0685496280621506e+10  2.2806728468978481e+10  2.4035224999781658e+10  2.5540851667833138e+10  2.5625375548246319e+10  1.9450185256194523e+10  4.8073582689837517e+10  2.6328235670148525e+10  4.6704909590088997e+10  1.8725526382424461e+10  8.3208992587566925e+10  7.6638647510643539e+10  9.2233477895133926e+10  1.7453190965401970e+10  2.7026233084353920e+10  1.5016244017904247e+10  4.8404222317669479e+10  4.6240810543059944e+10  4.4269178342894981e+10  1.9967844209662758e+10  1.8166452268060238e+10  1.7807861107946720e+10  1.7504640664868305e+10  2.8342194589501862e+10  2.1725704786441380e+10  2.2867611522530941e+10  1.7988893840705082e+10  1.6002343151962997e+10  1.5751300532427879e+10  2.1401392428171368e+10  5.3000582905572899e+10  5.6195492791770386e+10  3.3996795543578281e+10  3.3463563223658962e+10  9.8055984644802399e+10  1.8700866914023590e+10  6.1817823232979446e+10  1.8317348859425278e+10  1.9537944059326279e+10  1.8001607764204533e+10  6.1194212800273155e+10  2.2540628812013096e+10  1.5684544125923845e+10  2.0560830849316677e+10  5.2505556452980644e+10  5.7867414135354172e+10  1.6664450664818134e+10  9.0638486810351486e+10  1.6805241428978642e+10  2.2002168239806984e+10  2.0711420351080360e+10  2.1230257219693069e+10  1.5227091188103392e+10  1.8021139315833458e+10  3.2718801428062447e+10  2.0088348722149632e+10  1.9282341551828537e+10  5.9303308714988998e+10  2.2260942959711311e+10  1.9192830789935749e+10  3.5039245353482643e+10  1.6948348159359694e+10  1.6759395870852911e+10  3.5783967858446915e+10  1.9119730564406391e+10  1.5200123007212479e+10  1.5294473083844812e+10  3.7318094651706085e+10  3.2986580149949692e+10  9.2619771769839981e+10  7.7093765536374359e+10  2.2895514772733414e+10  3.9024927598240158e+10  3.5361866844879379e+10  1.5676477039530720e+10  1.5269741051162642e+10  1.5253017002273207e+10  1.9436927766043781e+10  3.5381518873273468e+10  1.7645476892479828e+10  1.7127396891921787e+10  2.1586954517964828e+10  2.4469830332313641e+10  2.3933434707471401e+10  1.7907307707145157e+10  2.0443090033850948e+10  2.2885521720738644e+10  3.3493066650263123e+10  1.4961759432157530e+10  1.5697125692391365e+10  1.5284276419381531e+10  1.7395881945178009e+10  1.8032518341524963e+10  3.6475278251809319e+10  1.9854131049274067e+10  1.6742120717817993e+10  1.5651160743665148e+10  1.5740065370965940e+10  2.6555893018910984e+10  1.5660103202965475e+10  3.9123716216453941e+10  1.9786333971610538e+10  1.7573529076901939e+10  2.6805117835016567e+10  3.6803305131556320e+10  1.5720731386330303e+10  5.4626904979897469e+10  1.6293441802924789e+10  4.2037553163895767e+10  1.5646465851736134e+10  1.5012800378524336e+10  2.0536272074310787e+10  2.8446385845279835e+10  2.6236784209725250e+10  5.2103688494253204e+10  5.1392127103234779e+10  4.9187792713292679e+10  4.2680491701406761e+10  4.4433980661551346e+10  1.8360548052596462e+10  6.5452139998697266e+10  1.7540198423066250e+10  1.7762074557395157e+10  3.6952302203713997e+10  3.3473350766992523e+10  3.4642663309760185e+10  3.7442092768130119e+10  1.9003601380897064e+10  2.0843993257076363e+10  1.6920591626463568e+10  1.5428796907659336e+10  1.9169755268684219e+10  1.5051429387957558e+10  2.2505845069053356e+10  9.1237832813217041e+10  1.7061783724237440e+10  1.6993270544216702e+10  6.0792485905776932e+10  5.9500343284832314e+10  2.0437711297959198e+10  1.5486599775708208e+10  1.8033823571252903e+10  1.5553467458744953e+10  1.8578580539394135e+10  3.1810318155683514e+10  5.9847083602654404e+10  2.9839410730721188e+10  2.4596563023019424e+10  1.8273472749339672e+10  8.3019165420197845e+10  3.1219877646196018e+10  8.2634351760369370e+10  2.4040472695672726e+10  1.6594413715695290e+10  6.8242911483807716e+10  1.5279956824967487e+10  1.5292677764475195e+10  6.2351173199889244e+10  2.0401625795143566e+10  1.6730723761886692e+10  2.0503274740273617e+10  7.6193613196247467e+10  5.3876686535409073e+10  3.4332628473268448e+10  3.6523039261070206e+10  2.0376927973059662e+10  1.6993270297550787e+10  1.8256650855792686e+10  2.1682111961709015e+10  1.6291444015479275e+10  1.4960053415317358e+10  1.7131066175994814e+10  2.1773840382213158e+10  9.6725523357171082e+10  4.5124064059721565e+10  3.5710964326162071e+10  3.3530081602825272e+10  1.5849112095626163e+10  2.3176927038993038e+10  2.3135828288312870e+10  1.8207417537881893e+10  1.8857707946128609e+10  1.6642113219490948e+10  1.7441327454117115e+10  2.0274843263066185e+10  2.6243450468965935e+10  2.3702647638751060e+10  1.8864693984004578e+10  1.7759168028233402e+10  2.8226079216463161e+10  3.0554117316994244e+10  1.7275419056278633e+10  1.7852579293095222e+10  2.6038420383288681e+10  2.8916370024339119e+10  6.5477857381419182e+10  4.9345155699885231e+10  3.8625664424568207e+10  4.1985628473889206e+10  1.8069821872470795e+10  3.7940997277496414e+10  2.8924279859433483e+10  6.3975399514667000e+10  2.0722630919690449e+10  7.4955738398085861e+10  3.4441428909252022e+10  1.9177390294577209e+10  8.7619482560721176e+10  1.9256481587512600e+10  9.3663105120209381e+10  1.8557758300676643e+10  1.7500711891140274e+10  1.5031876074518715e+10  2.4406208278130547e+10  1.8327611598214840e+10  2.4965198893292812e+10  2.8604516597247360e+10  1.6555849740958561e+10  2.2015732243883530e+10  2.3911126913890621e+10  2.3495114359657894e+10  2.4500990874619675e+10  8.0268854456068939e+10  1.7091490431342216e+10  1.9471658456145744e+10  2.6506476262901886e+10  3.0832889554442417e+10  1.6142756404563267e+10  1.6075315148296541e+10  2.0902131459201885e+10  1.9553444583072483e+10  2.4337487968232147e+10  2.7383526077434822e+10  3.9177518364707626e+10  2.8213429064490238e+10  2.8159258275933304e+10  9.8446901550564529e+10  1.5208927925893253e+10  8.0192971143622971e+10  6.9761442168879379e+10  1.4956843038813635e+10  1.5247678804496738e+10  1.5202447940212849e+10  1.5638608637102432e+10  1.5816268186069244e+10  1.6116702776027134e+10  6.5693555940395416e+10  2.0137576651765450e+10  5.0167293553841110e+10  1.9186699951096798e+10  1.8387796120370419e+10  1.9542599241333767e+10  2.4171499127487617e+10  2.3317657956427696e+10  2.1669071958065544e+10  7.1727271024670746e+10  6.1643218974717087e+10  6.5330757172985573e+10  6.9659071926015244e+10  3.5951654804828751e+10  2.2927693587919502e+10  1.8151423087587605e+10  1.7517978119453804e+10  3.1800712013961704e+10  2.5109095063365688e+10  5.2242036058734261e+10  9.7479667255326767e+10  2.2353667129398373e+10  1.5985497133394285e+10  3.0000570199554379e+10  4.4635348540775734e+10  5.5624492906076347e+10  3.7597098040350533e+10  4.4648432223997643e+10  2.2935764266705421e+10  8.3521523500192047e+10  9.2176924804021652e+10  1.6260835496963148e+10  2.7393586816779396e+10  2.8962328990877380e+10  1.4968876123235279e+10  5.8639848731301788e+10  2.0990822688574783e+10  2.0281630662108257e+10  1.9873971605622284e+10  6.9445643634445251e+10  1.5192076851204536e+10  2.1530136853454342e+10  5.5564778334430824e+10  1.5296110222338301e+10  1.5862397397637466e+10  2.2769685936324116e+10  2.7211124915663425e+10  2.7617182926517139e+10  2.5899251244997047e+10  1.8648872317417950e+10  1.5211392488592787e+10  1.9070852532696671e+10  7.7412675340800186e+10  4.6535635704003578e+10  3.1060249882039333e+10  4.1752647505761513e+10  1.5258747433563210e+10  1.5587917985579182e+10  6.3965579029347137e+10  3.9380651077420029e+10  2.5501419119710121e+10  3.3776927041990143e+10  1.9497098332517933e+10  9.7804816345721359e+10  5.9345971016429688e+10  3.6787001401071922e+10  2.6335543260934444e+10  2.1618367275361546e+10  5.2564712287457680e+10  1.5789418359896502e+10  8.2389475021862518e+10  9.2578225280063568e+10  8.3265242764479218e+10  2.5478764157160995e+10  7.2175809329008041e+10  2.2473397047309536e+10  2.8540618214273262e+10  9.2189219668209091e+10  2.0443318968829044e+10  1.6234170455367401e+10  6.4666283944804771e+10  3.1445001329254742e+10  3.2996660747664398e+10  1.9421383895685730e+10  1.4905443242514860e+10  3.4600442262748589e+10  4.9130171308050896e+10  1.5658093911657778e+10  1.5228295704731901e+10  1.4958530084975229e+10  8.3542727975461212e+10  9.2160651640462341e+10  9.6925405322044907e+10  1.5300197484372894e+10  3.5168149945993370e+10  7.1280591726086914e+10  6.9123911013870300e+10  6.1924496733404755e+10  4.6691348410012764e+10  3.1839507161905735e+10  2.5349326553540535e+10  2.3814272642237553e+10  2.5233111451866314e+10  4.8467824915285439e+10  3.0933447313727627e+10  1.5200677220706774e+10  2.6904911761153828e+10  9.2719972981870773e+10  9.6467772148546722e+10  1.5534813511877924e+10  1.9444243394809872e+10  1.8683101220966110e+10  1.5581006587775558e+10  1.6211765959678965e+10  1.9019949752700130e+10  1.6452979754404032e+10  9.7343801570227142e+10  2.8450398273742199e+10  8.1892204352660034e+10  8.0860366613267303e+10  5.2746980628461235e+10  1.6319268886249767e+10  2.0516266900600689e+10  1.9657120865458076e+10  2.0197545834295677e+10  6.4985207016509026e+10  1.7253648385084793e+10  4.7354671701776306e+10  2.9004832495407051e+10  1.7551065739363850e+10  1.7997707301631134e+10  3.3798055120026169e+10  4.2099205121889122e+10  1.7926179381910114e+10  1.7731725307958313e+10  1.7393735982844910e+10  3.7204289170844482e+10  7.3630512502435486e+10  9.6674394978744202e+10  7.0562909483670975e+10  1.5224922316738035e+10  5.7783655795099556e+10  2.0052995621477386e+10  1.9239312118402897e+10  3.2453236120091049e+10  1.8591365105278774e+10  1.9172579537094685e+10  1.9311782487400883e+10  1.6477336645786417e+10  4.6768004265772736e+10  1.6472030498508076e+10  5.0909693703527756e+10  1.5021672031556574e+10  2.1313076848707996e+10  2.1850580888405159e+10  2.2668031132755791e+10  3.9731432110269722e+10  2.3226679455855412e+10  4.6052495644590858e+10  4.7851443765828156e+10  1.5534235733748375e+10  3.3005983922742687e+10  1.6139357884931658e+10  1.6359605891639244e+10  3.5961523343187469e+10  2.8282997233869560e+10  5.0885916178649597e+10  2.0831855224006134e+10  2.0636635241543770e+10  3.9141592363090225e+10  7.5718058269949280e+10  1.5698990640578739e+10  1.5655354304118414e+10  2.0592851272203308e+10  2.1542549657539967e+10  9.0009967680324005e+10  9.7755641154543045e+10  2.1033339671564156e+10  2.0716776943519836e+10  1.9390263888942711e+10  1.9761042879224022e+10  2.0197984019231163e+10  5.2748834746323723e+10  2.3692932347690067e+10  2.2094784877812775e+10  1.5014929163496490e+10  2.6671277236217648e+10  2.5685813605728981e+10  2.9874241409903770e+10  2.9627018366320053e+10  2.5402177087856041e+10  1.5270198498654385e+10  1.5001792688430969e+10  1.8596594470747528e+10  4.1198460431891029e+10  3.1220882629850796e+10  2.3014418706565739e+10  4.8224248334722183e+10  1.5073434809643969e+10  1.5064181423567671e+10  3.8649349396308853e+10  2.7924401660581089e+10  1.6923953460397413e+10  1.9980294922889774e+10  2.3850848326722424e+10  7.2938941342939133e+10  5.0641509559832504e+10  1.5757783324384441e+10  1.7991357061965782e+10  2.3438082454965038e+10  1.8778828697101074e+10  2.3478819841922249e+10  2.2583699826286793e+10  2.2647315105152477e+10  7.2286803906144867e+10  7.3628503158879623e+10  4.5041399070342552e+10  3.4449663687105614e+10  9.7847563293909439e+10  2.5011153217819065e+10  1.9760338819627132e+10  2.0979261118117447e+10  9.7843744111408554e+10  1.4981207160833269e+10  1.5954980703500490e+10  3.4693100249586105e+10  5.7397980612079620e+10  2.0444185392136551e+10  5.5242455593866859e+10  3.2513871390088276e+10  1.7427032970253803e+10  2.9749802325573784e+10  2.1433087042290024e+10  2.2722597212856102e+10  2.2515459948460339e+10  2.1492515614388035e+10  2.1000224577833332e+10  2.2198289058740879e+10  2.2597894448916439e+10  1.6775821172798613e+10  1.8664574258697487e+10  2.0066450775870415e+10  1.9346292132266525e+10  9.6660321938267990e+10  8.3058904596725357e+10  9.4181952978910461e+10  1.9948630772868168e+10  2.0498672227699200e+10  1.6450001608978931e+10  4.0231616125912125e+10  2.4382559753850269e+10  1.5633864761972851e+10  7.5077165247093735e+10  3.7185855663758263e+10  4.9541230100317863e+10  2.4791666084162846e+10  1.8045000375865417e+10  1.8373936307976414e+10  4.2051298305203140e+10  1.5256341020069778e+10  1.4926279491522053e+10  3.3615127786538185e+10  1.5982461374035055e+10  1.9843754834733711e+10  1.5003199500378105e+10  1.9075148814517502e+10  5.8942279471324593e+10  2.1953015071260048e+10  1.5267524577955904e+10  1.4890666798733696e+10  1.5726632493664995e+10  1.6113732929330103e+10  2.0314865746768234e+10  1.6631766161423786e+10  1.6301232564619894e+10  2.7512920945934620e+10  4.7175747595755394e+10  3.5309732672860947e+10  3.8618853114336548e+10  3.0559837141788555e+10  3.2038175862830372e+10  1.7723780336495495e+10  3.0451418514781219e+10  1.7506008631845966e+10  1.7988505928749775e+10  1.5556428368873678e+10  1.7442564690263214e+10  1.7117711573625761e+10  4.1817950836940117e+10  1.6044620550637241e+10  1.5698992798615255e+10  5.6210061617089722e+10  1.5233685152772322e+10  1.8082611537121914e+10  3.9896436808773735e+10  1.6739597910598276e+10  7.2043997059444565e+10  1.9647325391774494e+10  6.7943672013217155e+10  7.1208442159025375e+10  4.1090454029267441e+10  1.5577314929058958e+10  2.4462468766880718e+10  3.3377901423189194e+10  5.7249927722754982e+10  2.0261972437685196e+10  2.9798934263442425e+10  3.0985589372920113e+10  1.7000208791114033e+10  1.6482477030053961e+10  1.6330510645330856e+10  1.5243138491022978e+10  1.7422965803757042e+10  1.7639396375520840e+10  1.6487176525877562e+10  2.3428125879842041e+10  2.4302796193428379e+10  3.1687291787344952e+10  2.6008296790116306e+10  2.1056257414916439e+10  1.7997447094653168e+10  1.5969735195926311e+10  3.7902841806337349e+10  9.1025379143541611e+10  3.0124418733679958e+10  8.3893726436095993e+10  9.2271490137106064e+10  1.9681889756515961e+10  3.4137075155736271e+10  3.1053667764783264e+10  3.0032038542668690e+10  4.0730844458875816e+10  4.0067091240571770e+10  2.8360929349471386e+10  6.2004657557104950e+10  2.8189401356253967e+10  6.9818473622200150e+10  1.7083929368782795e+10  4.6455154127059082e+10  1.8033678921564919e+10  4.4278023110404533e+10  2.4251783824731037e+10  1.7593140808685558e+10  3.9232071983805199e+10  2.8719228228034958e+10  1.6701114904969261e+10  2.1467935853453854e+10  1.6491747423325787e+10  4.1778845235947723e+10  2.0694538185848282e+10  2.0490656234520088e+10  1.5291074194514687e+10  2.0723411393933723e+10  2.9194721791304913e+10  6.4575736525571533e+10  1.8447493494006298e+10  1.7405607323437431e+10  1.8659281669324860e+10  1.9616983924905922e+10  2.5490953310330814e+10  2.4135623184864197e+10  2.3926726319336987e+10  1.8137835855169003e+10  1.8929694897572487e+10  1.5822735110849880e+10  1.8028708974066132e+10  2.9127987371342163e+10  2.5001407119622837e+10  2.4888663648364670e+10  1.6457743938031298e+10  7.9749468973742142e+10  3.2635482232834286e+10  2.1860975585015797e+10  2.3554864996986923e+10  3.5930933171684402e+10  1.7732384592660904e+10  2.3762936497841282e+10  1.6118195507025576e+10  1.9609003871901367e+10  1.5255430690510103e+10  1.4979867905962194e+10  1.5183774790944323e+10  1.5624902490228971e+10  2.7211683072202766e+10  1.8514590775998756e+10  1.5654307704844112e+10  1.7316759951844036e+10  4.9678335800481094e+10  1.5722681730344282e+10  2.7376496771662579e+10  4.1398402631228020e+10  1.9945750667055225e+10  2.0969783731943443e+10  4.8869123976879898e+10  5.0191542986665451e+10  1.9228502971786228e+10  1.8217585768000320e+10  1.9036401779893158e+10  3.6251308146872658e+10  1.9625828005021534e+10  2.9745238454158508e+10  2.5746733463528667e+10  9.7604836409350845e+10  1.8912278903180103e+10  2.0947431653495930e+10  1.6348521172685486e+10  1.6624715799085077e+10  2.2712574843091564e+10  1.6210520635858036e+10  1.5787920620252226e+10  1.5252710506907732e+10  1.5247413120928139e+10  2.0307644328621487e+10  2.0656935413051628e+10  2.1536219456003010e+10  1.9043690618962803e+10  2.9003084353940922e+10  2.1134896206209736e+10  9.7910490356885178e+10  2.5522063126887691e+10  2.6349799573377903e+10  3.5578015041017319e+10  1.8647719867654587e+10  1.5871082096982603e+10  2.5160254963670280e+10  2.0455386927646332e+10  2.1612121001513187e+10  3.7794393919333549e+10  3.9430453187373665e+10  3.6977657504150101e+10  5.9158066078003403e+10  2.2668724390353329e+10  2.5650653280823395e+10  3.5153767865249901e+10  1.5313077022385210e+10  3.8372767654506538e+10  1.6174585433874414e+10  2.0200712538657314e+10  1.5898126701234253e+10  2.0116837742627834e+10  3.0070804748880722e+10  3.6595080638418915e+10  1.7004915812754608e+10  2.3750225867560806e+10  4.4049836772624855e+10  4.3337937660772972e+10  6.2587651312867432e+10  1.8758559369955635e+10  1.9612691247174892e+10  6.9481143296703354e+10  7.2433388316372208e+10  1.8546246142827328e+10  2.3147511702346088e+10  2.1140757350454834e+10  2.7941313883252636e+10  2.6960075944629059e+10  2.3964953100242001e+10  1.4967603045049057e+10  2.1638790491424389e+10  2.1496576353753181e+10  6.2706217896461555e+10  4.6229705315481308e+10  7.7563205632017273e+10  3.3444602893422684e+10  6.2174569347338158e+10  6.2688295791303459e+10  6.6693580962834221e+10  7.8821726243903381e+10  1.8748625386353012e+10  3.3995005250509598e+10  2.5197915162264572e+10  1.4988796879334061e+10  4.0482019308094086e+10  1.8750536347925297e+10  3.3454195073579201e+10  1.8328657577511566e+10  1.5805321555322981e+10  2.4157991609092358e+10  1.7726538658598793e+10  3.9605614346792564e+10  3.3245743244555012e+10  1.7240159602950958e+10  1.6769321936666626e+10  8.3999892355983795e+10  9.4347159645566223e+10  9.3413013762226440e+10  9.3274448495290970e+10  6.2846719812340767e+10  1.6768989744294903e+10  1.9301064465176819e+10  3.8356097372648018e+10  2.3843510092690571e+10  2.1715307959190090e+10  2.2463352074731178e+10  2.1322572999054401e+10  4.7308753002126183e+10  4.8611412013784233e+10  2.0536943325637661e+10  2.6551013012108986e+10  2.6994198937069454e+10  3.4720696808194130e+10  3.3394979419907375e+10  2.5842582973712765e+10  2.5463763394769337e+10  5.6356505446405670e+10  2.1182303420523163e+10  2.2385980100044590e+10  1.5561016726024168e+10  2.6678176282940361e+10  4.3715956923231842e+10  4.0527102925237144e+10  2.1296805335753708e+10  1.5924193295759020e+10  2.1956591081561989e+10  4.0812204521328743e+10  1.9076649425153137e+10  1.7250089172736374e+10  2.4829638574356812e+10  1.7707496326768394e+10  1.5213529865773994e+10  1.5637685341277252e+10  1.8997857162034843e+10  1.5608355685538700e+10  2.5808578452024296e+10  5.3554943537276611e+10  7.6310000298311432e+10  1.8235527027136852e+10  1.7786805453855568e+10  1.7199061645978237e+10  1.9820022609387100e+10  2.5818328879408291e+10  2.0426403983654491e+10  2.0911631589562241e+10  2.4504446514884983e+10  2.0043372409370914e+10  2.3715564850039097e+10  1.5605947420231873e+10  5.7506568382822777e+10  7.3008103882110641e+10  6.4890890257778870e+10  6.4663104514408607e+10  1.6729948125817860e+10  1.4930538925213238e+10  5.3508246626719650e+10  4.8463119300612282e+10  5.1100642105673447e+10  3.3011485081178749e+10  1.9236502756326618e+10  1.5258093751737230e+10  9.7554429240363037e+10  2.3860568827257835e+10  1.5278764089057026e+10  1.5609222439406326e+10  1.5871953017199249e+10  5.6375561123396255e+10  1.7529591040842659e+10  4.5215667433866600e+10  1.5273266592367502e+10  1.5257804105590185e+10  1.4996726019733118e+10  1.5596343086411451e+10  9.7984376119429138e+10  2.4054697603935768e+10  2.4594445265284008e+10  2.5595257055296051e+10  2.5892213455864277e+10  2.3102005722257267e+10  1.7638711958303684e+10  2.8731579399668072e+10  2.3201053853306789e+10  2.2337440094902641e+10  5.6888194730654564e+10  2.4747017454366192e+10  3.4440424745694992e+10  1.7491870936341354e+10  2.9414985065145138e+10  2.0182619942306046e+10  2.5120574453497593e+10  6.4668008779507019e+10  2.8403572850019234e+10  1.9294367746220551e+10  8.5417469870825760e+10  9.4071740731236069e+10  4.0750323351949455e+10  4.4899549965189659e+10  1.4983829981758253e+10  6.3327582937678352e+10  2.2798538925451302e+10  2.2226201551513630e+10  1.6902582768421999e+10  1.6785137381108290e+10  1.6601975500812420e+10  1.9719513806053944e+10  2.0916335743307049e+10  1.4990865956231226e+10  2.1874822943911827e+10  1.9791965614877857e+10  1.8026414579848293e+10  1.7576062583996868e+10  1.5926846788901133e+10  4.1995188054111641e+10  4.0508660254541664e+10  1.7223235759337852e+10  3.2800225896058601e+10  2.6801474329032959e+10  3.1861548662895565e+10  2.4021103609895142e+10  1.6148745469016703e+10  4.1261054385828194e+10  3.9420524741034943e+10  2.7988315406017284e+10  3.1060474651510654e+10  1.8510278947402855e+10  2.6037752280689316e+10  2.8456312951677731e+10  1.4925470093592478e+10  3.2240633218130535e+10  9.7992223209196777e+10  1.6473111368921267e+10  2.9723747799771526e+10  3.1208212134194576e+10  1.5639338958924625e+10  1.5648678454482607e+10  2.3305058308426941e+10  2.3389075120002159e+10  1.7167966843245958e+10  1.5668610311949795e+10  4.0118435758818047e+10  1.5026321372446812e+10  2.6729903747413231e+10  1.5827052151150204e+10  5.5767944057114967e+10  1.7025083907396271e+10  1.7185348720320087e+10  3.2871589933698338e+10  2.5048156142918064e+10  1.6400452954687651e+10  3.3215813350820663e+10  2.2350116580646332e+10  2.0231906281408070e+10  1.5989492324274744e+10  2.1826186723712570e+10  2.2674060134310234e+10  2.4286345175915318e+10  2.4652082459037987e+10  1.5305442317362709e+10  2.0596170186009666e+10  2.1308006930689133e+10  2.1289811098309681e+10  2.0546256770805710e+10  4.5065526292055267e+10  1.5129516892511116e+10  1.5659386580592794e+10  2.1398701055552299e+10  1.8616510843120918e+10  1.7751577151364059e+10  2.7150185536333939e+10  1.4931978150197569e+10  4.5390098865595909e+10  7.4967199680194656e+10  7.2371366115847092e+10  6.8466078953715538e+10  5.1222358731713745e+10  3.3825397887491779e+10  1.5266221228266390e+10  1.4924056829840670e+10  1.5590194166807198e+10  5.4677914944306946e+10  1.6275139734297377e+10  1.6382632646037357e+10  1.7091168536793028e+10  5.0766221165398605e+10  4.6080421458237534e+10  1.5204525234431208e+10  1.4972143663780895e+10  2.4309445806924759e+10  2.0116273716688499e+10  2.2947276689614117e+10  1.9207109423038689e+10  7.4717213114909149e+10  1.5836748535481075e+10  2.9335877258509842e+10  3.2742300690887909e+10  2.1141034648738041e+10  3.7154903320512085e+10  1.8966750355180363e+10  1.8431381806591125e+10  1.8364308010311234e+10  3.6269256105760941e+10  1.5165445982184208e+10  1.5735841547419727e+10  2.9632341673030891e+10  1.9502997070005836e+10  2.4656813560277649e+10  4.6627288558908257e+10  1.7797915077055531e+10  7.5703106614731186e+10  9.6333547195151077e+10  1.7489421942937687e+10  3.1929164210821678e+10  2.3224772520483505e+10  9.8025757120049301e+10  2.0291761403146252e+10  1.6239190228950499e+10  2.5216590749770245e+10  1.8215487052424084e+10  1.5227392969181795e+10  1.5618999616032021e+10  2.4011022574916550e+10  1.5774989894974775e+10  1.5274572971663033e+10  1.4994787018418528e+10  1.5004699194493256e+10  1.5259076620116404e+10  4.1186740981955063e+10  2.5838218560956417e+10  1.7419585684963161e+10  3.0938676074713055e+10  2.2322074934795353e+10  2.3333951042411758e+10  3.1866563096711807e+10  1.9075010755975182e+10  2.9151039889494827e+10  1.5256149636678900e+10  1.5268400851026867e+10  1.5712116411046743e+10  2.1255111492359978e+10  2.2467124831566910e+10  2.7014070967211723e+10  1.7800623536729877e+10  1.7578272076723850e+10  1.7286201132903915e+10  2.1971473969308270e+10  7.9513466541710938e+10  1.9844977571835754e+10  3.1651952551671093e+10  7.3885045032116821e+10  1.5072302850732052e+10  1.8306390082620758e+10  3.9773778668043846e+10  3.9793680788379921e+10  2.0919088326391434e+10  2.3226552613234200e+10  1.7334542469924809e+10  2.6642030904595203e+10  2.7638578335777706e+10  7.6662452214873550e+10  5.9789842435407349e+10  1.5024358403046652e+10  3.0920049155812767e+10  7.8658502559805115e+10  6.8334142894611763e+10  6.7311497505666245e+10  7.5584778522291794e+10  1.5185626580328579e+10  1.9615614299714676e+10  2.2161921986098831e+10  2.3757605143314709e+10  6.5353256151227852e+10  2.8306596672520660e+10  3.2188671142512524e+10  1.5553046488587166e+10  5.6694111181088394e+10  1.7842710778276112e+10  1.8022300239114990e+10  1.5517441270404810e+10  5.7214688515301666e+10  2.0529968406448368e+10  2.1249914693991905e+10  2.3829320188036724e+10  1.9136793434611465e+10  1.5676745014478285e+10  1.6978141103215193e+10  4.3312359326998039e+10  3.7656515679205009e+10  3.9972606364301514e+10  1.6608064792633280e+10  1.5008270048989599e+10  2.3146395528025787e+10  2.7066362004877678e+10  2.6722363335291039e+10  2.1900118657068829e+10  2.2820954492575233e+10  6.3549250370083305e+10  2.6899477188753258e+10  2.1195358774489170e+10  1.6976805552573294e+10  7.8789822210111511e+10  1.5705292044006903e+10  4.6379510042006088e+10  1.6694472264395697e+10  1.6454009386909113e+10  8.1768138736721970e+10  1.5873901273288982e+10  2.0382808617681808e+10  2.6355422410987286e+10  2.0279698496866116e+10  3.6855754527558258e+10  3.6904202465186951e+10  1.6370466212770931e+10  1.8502729535863327e+10  1.6102654486384735e+10  3.4685160678361954e+10  2.1624495798571125e+10  2.3844996761977898e+10  2.9609928580127655e+10  7.5779512470816147e+10  3.5925213903916328e+10  1.8379357461494572e+10  2.2668046600425129e+10  4.3969659028261871e+10  4.0338844089887589e+10  1.8397576817725182e+10  1.8001906990868908e+10  1.7867504308948109e+10  5.8396703409925468e+10  5.9132545911055710e+10  6.4823366729572037e+10  2.9813621870253036e+10  5.7136645543386200e+10  2.4981385175494640e+10  2.5153446472683735e+10  2.4715806874297367e+10  6.9005628846307739e+10  2.4034231610066235e+10  2.1058621028666626e+10  3.7782797636234909e+10  2.5669177016253487e+10  8.4624338974300934e+10  4.1710470659397125e+10  1.5204055145024611e+10  7.1132285044719940e+10  1.7451763780452019e+10  2.9063791886360485e+10  1.8607855092976963e+10  1.7675601427032219e+10  3.1513626374054070e+10  9.7921143203299423e+10  1.9153964732546566e+10  1.8743003568722313e+10  1.5046073153400751e+10  2.1555410534749020e+10  1.5222352945253145e+10  1.4974555895679308e+10  1.5941093109254303e+10  1.5234605055215776e+10  1.5027261203288521e+10  1.5263403694480900e+10  4.3562276681427452e+10  2.4261066557685860e+10  6.7179842543873138e+10  5.0840268459903351e+10  4.7809336838407234e+10  5.4253003345570854e+10  3.7514627572561310e+10  2.4216855389009689e+10  2.5888247420172054e+10  2.8779401107706963e+10  5.9396660149619835e+10  3.2355779888201157e+10  5.1190742230173119e+10  1.7210035575766792e+10  3.7878578724073639e+10  1.5924360387365829e+10  1.6090924962615503e+10  1.6708072285802885e+10  6.7252006800192329e+10  2.9199069549467968e+10  6.5569540409954933e+10  1.7239562113185307e+10  1.6762231626663425e+10  3.5028916353446922e+10  3.3980668839730389e+10  2.6520672099277161e+10  2.2497780537384361e+10  2.2649170751128132e+10  2.2020711859048023e+10  2.3555190215274517e+10  1.6220629327923428e+10  5.3561315494844955e+10  4.3634575685419861e+10  2.9535146038508621e+10  2.8374885261989246e+10  4.0623886948039383e+10  9.1782282064865082e+10  1.9861990641228878e+10  3.2267925311107410e+10  3.0908380099239742e+10  1.8344197095189636e+10  1.9803401988747997e+10  1.7025627006717157e+10  1.7184168831514492e+10  1.7960208759606712e+10  1.4978572845181578e+10  1.5259302522489452e+10  1.5706505822160954e+10  3.3632207209953819e+10  2.0315960604131790e+10  2.1025842181057926e+10  2.0970324322487869e+10  1.8274592149661037e+10  1.8873463662400539e+10  1.8940341409813858e+10  2.0025771347707233e+10  2.0723742049486443e+10  2.6641499149878975e+10  2.5991432387328796e+10  1.9387918404826866e+10  5.9757413107747978e+10  3.2532865947833893e+10  1.6413706337965427e+10  1.7691839129983624e+10  2.4617871079910282e+10  1.7228066937150284e+10  3.4192434501741402e+10  2.6452389567780121e+10  2.5038037379649792e+10  1.8272626458708122e+10  2.9891306052573158e+10  4.4100699784551277e+10  1.5701743378779993e+10  2.7007424592795631e+10  2.0021960380206909e+10  1.6472814686291208e+10  1.6258866998980377e+10  1.5009257388287546e+10  5.5127862843415154e+10  2.6758308407216660e+10  2.4395123975582058e+10  2.3922417086765221e+10  1.6838916909958052e+10  9.5538717101457809e+10  5.8730786442061905e+10  1.5072494903472050e+10  3.3970627230511322e+10  6.6635206782083298e+10  1.6836867165586266e+10  1.6365264649990175e+10  4.5804269598321060e+10  4.2521856238778320e+10  4.3985702254491371e+10  4.7123963935437347e+10  7.8840767471920700e+10  7.3921947753923386e+10  2.0141585574683636e+10  1.8476015231227154e+10  1.5149085524633263e+10  1.5225045258807669e+10  4.2769554862222504e+10  1.8895044494129902e+10  2.6305389086912914e+10  1.6539036437201775e+10  2.2293590770964573e+10  2.1032375978002556e+10  2.0255471915674271e+10  1.6238708306212139e+10  1.9487847737498806e+10  4.5770073939356003e+10  1.5227617017874521e+10  1.6571196703516315e+10  1.7291326998215389e+10  3.2484792339798801e+10  5.8448087607869453e+10  4.1933907463562195e+10  3.9545006899144417e+10  1.6900819116596027e+10  4.4635401217163712e+10  2.0095301456637066e+10  2.1175582779430309e+10  2.1099424231958855e+10  1.5999837437275959e+10  5.5883397219261765e+10  2.7845297111018330e+10  2.3975837960751377e+10  2.3304282614654789e+10  2.4144962517194939e+10  2.4365115529278595e+10  1.5011266578938307e+10  1.5189696143630293e+10  1.7236634844513504e+10  1.7696374599559357e+10  3.7863945454664520e+10  2.1552037057458549e+10  2.0675868369986553e+10  2.1154998577014774e+10  2.3486728774121967e+10  1.9536917951952858e+10  2.2126301767583744e+10  3.5938569716625160e+10  2.9500481706611897e+10  1.8827651310330379e+10  2.6849564640888878e+10  1.9157776622627972e+10  1.8513882307221573e+10  2.2764099710811226e+10  1.5150560172256777e+10  1.7712560571888760e+10  1.6998863543408758e+10  1.8372868182927555e+10  4.4455360275376015e+10  1.6410781883529871e+10  5.4675298484959511e+10  1.5045447948656391e+10  4.5021482960758751e+10  1.5210485899489019e+10  3.9628296787094688e+10  2.1865638379031105e+10  9.7377756141957809e+10  1.7835981100081654e+10  2.1733790962445545e+10  1.4951393218912418e+10  2.7584760748865284e+10  2.7055680366336250e+10  2.0921997516284473e+10  2.8240698630422329e+10  6.0585539869262093e+10  2.0534101659214321e+10  3.0547619285448803e+10  3.2295645795571995e+10  1.9286132478557335e+10  1.5141088025585094e+10  2.0737007962602879e+10  1.6571032214642946e+10  1.6412895253668550e+10  1.6096824372737041e+10  2.8744971143762276e+10  3.0007827568262543e+10  2.7933275857881584e+10  2.2019213114308205e+10  3.2013646662933067e+10  1.7072642258916256e+10  2.8257483334544296e+10  2.9858170862967289e+10  2.8171863340566593e+10  2.4523982947496910e+10  6.3359318408276199e+10  2.3924103974709942e+10  1.5624912248601313e+10  9.7203519865645752e+10  2.0929815320687084e+10  2.1391872984012402e+10  1.4940622688260765e+10  1.5179711080985315e+10  2.1287061031937248e+10  2.0621499446387814e+10  2.1946206166425941e+10  2.0868802613474552e+10  2.3396208902373398e+10  3.8217355959204018e+10  3.8661326050832581e+10  9.7253194712800217e+10  1.6474440482774393e+10  3.6108689134172554e+10  8.4285031557987823e+10  9.3168125732093597e+10  9.7458394730605164e+10  1.8830842866465324e+10  2.0902398351788944e+10  2.7877593714056480e+10  2.8451978032158188e+10  1.6103279784396116e+10  1.9162715666787365e+10  1.8955905481573994e+10  2.3115201335724728e+10  2.5462845140715916e+10  2.4048658817244186e+10  2.3598164851573833e+10  1.5613073340412249e+10  8.5344819897187042e+10  2.8460803847624668e+10  2.9902769198612522e+10  8.2131034348842453e+10  9.3183710878208755e+10  6.1363337283036644e+10  1.9779334120956230e+10  2.8039128142244774e+10  2.6466274810801483e+10  1.4903094271615429e+10  1.5608611958568071e+10  1.6416295615995979e+10  8.4750374238004929e+10  2.3701441980393673e+10  2.0161213314845699e+10  2.5775346967353008e+10  1.5230709192039984e+10  2.5492947446024189e+10  3.6579339902068665e+10  4.0741446877559990e+10  2.6512927768821667e+10  9.6555785607579758e+10  1.7608951121942516e+10  2.2186320655452114e+10  2.5901057592608521e+10  2.4293883397432789e+10  1.6832797913863527e+10  2.6377615409634323e+10  6.9396635912283478e+10  1.5027132664693476e+10  2.2044924015924175e+10  2.1420841050530373e+10  1.6698850626908623e+10  1.9149400926146843e+10  9.2670994785092361e+10  2.7727885499450771e+10  4.0510607154736847e+10  1.8400227654406624e+10  1.7548877429533154e+10  7.3889107695014786e+10  7.8007519356686615e+10  1.9546632162863728e+10  2.5741991325108955e+10  1.8739100218140591e+10  9.2063780201552277e+10  9.1738964311955139e+10  2.7118883584992863e+10  1.5681549693166334e+10  1.6993316179746151e+10  1.6347409922035717e+10  1.5055168088861599e+10  7.8916191715603607e+10  3.5253155909634598e+10  4.3467821374799942e+10  2.0320951221621475e+10  2.0342753064408119e+10  1.8642065624533802e+10  1.9061373308319942e+10  1.9499364998366390e+10  6.4091488563835442e+10  6.5521099644096878e+10  1.5023520034144611e+10  1.5270224698941422e+10  1.6383732055511274e+10  2.1981262382353951e+10  2.2451447926233589e+10  2.1680192141203041e+10  4.5673608470700378e+10  9.2912666726804703e+10  2.4083407715466042e+10  2.5237700382718933e+10  1.6175535010113640e+10  4.6115329563549255e+10  4.8735558360015236e+10  1.5761280281311640e+10  2.6131406608428604e+10  2.2316882849165424e+10  6.6811303983864792e+10  1.8530621350720844e+10  2.7463635524653053e+10  2.4248951440676048e+10  8.7801173612657303e+10  3.4672633260210533e+10  6.7076848591989563e+10  2.4815352496908829e+10  2.1333522646567883e+10  2.0792143881905975e+10  5.3240271855203499e+10  5.0875562561267525e+10  2.6142412476928654e+10  2.1221704349241661e+10  2.4850754000187481e+10  3.5779282297694298e+10  1.4984343328900240e+10  1.9571454356791489e+10  3.3867573629567097e+10  1.5914329350130173e+10  3.1597821438928917e+10  3.3154750999652138e+10  3.1605134754827950e+10  1.9387571669215351e+10  1.8336603288175743e+10  3.2867005662800076e+10  9.2683906209763580e+10  9.7470169682712860e+10  8.4614363397941086e+10  1.5019555795400129e+10  6.7934455151691269e+10  1.7612699565439152e+10  3.3354458985772194e+10  1.5015761584654003e+10  3.6810547067633865e+10  2.3029068705876396e+10  1.9370071519853905e+10  1.5623288337573107e+10  9.4094543949645142e+10  6.3510960064145462e+10  7.6522689524273880e+10  3.7998316249858742e+10  1.7309255448633183e+10  1.9346789992122520e+10  3.1707111664896988e+10  1.5004792563125908e+10  1.5220498292822123e+10  2.2350619858770039e+10  2.2944421038694286e+10  2.2270411204536236e+10  2.1754272110714897e+10  2.3355013989098915e+10  6.7260959608604729e+10  2.2079994207854656e+10  6.1046038063292641e+10  6.0044223282310623e+10  6.8377187446277992e+10  1.5039767218762259e+10  1.5233097843377195e+10  1.8280457499155056e+10  2.5380892121359554e+10  6.8551116951292587e+10  7.2127291352046173e+10  5.2478084883199493e+10  4.9600599824150169e+10  3.9386849647434647e+10  2.3440901056423706e+10  3.0484197561651974e+10  2.8762860429992352e+10  2.0165373979975853e+10  2.1427869749949898e+10  2.0736176446178852e+10  3.4135856492368549e+10  1.5995401335204178e+10  2.3537441796945217e+10  1.5241050471367819e+10  9.0818743722850952e+10  2.4051877181915245e+10  1.8823242003871700e+10  1.8525733349185585e+10  2.4550446398602421e+10  3.4200283117975960e+10  3.9959669377903694e+10  1.9634055935698650e+10  3.5059112851458939e+10  1.9815700274437366e+10  1.5797829188925085e+10  1.5200870077991905e+10  1.5268167895382072e+10  1.4956512653440069e+10  1.5249764279637356e+10  3.8422903560685219e+10  7.5045505938907898e+10  6.7670688356986206e+10  1.5689509018094822e+10  1.5784193585202599e+10  2.3991892547152626e+10  3.5804404625846222e+10  3.6441511026327003e+10  2.6008725832879395e+10  5.7361811470307930e+10  5.0835194585824593e+10  5.2508119460015099e+10  4.4967049227102921e+10  4.3126021561684875e+10  3.7656903856928917e+10  3.8950392073272964e+10  3.5687563925512436e+10  3.8782132947417671e+10  3.0537946283205585e+10  2.3184118915595123e+10  8.4199910188850204e+10  1.6298691501916338e+10  3.3044994839100193e+10  3.6430172817561928e+10  1.6264894595487911e+10  4.5858527059804863e+10  4.3187679023961082e+10  4.2936979097257294e+10  3.6674381923460892e+10  3.0769889901198883e+10  3.1147520216935951e+10  2.7682590733901001e+10  2.3156407809987453e+10  9.6731743919060959e+10  4.8686174583771706e+10  3.5460884482122833e+10  4.5434922453385780e+10  5.0939554758534523e+10  1.6304288399649256e+10  3.4514484895358185e+10  2.4771802374341797e+10  8.4879501387588409e+10  2.4429231758087578e+10  5.5231082139379593e+10  2.1794908575571083e+10  2.2337890683760052e+10  2.2938222227998245e+10  2.2497117773706329e+10  3.0328163796166904e+10  7.5125649858426743e+10  5.7828189483581123e+10  3.6271125756236893e+10  1.7221157572401424e+10  1.7713098124680424e+10  1.7018256202299513e+10  2.3668570050206245e+10  1.4938128808898415e+10  5.1159456410744286e+10  5.2478067254305618e+10  5.7860359182129478e+10  1.7542246409430935e+10  1.9657713714598854e+10  4.4826832459530289e+10  4.2051602468243111e+10  1.8017107388982029e+10  9.6920157827691132e+10  1.8211903724688652e+10  2.5181295231505859e+10  2.3463754487577900e+10  2.5855367607490597e+10  7.8843441318723419e+10  3.8673824232441292e+10  9.2957903528367386e+10  2.4019602647022827e+10  2.5347435833460018e+10  5.1609594491575447e+10  3.3103353689457554e+10  2.0115088915409672e+10  2.1333431060275814e+10  3.0683793056195889e+10  2.8597343106775444e+10  2.9479791324391731e+10  6.0727880932973808e+10  5.5658951536598984e+10  2.0060427716377338e+10  3.2967837123986271e+10  2.2555327392735817e+10  1.5741685408952541e+10  1.9750146606040253e+10  1.5749520216299721e+10  1.5866327868909504e+10  2.6153150723193184e+10  1.4953358721458483e+10  1.6806454582116510e+10  9.2812695074000732e+10  2.7451066422649212e+10  3.4052515665501774e+10  1.6121966019517958e+10  7.9032061080371765e+10  1.5022958792174938e+10  3.0343284145973412e+10  8.5288296249627502e+10  9.0843021094665741e+10  4.0432973448613945e+10  2.0333726659067505e+10  1.9698416893251282e+10  7.1292342934217987e+10  1.6867487594076550e+10  6.0061807556167297e+10  9.2053961008025772e+10  1.5578507275671072e+10  1.7639508431027184e+10  4.0939191304995895e+10  4.3598140396609558e+10  2.9037100215020893e+10  2.8647120012734352e+10  5.6096934589177185e+10  5.3673432310449966e+10  2.4446525042518921e+10  3.8471500238070549e+10  3.6316666358867706e+10  3.6570772435639557e+10  6.1939478518618324e+10  1.6084380922439747e+10  2.1817565852384995e+10  1.8098187774727211e+10  1.9474856143587067e+10  4.8496560184554848e+10  1.7640041039230301e+10  1.8083918364025124e+10  1.7381582322858593e+10  1.5222013013588417e+10  1.5005884790068798e+10  2.3981207618526855e+10  9.1623268529627136e+10  1.8592819259391205e+10  2.7089098938970573e+10  3.8314615477511047e+10  1.8374330533498814e+10  1.9652225831665634e+10  1.5607939667602171e+10  1.6589742738555464e+10  3.8031366113283669e+10  1.5783164182206131e+10  1.5268278514572393e+10  7.7181949350422699e+10  6.7990985085494240e+10  2.4922185565738049e+10  1.6549160936355652e+10  4.6290840092663246e+10  1.9210361084361809e+10  1.5036329537074791e+10  2.3709572953249401e+10  2.4687532543724903e+10  2.4795843940468361e+10  2.5124675244543892e+10  2.3714933607106865e+10  4.5947722506620018e+10  4.4793544278852020e+10  7.6914639308986740e+10  6.3166939634395821e+10  2.8653684117185001e+10  3.1980671172393097e+10  2.8738904385402580e+10  3.6541415575494019e+10  6.5068342001659058e+10  7.2033573209138687e+10  7.0163167173874298e+10  2.6936912044982193e+10  3.4722203584758453e+10  7.0593517751892883e+10  2.7331437253693420e+10  2.7455985521982708e+10  6.6143719967554947e+10  1.6756613791039885e+10  1.5595345080926411e+10  2.8770234762639175e+10  1.5008105397338669e+10  3.8419708772725197e+10  2.6796533128384384e+10  3.4276912496556923e+10  4.1237598231156036e+10  4.3167691568249222e+10  2.8381525074633785e+10  1.8690574990719467e+10  1.8140191155711143e+10  2.0682822715031727e+10  2.9990122032240067e+10  2.9415144402361546e+10  2.6014775183684082e+10  2.1408557557347157e+10  2.0565422785050003e+10  2.1069128496112976e+10  2.3659158943113262e+10  1.7790863692332439e+10  1.8254467391384926e+10  1.7941457814599033e+10  1.8287358872104721e+10  6.1376922663952202e+10  5.4911001973205414e+10  8.4470186002438004e+10  1.6570227883034349e+10  1.8419855534967491e+10  2.6618754705570889e+10  1.5751271860508802e+10  1.5881135245466471e+10  4.7611005612545059e+10  1.5850828769375135e+10  1.5590920347370249e+10  4.7144277903797363e+10  9.5876322049896973e+10  1.7612951442233727e+10  6.5210194291517975e+10  3.5784344139232529e+10  4.0241181734530197e+10  4.2222826176198456e+10  3.6597254011956680e+10  2.3146551939224808e+10  5.4889456038602730e+10  2.1315574278547310e+10  3.6316846973582474e+10  4.8357551603339615e+10  2.6512721703033772e+10  1.7490689139607349e+10  1.7815568143639851e+10  1.6136780203507692e+10  1.9292646168949364e+10  1.8614692669090191e+10  4.0988044216928238e+10  1.5275589732702635e+10  2.3795019925113953e+10  2.0434351115364731e+10  2.2948232664680584e+10  3.3735372508212914e+10  3.2288109317735355e+10  1.9812799726073200e+10  4.3782834749200142e+10  1.4963245935364233e+10  3.0170892227135620e+10  1.5951845436933979e+10  2.7018884137177368e+10  1.7281980278036285e+10  1.7062158693962183e+10  1.6943180169793917e+10  1.6354871859457876e+10  8.4973008146729416e+10  2.8524372362269978e+10  2.3845146462091702e+10  2.5123428452697056e+10  5.1450742043766342e+10  5.3028192132412796e+10  2.6901523515338627e+10  2.8349811388608479e+10  1.6904366917019947e+10  1.6225970695966789e+10  1.6449117505091417e+10  2.0854391739682434e+10  1.9092712597209007e+10  2.9036651705830326e+10  2.1368011722172501e+10  3.1703651653492363e+10  2.9325988695359737e+10  2.9530142571726448e+10  2.1848914647257851e+10  5.2749395271235786e+10  2.5536547323578785e+10  1.9872381253649445e+10  1.7942738006639011e+10  2.1286808841579716e+10  2.3027049192050873e+10  1.8702063694265076e+10  2.2509422214317497e+10  5.2554898130411194e+10  5.1112220827465851e+10  4.9169124669738335e+10  1.9475525049212952e+10  1.5559311570234173e+10  1.5149053147126513e+10  2.0266390323954620e+10  1.9235039318829163e+10  4.4472188193073845e+10  4.5298051057578125e+10  2.6377820890679676e+10  2.6332127443029858e+10  3.1710535273569324e+10  3.3415530290818100e+10  2.4657210933498692e+10  4.0606464414011070e+10  2.3674057164959061e+10  2.4706326907537914e+10  1.9242380341910774e+10  1.6338347731876377e+10  5.1677694873145638e+10  5.2269117618606682e+10  2.9273079137788868e+10  1.8093803262724232e+10  1.8396535843612179e+10  3.1539380321111214e+10  3.3566987466332363e+10  2.8297465325727829e+10  1.5986458366141239e+10  2.5029094373752243e+10  1.8996313603267429e+10  1.8798200479651112e+10  2.9861268213939419e+10  1.4996131028351032e+10  1.5645539839863150e+10  1.5212359450095699e+10  1.7326254517770515e+10  3.3739313645540142e+10  3.8839027898601593e+10  3.2023424826836483e+10  3.0217128879079185e+10  4.3669732027045021e+10  4.0940530933922852e+10  1.9053530194742790e+10  1.8935044283862110e+10  1.8081328467397884e+10  1.5050392445813063e+10  3.0611370916161823e+10  1.5018221982774054e+10  2.3117203670294586e+10  5.0132960116084259e+10  1.5174582912277620e+10  1.5689060789921732e+10  1.7388856636819565e+10  2.5395450031641670e+10  2.1093815211296009e+10  5.7651937484081429e+10  6.3000030161259750e+10  1.5181327730408407e+10  1.4977932330060303e+10  5.5207198018451408e+10  4.5519822788273148e+10  4.2267995864236359e+10  4.1153889759105301e+10  1.4994589874898046e+10  2.2478675352741123e+10  2.1748057763339924e+10  2.2632507052385864e+10  1.5192354029170700e+10  1.5994949530136028e+10  2.1326193173781521e+10  1.7170341884528757e+10  1.5796452513383711e+10  1.5223631640118780e+10  1.7637843313345467e+10  2.3112762546318348e+10  1.5042150130564234e+10  1.6219030145596590e+10  1.6103475068453770e+10  1.6696863627443157e+10  1.9398902002032593e+10  1.6412813920604982e+10  2.9559059248409832e+10  9.1077009893877197e+10  6.7985429424847771e+10  1.5120194213294298e+10  4.7747004021000832e+10  2.7399007051324841e+10  2.5471127779502930e+10  2.6689717909714993e+10  1.9801220832673130e+10  1.6392834473725296e+10  1.5227749138241034e+10  1.4937889823816071e+10  2.2580384183159061e+10  4.2816575513086037e+10  2.3996769438232906e+10  1.6120562868283964e+10  1.6457387464066811e+10  4.4038852228608490e+10  2.1230972142641026e+10  2.1810089892955574e+10  8.1216432613003311e+10  1.7789974479613537e+10  1.6744295448707935e+10  5.6904134529792160e+10  6.4220242422230423e+10  1.8650499285991356e+10  2.8445135349705536e+10  2.9390496990745274e+10  3.1260308367996571e+10  1.5975162206838087e+10  1.5226472012765732e+10  3.9448574383170166e+10  1.9167180484086674e+10  2.0184808977111534e+10  1.5824517936574242e+10  1.6908562944110363e+10  2.9567477804459835e+10  3.1705677193123528e+10  2.9950466144642693e+10  3.0688486634421394e+10  1.7993902133326336e+10  1.7797804924436390e+10  6.9239334589629074e+10  1.5661476739696386e+10  6.9866537853451981e+10  1.7030216233056263e+10  8.0676985247082733e+10  1.7907394537544868e+10  2.9250972634162991e+10  1.5616747590022110e+10  3.0985242614512863e+10  2.4245150769081638e+10  1.7899046257669518e+10  3.2233224732498402e+10  2.3958926051458733e+10  1.6991135466339987e+10  1.6206491309200777e+10  1.6874227962071350e+10  1.7060639132901337e+10  1.8303649070708908e+10  1.8302434133144981e+10  4.1419841070412842e+10  5.6547752258567688e+10  1.4918858455340696e+10  1.5702754475400660e+10  1.5234506219732307e+10  1.6238578277754108e+10  1.5533004738269648e+10  1.5796173739572472e+10  1.5609377832400879e+10  1.5248038236037558e+10  1.4961984300172081e+10  1.7334103937352146e+10  1.8088487964729191e+10  4.8780814848040833e+10  4.1016133043344742e+10  2.0743522426411343e+10  1.5040526284068766e+10  2.0326775727369457e+10  2.0582830041177761e+10  2.3369397537871090e+10  1.7561883218661156e+10  2.4377213349044949e+10  7.8077834075822540e+10  6.8173243512514740e+10  1.5960847793989836e+10  1.7067937996275225e+10  1.8168427131249985e+10  2.0181704200789253e+10  5.5208146815917839e+10  9.7194797878939835e+10  3.1956363053172733e+10  1.7757688236010700e+10  1.8575981451778793e+10  1.8787680852762432e+10  1.9632854311720680e+10  3.3571880780144772e+10  3.2518823725278553e+10  5.2481337359640350e+10  1.8040441502326042e+10  1.8513966207801079e+10  1.7817391292904087e+10  1.8564576308889030e+10  7.0354515188264877e+10  3.6239535908560654e+10  3.8160954920378593e+10  3.8463759347657219e+10  3.2678188011915287e+10  2.9466080472321774e+10  2.6448104212267822e+10  1.9619143266563881e+10  1.5026284803775721e+10  7.4067961756546890e+10  1.4979216063545258e+10  3.6415289774754852e+10  3.8073083745053810e+10  1.5617837142437065e+10  3.1866634893988079e+10  2.9347023972039780e+10  4.1775499263928352e+10  1.9384028276082771e+10  2.1910143665322914e+10  1.8034586946339493e+10  1.5232775412791964e+10  2.8018681398404556e+10  5.8466304655750862e+10  1.6227670947412382e+10  1.6502908223759949e+10  2.5787945263262547e+10  2.7755218849276157e+10  6.6755725080478401e+10  7.0011479017804810e+10  7.5870870242849274e+10  6.1402029476324867e+10  6.4517677548265549e+10  1.5173379077860920e+10  3.3529298030259598e+10  3.6668417922826355e+10  5.9634101071862068e+10  6.2093278699340477e+10  6.1265253742993118e+10  7.8897323185648239e+10  3.2354979713377293e+10  2.0310821497416321e+10  2.0235118176136559e+10  3.1226069129023357e+10  1.8376888851875751e+10  1.5228441921238228e+10  2.3622144566016731e+10  4.2539081480717560e+10  1.4987277336103836e+10  2.1154322916204350e+10  2.5528590148204941e+10  1.7186896891796207e+10  5.8403097191747681e+10  1.6504151001101101e+10  1.8109073029111885e+10  2.9572834112112888e+10  2.5179266247248604e+10  8.1422115079969849e+10  9.3650706897019714e+10  9.6932069564638367e+10  2.9429327319495922e+10  1.5667896161386076e+10  9.5317299758234146e+10  3.4444196835843437e+10  1.4947900549415054e+10  3.1429333292758511e+10  5.1622397902985954e+10  5.2246330562942978e+10  4.9740008036252205e+10  3.9659327804336861e+10  2.1040943551754902e+10  2.2586612762896061e+10  1.7933589347934784e+10  1.8368917901117176e+10  1.7686906127902580e+10  1.8480535538324875e+10  1.5791980449721872e+10  2.2191759114452797e+10  3.6612716115587906e+10  3.2241475611882656e+10  1.6861154902237392e+10  2.5870856414614204e+10  9.5210072148125290e+10  4.5699121911629509e+10  1.6219629079983706e+10  2.7528472892788227e+10  2.4134932394119991e+10  2.2467731840153706e+10  5.0808078095100739e+10  3.3966200760039082e+10  8.1429879211747925e+10  3.9762546594627831e+10  2.5453688874705280e+10  1.5266934237091869e+10  4.4602576672251503e+10  4.6145875886746239e+10  4.7705951866856949e+10  5.1222316715872681e+10  4.9610317945976692e+10  2.1012236976015125e+10  1.7739883965100983e+10  2.0260266559058304e+10  1.5744431128984003e+10  2.0852878882891911e+10  1.8289519070136269e+10  2.1602628270841270e+10  2.1317122723480709e+10  2.2091255182837860e+10  1.7799944850625145e+10  2.1572518590142418e+10  1.8392195261296413e+10  1.6046978372425213e+10  3.1569155932065849e+10  2.1665296717720497e+10  2.1384149117419685e+10  1.9960270911181705e+10  2.1034289411820572e+10  2.4967745619177917e+10  2.7148959282270504e+10  2.6300067779674843e+10  5.8653614609771584e+10  2.1055009128697029e+10  3.9936277914597191e+10  2.1101300081271923e+10  1.9622496390402767e+10  2.5898732755126427e+10  1.5609479934658865e+10  1.8076735243250206e+10  1.8369896489735718e+10  1.5459136698077322e+10  4.8248211444758141e+10  5.4831912573137947e+10  1.7371255310260063e+10  2.1334384577066605e+10  1.8189616459800117e+10  1.8380905007899837e+10  1.5307213246551420e+10  8.0762268905181839e+10  1.8315171777480259e+10  2.5089409130085125e+10  1.7506098117737602e+10  1.7128216093272680e+10  2.3781322551222378e+10  2.4711569477098587e+10  6.5513214564981911e+10  7.1529491952865738e+10  1.9360795581346146e+10  1.9762420630692612e+10  7.2408781815867249e+10  6.6760334282767555e+10  3.2502591789141560e+10  1.9603123188180744e+10  1.6146117566728094e+10  3.4400690167263000e+10  1.5188578491344465e+10  2.9374550053902729e+10  2.7088417411613453e+10  3.3599726980698399e+10  3.1466787542365108e+10  7.0022483467121140e+10  9.7952449267805237e+10  2.1825043153237686e+10  4.6730664529577919e+10  2.1211056610068550e+10  1.8641918404785877e+10  4.9728349553128456e+10  2.9828096293130085e+10  1.5625656236216890e+10  2.0050026499947052e+10  2.8160552518949421e+10  1.6916843578006802e+10  1.5008665128566626e+10  3.5430712965549248e+10  2.1717222827425739e+10  1.8418818826916313e+10  6.2869060352310272e+10  6.1482842532805397e+10  5.8403783759564095e+10  2.0897371325647728e+10  1.7540037881726501e+10  1.7648381711619083e+10  2.9950140889403465e+10  2.2341150091296474e+10  2.2413189201739559e+10  1.9876527205092373e+10  1.5188224007068695e+10  2.1839624975674198e+10  2.4095720651042332e+10  2.3437413265029690e+10  4.5404100229798912e+10  4.4691135568167992e+10  4.1577518942375511e+10  2.5172360145024658e+10  6.0958735635356262e+10  2.6637650466418468e+10  1.9712769397222126e+10  1.5688985759825209e+10  3.5004171339251984e+10  2.0234873805063042e+10  1.8177861877153328e+10  2.7587259412992970e+10  2.1466478929903648e+10  2.2170351074554287e+10  2.2187940349969978e+10  4.6110556751181755e+10  3.4001166693339783e+10  2.4750239300231407e+10  2.1334316454986771e+10  2.9182474915179031e+10  1.5667626489378725e+10  1.5176784465038280e+10  5.2118061015975426e+10  1.5244711454246733e+10  1.8923542364968723e+10  9.6057860291786987e+10  2.8236742906856647e+10  2.7158605499482464e+10  1.7063732079726973e+10  1.4923180053265045e+10  2.0484018044827835e+10  3.9661685154467491e+10  7.1823778281866577e+10  2.4415110057101307e+10  2.5721091200734901e+10  1.7085047594157116e+10  1.6752917581865391e+10  1.6527954459044346e+10  1.4973380961763441e+10  1.5169125836313814e+10  4.3626171652643524e+10  1.8490750984046791e+10  1.5652473256562483e+10  3.9759207779345329e+10  3.8188527769476357e+10  2.5067172096618660e+10  2.6591359172809551e+10  1.5672351762354633e+10  4.7399228452898781e+10  9.2903520085723984e+10  3.4802765353822037e+10  1.9977318522299316e+10  3.4054834999810856e+10  1.5038444985595325e+10  2.2679346703537689e+10  2.1497352172603313e+10  2.6125499524039303e+10  1.7360325139129391e+10  1.6887852484451809e+10  1.6548048197792368e+10  1.6009203270088552e+10  1.5635768260911060e+10  1.5215875098372614e+10  2.2169431774030361e+10  4.3719066355014023e+10  9.3026024008729156e+10  1.7947822490707760e+10  9.2542924025973251e+10  5.0106472660515549e+10  1.8453104058352043e+10  6.5767769380013313e+10  7.3179770517911209e+10  4.7336329718500961e+10  1.8252284209027096e+10  2.8241585682644192e+10  3.2814897482316254e+10  1.9742782187047729e+10  2.0452223025653664e+10  1.6583897714653757e+10  2.4145341283978664e+10  1.7235923819007721e+10  1.6516925916383945e+10  1.6648149641303284e+10  2.0325713507794952e+10  1.9218766679086899e+10  2.5142220769768738e+10  7.5633131353924545e+10  2.0730888090218651e+10  1.5605669359059980e+10  7.9224670298270844e+10  2.8751056136464695e+10  3.1239727244243782e+10  3.0652239641413868e+10  3.1003082279731121e+10  1.5589375931980585e+10  8.5427479235276245e+10  5.6173251298125801e+10  1.7764061861984474e+10  1.5765316938374765e+10  4.9442765858656837e+10  7.0651044093693207e+10  3.4916794479917343e+10  1.7083152413508085e+10  4.5125877305367371e+10  3.1256444551003166e+10  2.9224462353049358e+10  1.6279119536813711e+10  5.7966022639165154e+10  2.2434985257596165e+10  1.7277997685481964e+10  1.8025128235035606e+10  2.9802948167372768e+10  3.0031881339388348e+10  3.0207325697898903e+10  1.7693810154501186e+10  1.9434410285722492e+10  3.2448503333795158e+10  2.3379226304552658e+10  2.0063157831524311e+10  2.0647455021537136e+10  3.9307804319908539e+10  5.4518025038126236e+10  3.0513892858712322e+10  2.0518893308733753e+10  1.6224509165106089e+10  1.9087270887434837e+10  1.8018280793172459e+10  7.4400800698192123e+10  3.0704092560709003e+10  2.1450749016905670e+10  2.5488531723739445e+10  2.1181714335906513e+10  2.2306661841314190e+10  2.2043024329928528e+10  1.4992245658052807e+10  2.6374385788950253e+10  2.4177586194748177e+10  2.3400236414617104e+10  2.3232808962257973e+10  1.6174205556287815e+10  1.5225808036406866e+10  2.1595859893029709e+10  1.7466530306622040e+10  4.3393790223290077e+10  1.7813707897697712e+10  2.2827683192238480e+10  2.2017970092948311e+10  2.2186290183511047e+10  2.4547308439729897e+10  2.6389119096759857e+10  1.6916182200829826e+10  3.1685224147896122e+10  1.9380671958764446e+10  5.4295510043224228e+10  2.3429614677234264e+10  3.7899858724999977e+10  3.1425149941884022e+10  1.5257768964926762e+10  1.5247970812566549e+10  1.6942256524238186e+10  2.1829528270658058e+10  3.2606385442127422e+10  2.9221709165189014e+10  3.6571960227014687e+10  3.3491965968693279e+10  2.4054772399289085e+10  2.9045527543158295e+10  2.5508059895542252e+10  1.5542473820564308e+10  5.6470206186264603e+10  1.6573251494730892e+10  4.2969386286770493e+10  4.4319443058508568e+10  6.1909759292593933e+10  1.9864998823692589e+10  2.0934988297395893e+10  2.9592578329318089e+10  1.7000188810512333e+10  8.3861147578172989e+10  4.6022792541496048e+10  3.1366735215099728e+10  3.0172198945466007e+10  3.0489051969335766e+10  2.2693355033150681e+10  1.6460403095915277e+10  2.0436563422664127e+10  2.1253478027539669e+10  6.3237641667979240e+10  3.4687283005628906e+10  3.5318934666685883e+10  1.7953294940435356e+10  1.8092377562070312e+10  1.5972281737740067e+10  1.5021784662361212e+10  1.8546831561360920e+10  1.5902177587725386e+10  1.6070317931654230e+10  2.6856291035058720e+10  1.6235066057495508e+10  3.8058553618063515e+10  1.6172742669895933e+10  1.6543759328458263e+10  1.6881623472575726e+10  1.8106791337889008e+10  3.2426580178874733e+10  1.7902352016478699e+10  3.6109626123518402e+10  3.3723516600474720e+10  6.4070347103351028e+10  2.0026861171041759e+10  1.8151823875838356e+10  2.0571822268978138e+10  9.3015103156775635e+10  2.4625915200675949e+10  4.1026468717396057e+10  2.0046729873450615e+10  8.2370202905786621e+10  2.1136971412899448e+10  4.1703317133366333e+10  5.3330019025259346e+10  1.7326766313689594e+10  6.3847245079534584e+10  2.5536427211077324e+10  1.7235281011402683e+10  1.6609423104352177e+10  2.3368438090671638e+10  1.7669167661263580e+10  1.8049450739006847e+10  9.5012810564120697e+10  5.1713425775094063e+10  5.1207110053620300e+10  3.5934571338211807e+10  1.7521047960845425e+10  1.7756198827351810e+10  1.8893130305688393e+10  4.4644512030001686e+10  1.4937969960269634e+10  1.5196934409752235e+10  1.6808091912902987e+10  3.6067834447236603e+10  3.6377507154204407e+10  3.8923213519267982e+10  2.4913879847917213e+10  1.5979120889029196e+10  4.3779383489043930e+10  2.2037824436622139e+10  4.2660343750834068e+10  1.5558415543099030e+10  1.6603186062615023e+10  4.3168502551542816e+10  1.4988445409300594e+10  2.5125427738799263e+10  2.4641693222810173e+10  2.4778369801973164e+10  2.8645762777726868e+10  1.4941424251310993e+10  1.4916103567490534e+10  1.4896298517248859e+10  1.4907663824494905e+10  1.4926703592892424e+10  1.4929396316925699e+10  1.4965250136197538e+10  1.5029306341757412e+10  1.4954019884786097e+10  1.4930689023348372e+10  1.4913720992072155e+10  1.4982015169947653e+10  1.4935284072458523e+10  1.4890942042465034e+10  1.4934485816099762e+10  1.4959380017836639e+10  1.4950280158279535e+10  1.4897829229608761e+10  1.4921690316701872e+10  1.4933493438572428e+10  1.4888045838576321e+10  1.4895385267922907e+10  1.4945166940922710e+10  1.4944785370469521e+10  1.5005637130406378e+10  1.5021196490234037e+10  1.5018339611031921e+10  1.4910746799732029e+10  1.4933305357799372e+10  1.4910440406497334e+10  1.4936358751230255e+10  1.4920208051458559e+10  1.4931616318561451e+10  1.4905710331408743e+10  1.4945272492087532e+10  1.4923156749938801e+10  1.4929064305622072e+10  1.4898739385842791e+10  1.4912397091869648e+10  1.4939222001987255e+10  1.4923502232932480e+10  1.4987684825303436e+10  1.4948492065196428e+10  1.4907156929121473e+10  1.4918422252013582e+10  1.4875293105148872e+10  1.4871679021420300e+10  1.4956192257569181e+10  1.4982954579356619e+10  1.4959779476628290e+10  1.4903439438467464e+10  1.5026730273424696e+10  1.4931491519731045e+10  1.4959058481920124e+10  1.4949953699272245e+10  1.4957473739346830e+10  1.4964096895131424e+10  1.4912786907639282e+10  1.4916650027307076e+10  1.4935623888560810e+10  1.4933674530264244e+10  1.4909846164359880e+10  1.4949516307514601e+10  1.4885287321724661e+10  1.4926602635489645e+10  1.5025082786025908e+10  1.4885863858915874e+10  1.4928253589093016e+10  1.5068956907756689e+10  1.4858355668663851e+10  1.4990900164184946e+10  1.4940567882422499e+10  1.4924493548746853e+10  1.4947290632413477e+10  1.4918799516891598e+10  1.4974577702764688e+10  1.4894935214654972e+10  1.4929243106724108e+10  1.4903707142998299e+10  1.4938694300793777e+10  1.4943496363733406e+10  1.5014027945218328e+10  1.4925162921499575e+10  1.4954098334693014e+10  1.4943964719735804e+10  1.4908047447818464e+10  1.4948004981969418e+10  1.5035784233262568e+10  1.4894816371310675e+10  1.4920473901191708e+10  1.4943999979366501e+10  1.4936419973431532e+10  1.4942456503780344e+10  1.4913545673547867e+10  1.4973246989287645e+10  1.4926396851850428e+10  1.4912544160654049e+10  1.4929773699864195e+10  1.4930659623144836e+10  1.4884729406839996e+10  1.5037388104520409e+10  1.4989788472724361e+10  1.4910952203544209e+10  1.4955545710025324e+10  1.4895444442125769e+10  1.4988192108722673e+10  1.5000247168341345e+10  1.4936173326832138e+10  1.4953412823033134e+10  1.4934668920883448e+10  1.4938079447271919e+10  1.4909617562868061e+10  1.4903685530317196e+10  1.4992358778757145e+10  1.5023302214800117e+10  1.4932491333418308e+10  1.4961971020975140e+10  1.4905091392558846e+10  1.4912260338029322e+10  5.4141177360244682e+10  5.2119803042154686e+10  3.8127249032683998e+10  1.7534031927539333e+10  1.6030077250329071e+10  1.5248297910897532e+10  1.6224863605358154e+10  1.6387878389178034e+10  2.0390701854633385e+10  1.9558076738913185e+10  1.7568965404441463e+10  3.1797850397655945e+10  2.3300014349722542e+10  1.5162697738603888e+10  7.2278665564875290e+10  2.0565419955352760e+10  2.5947278533515778e+10  5.5469083710363609e+10  2.0120003582704018e+10  1.8899204279817654e+10  1.7452654632777317e+10  1.5195013173566820e+10  2.3057812200627117e+10  4.3029243367059860e+10  1.8587169115049374e+10  1.7915563338064739e+10  3.4815702521725502e+10  9.3937096981045197e+10  3.4706456259806030e+10  2.5803050869546818e+10  2.5351675191469059e+10  </DataArray> 
</PointData> 
</Piece>
</UnstructuredGrid>
</VTKFile>